$*$$$$$$$$$$$$$$$$$$$$$$$$$$$$$$$$$$$$$$$$$$$$$$$$$$$$$$$$$$$$$$$$$
$*
$*                    Simcenter v2206.0.0.8101 Translator
$*                    for Simcenter Nastran version 2206.0
$*
$*             FEM FILE: D:\Latex_docs\MaM\lectures\12\solution\Static_stress_case_study v2_step\Static_stress_case_study v2_step_fem1.fem
$*             SIM FILE: D:\Latex_docs\MaM\lectures\12\solution\Static_stress_case_study v2_step\Static_stress_case_study v2_step_sim1.sim
$*        ANALYSIS TYPE: Structural
$*        SOLUTION NAME: Solution 1
$*        SOLUTION TYPE: SOL 101 Linear Statics
$*
$*    SOLVER INPUT FILE: static_stress_case_study_v2_step_sim1-solution_1.dat
$*        CREATION DATE: 21-Apr-2023
$*        CREATION TIME: 09:14:17
$*             HOSTNAME: DESKTOP-6AFHIMM
$*      NASTRAN LICENSE: Desktop Bundle
$*
$*                UNITS: mm (milli-newton)
$*                      ... LENGTH : mm
$*                      ... TIME   : sec
$*                      ... MASS   : kilogram (kg)
$*                      ... TEMPERATURE : deg Celsius
$*                      ... FORCE  : milli-newton
$*                      ... THERMAL ENERGY : mN-mm (micro-joule)
$*
$* IMPORTANT NOTE:
$*     This banner was generated by Simcenter and altering this 
$*     information may compromise the pre and post processing of results
$*
$*$$$$$$$$$$$$$$$$$$$$$$$$$$$$$$$$$$$$$$$$$$$$$$$$$$$$$$$$$$$$$$$$$
$*
$*$$$$$$$$$$$$$$$$$$$$$$$$$$$$$$$$$$$
$*
$* FILE MANAGEMENT
$*
$*$$$$$$$$$$$$$$$$$$$$$$$$$$$$$$$$$$$
$*
$*
$*$$$$$$$$$$$$$$$$$$$$$$$$$$$$$$$$$$$
$*
$* EXECUTIVE CONTROL
$*
$*$$$$$$$$$$$$$$$$$$$$$$$$$$$$$$$$$$$
$*
ID,NASTRAN,static_stress_case_study_v2_step_sim1-solution_1
SOL 101
CEND
$*
$*$$$$$$$$$$$$$$$$$$$$$$$$$$$$$$$$$$$
$*
$* CASE CONTROL
$*
$*$$$$$$$$$$$$$$$$$$$$$$$$$$$$$$$$$$$
$*
ECHO = NONE
OUTPUT
DISPLACEMENT(PLOT,REAL) = ALL
SPCFORCES(PLOT,REAL) = ALL
STRESS(PLOT,REAL,VONMISES,CENTER) = ALL
$*  Step: Subcase - Statics 1
SUBCASE 1
  LABEL = Subcase - Statics 1
  LOAD = 101
  SPC = 3
$*
$*$$$$$$$$$$$$$$$$$$$$$$$$$$$$$$$$$$$
$*
$* BULK DATA
$*
$*$$$$$$$$$$$$$$$$$$$$$$$$$$$$$$$$$$$
$*
BEGIN BULK
$*
$* PARAM CARDS
$*
PARAM      K6ROT100.0000
PARAM     OIBULK     YES
PARAM    OMACHPR     YES
PARAM       POST      -2
PARAM    POSTEXT     YES
PARAM    UNITSYS   MN-MM
$*
$* GRID CARDS
$*
GRID*                  1               0-2.500000000E+013.0616168932E-15+
*       1.0000000000E+01               0
GRID*                  2               0-2.500000000E+01-3.061616893E-15+
*       0.0000000000E+00               0
GRID*                  3               0-2.500000000E+010.0000000000E+00+
*       5.0000000000E+00               0
GRID*                  4               0-2.448824891E+01-5.032463067E+00+
*       0.0000000000E+00               0
GRID*                  5               0-2.297394489E+01-9.858896189E+00+
*       0.0000000000E+00               0
GRID*                  6               0-2.051908539E+01-1.428170491E+01+
*       0.0000000000E+00               0
GRID*                  7               0-1.722417312E+01-1.811981977E+01+
*       0.0000000000E+00               0
GRID*                  8               0-1.322410059E+01-2.121610689E+01+
*       0.0000000000E+00               0
GRID*                  9               0-8.682631549E+00-2.344380372E+01+
*       0.0000000000E+00               0
GRID*                 10               0-3.785694320E+00-2.471170697E+01+
*       0.0000000000E+00               0
GRID*                 11               01.2662291759E+00-2.496791194E+01+
*       0.0000000000E+00               0
GRID*                 12               06.2663133358E+00-2.420192775E+01+
*       0.0000000000E+00               0
GRID*                 13               01.1009853899E+01-2.244511349E+01+
*       0.0000000000E+00               0
GRID*                 14               01.5302649292E+01-1.976939300E+01+
*       0.0000000000E+00               0
GRID*                 15               01.8968952740E+01-1.628431179E+01+
*       0.0000000000E+00               0
GRID*                 16               02.1858665188E+01-1.213254894E+01+
*       0.0000000000E+00               0
GRID*                 17               02.3853480540E+01-7.484077815E+00+
*       0.0000000000E+00               0
GRID*                 18               02.4871732847E+01-2.529208039E+00+
*       0.0000000000E+00               0
GRID*                 19               02.4871732847E+012.5292080392E+00+
*       0.0000000000E+00               0
GRID*                 20               02.3853480540E+017.4840778154E+00+
*       0.0000000000E+00               0
GRID*                 21               02.1858665188E+011.2132548937E+01+
*       0.0000000000E+00               0
GRID*                 22               01.8968952740E+011.6284311793E+01+
*       0.0000000000E+00               0
GRID*                 23               01.5302649292E+011.9769393001E+01+
*       0.0000000000E+00               0
GRID*                 24               01.1009853899E+012.2445113491E+01+
*       0.0000000000E+00               0
GRID*                 25               06.2663133358E+002.4201927750E+01+
*       0.0000000000E+00               0
GRID*                 26               01.2662291759E+002.4967911942E+01+
*       0.0000000000E+00               0
GRID*                 27               0-3.785694320E+002.4711706968E+01+
*       0.0000000000E+00               0
GRID*                 28               0-8.682631549E+002.3443803717E+01+
*       0.0000000000E+00               0
GRID*                 29               0-1.322410059E+012.1216106894E+01+
*       0.0000000000E+00               0
GRID*                 30               0-1.722417312E+011.8119819772E+01+
*       0.0000000000E+00               0
GRID*                 31               0-2.051908539E+011.4281704912E+01+
*       0.0000000000E+00               0
GRID*                 32               0-2.297394489E+019.8588961889E+00+
*       0.0000000000E+00               0
GRID*                 33               0-2.448824891E+015.0324630668E+00+
*       0.0000000000E+00               0
GRID*                 34               0-2.448822944E+015.0325578199E+00+
*       1.0000000000E+01               0
GRID*                 35               0-2.297392271E+019.8589478681E+00+
*       1.0000000000E+01               0
GRID*                 36               0-2.051910527E+011.4281676343E+01+
*       1.0000000000E+01               0
GRID*                 37               0-1.722423814E+011.8119757969E+01+
*       1.0000000000E+01               0
GRID*                 38               0-1.322411916E+012.1216095318E+01+
*       1.0000000000E+01               0
GRID*                 39               0-8.682548394E+002.3443834514E+01+
*       1.0000000000E+01               0
GRID*                 40               0-3.785629995E+002.4711716823E+01+
*       1.0000000000E+01               0
GRID*                 41               01.2662056868E+002.4967913133E+01+
*       1.0000000000E+01               0
GRID*                 42               06.2662257919E+002.4201950417E+01+
*       1.0000000000E+01               0
GRID*                 43               01.1009809873E+012.2445135087E+01+
*       1.0000000000E+01               0
GRID*                 44               01.5302709833E+011.9769346139E+01+
*       1.0000000000E+01               0
GRID*                 45               01.8968999749E+011.6284257034E+01+
*       1.0000000000E+01               0
GRID*                 46               02.1858659551E+011.2132559092E+01+
*       1.0000000000E+01               0
GRID*                 47               02.3853454138E+017.4841619651E+00+
*       1.0000000000E+01               0
GRID*                 48               02.4871725672E+012.5292785974E+00+
*       1.0000000000E+01               0
GRID*                 49               02.4871725672E+01-2.529278597E+00+
*       1.0000000000E+01               0
GRID*                 50               02.3853454138E+01-7.484161965E+00+
*       1.0000000000E+01               0
GRID*                 51               02.1858659551E+01-1.213255909E+01+
*       1.0000000000E+01               0
GRID*                 52               01.8968999749E+01-1.628425703E+01+
*       1.0000000000E+01               0
GRID*                 53               01.5302709833E+01-1.976934614E+01+
*       1.0000000000E+01               0
GRID*                 54               01.1009809873E+01-2.244513509E+01+
*       1.0000000000E+01               0
GRID*                 55               06.2662257998E+00-2.420195041E+01+
*       1.0000000000E+01               0
GRID*                 56               01.2662056950E+00-2.496791313E+01+
*       1.0000000000E+01               0
GRID*                 57               0-3.785629987E+00-2.471171682E+01+
*       1.0000000000E+01               0
GRID*                 58               0-8.682548394E+00-2.344383451E+01+
*       1.0000000000E+01               0
GRID*                 59               0-1.322411916E+01-2.121609532E+01+
*       1.0000000000E+01               0
GRID*                 60               0-1.722423814E+01-1.811975797E+01+
*       1.0000000000E+01               0
GRID*                 61               0-2.051910527E+01-1.428167634E+01+
*       1.0000000000E+01               0
GRID*                 62               0-2.297392271E+01-9.858947868E+00+
*       1.0000000000E+01               0
GRID*                 63               0-2.448822944E+01-5.032557820E+00+
*       1.0000000000E+01               0
GRID*                 64               0-2.081591795E+01-1.088880561E-01+
*       0.0000000000E+00               0
GRID*                 65               0-2.029788615E+014.0704564499E+00+
*       0.0000000000E+00               0
GRID*                 66               0-1.901368203E+018.1649691328E+00+
*       0.0000000000E+00               0
GRID*                 67               0-1.708089521E+011.1930356495E+01+
*       0.0000000000E+00               0
GRID*                 68               0-1.451289747E+011.5112208766E+01+
*       0.0000000000E+00               0
GRID*                 69               0-1.120718476E+011.7529642255E+01+
*       0.0000000000E+00               0
GRID*                 70               0-7.361374811E+001.9304208502E+01+
*       0.0000000000E+00               0
GRID*                 71               0-3.228044377E+002.0414168317E+01+
*       0.0000000000E+00               0
GRID*                 72               09.6144204230E-012.0732380509E+01+
*       0.0000000000E+00               0
GRID*                 73               05.1088724520E+002.0018132887E+01+
*       0.0000000000E+00               0
GRID*                 74               09.1301522413E+001.8540301528E+01+
*       0.0000000000E+00               0
GRID*                 75               01.2791530537E+011.6428471017E+01+
*       0.0000000000E+00               0
GRID*                 76               01.5842225376E+011.3708631078E+01+
*       0.0000000000E+00               0
GRID*                 77               01.8094768849E+011.0286550978E+01+
*       0.0000000000E+00               0
GRID*                 78               01.9677193631E+016.3537898544E+00+
*       0.0000000000E+00               0
GRID*                 79               02.0581021308E+012.1666917798E+00+
*       0.0000000000E+00               0
GRID*                 80               02.0694054608E+01-2.033454350E+00+
*       0.0000000000E+00               0
GRID*                 81               01.9780299281E+01-6.139557282E+00+
*       0.0000000000E+00               0
GRID*                 82               01.8113731601E+01-1.008059042E+01+
*       0.0000000000E+00               0
GRID*                 83               01.5833135887E+01-1.361972347E+01+
*       0.0000000000E+00               0
GRID*                 84               01.2973779766E+01-1.649921839E+01+
*       0.0000000000E+00               0
GRID*                 85               09.4544212172E+00-1.852567544E+01+
*       0.0000000000E+00               0
GRID*                 86               05.4552574434E+00-1.982982449E+01+
*       0.0000000000E+00               0
GRID*                 87               01.2012279177E+00-2.041434549E+01+
*       0.0000000000E+00               0
GRID*                 88               0-3.106071332E+00-2.022230304E+01+
*       0.0000000000E+00               0
GRID*                 89               0-7.285947705E+00-1.925918669E+01+
*       0.0000000000E+00               0
GRID*                 90               0-1.113885416E+01-1.759175529E+01+
*       0.0000000000E+00               0
GRID*                 91               0-1.443904523E+01-1.523060630E+01+
*       0.0000000000E+00               0
GRID*                 92               0-1.701266543E+01-1.207562955E+01+
*       0.0000000000E+00               0
GRID*                 93               0-1.896597634E+01-8.333456202E+00+
*       0.0000000000E+00               0
GRID*                 94               0-2.026848417E+01-4.263341210E+00+
*       0.0000000000E+00               0
GRID*                 95               0-1.740412885E+01-1.625361382E-01+
*       0.0000000000E+00               0
GRID*                 96               0-1.670884023E+013.2157496104E+00+
*       0.0000000000E+00               0
GRID*                 97               0-1.555249686E+016.7599662376E+00+
*       0.0000000000E+00               0
GRID*                 98               0-1.410310251E+011.0056169903E+01+
*       0.0000000000E+00               0
GRID*                 99               0-1.229794082E+011.2709970200E+01+
*       0.0000000000E+00               0
GRID*                100               0-9.555204932E+001.4393482385E+01+
*       0.0000000000E+00               0
GRID*                101               0-6.206646081E+001.5722901683E+01+
*       0.0000000000E+00               0
GRID*                102               0-2.641950137E+001.6749230849E+01+
*       0.0000000000E+00               0
GRID*                103               07.5161765325E-011.7284189423E+01+
*       0.0000000000E+00               0
GRID*                104               04.0927490483E+001.6441539051E+01+
*       0.0000000000E+00               0
GRID*                105               07.5674612488E+001.5126926802E+01+
*       0.0000000000E+00               0
GRID*                106               01.0781617318E+011.3528556986E+01+
*       0.0000000000E+00               0
GRID*                107               01.3343675520E+011.1601684511E+01+
*       0.0000000000E+00               0
GRID*                108               01.4896026368E+018.7789935624E+00+
*       0.0000000000E+00               0
GRID*                109               01.6063611654E+015.3627821994E+00+
*       0.0000000000E+00               0
GRID*                110               01.6915725357E+011.7450328337E+00+
*       0.0000000000E+00               0
GRID*                111               01.7289068554E+01-1.668098279E+00+
*       0.0000000000E+00               0
GRID*                112               01.6297879422E+01-4.962485893E+00+
*       0.0000000000E+00               0
GRID*                113               01.4837136682E+01-8.366646052E+00+
*       0.0000000000E+00               0
GRID*                114               01.3104033040E+01-1.147646836E+01+
*       0.0000000000E+00               0
GRID*                115               01.1066860288E+01-1.389106758E+01+
*       0.0000000000E+00               0
GRID*                116               08.2035529683E+00-1.522586479E+01+
*       0.0000000000E+00               0
GRID*                117               04.7818089475E+00-1.608561360E+01+
*       0.0000000000E+00               0
GRID*                118               01.1192531349E+00-1.652625021E+01+
*       0.0000000000E+00               0
GRID*                119               0-2.574022113E+00-1.637807596E+01+
*       0.0000000000E+00               0
GRID*                120               0-6.181299666E+00-1.564131452E+01+
*       0.0000000000E+00               0
GRID*                121               0-9.504728293E+00-1.448743220E+01+
*       0.0000000000E+00               0
GRID*                122               0-1.221959139E+01-1.288225203E+01+
*       0.0000000000E+00               0
GRID*                123               0-1.402814164E+01-1.026816685E+01+
*       0.0000000000E+00               0
GRID*                124               0-1.550101194E+01-7.009216203E+00+
*       0.0000000000E+00               0
GRID*                125               0-1.667670603E+01-3.504189039E+00+
*       0.0000000000E+00               0
GRID*                126               0-1.494273776E+01-1.731631284E-01+
*       0.0000000000E+00               0
GRID*                127               0-1.348337849E+012.2202871547E+00+
*       0.0000000000E+00               0
GRID*                128               0-1.228498276E+015.5750803944E+00+
*       0.0000000000E+00               0
GRID*                129               0-1.135267334E+018.7404483424E+00+
*       0.0000000000E+00               0
GRID*                130               0-1.071292281E+011.1035653195E+01+
*       0.0000000000E+00               0
GRID*                131               0-8.384838237E+001.1562893229E+01+
*       0.0000000000E+00               0
GRID*                132               0-5.191287842E+001.2374333517E+01+
*       0.0000000000E+00               0
GRID*                133               0-1.816945841E+001.3455412851E+01+
*       0.0000000000E+00               0
GRID*                134               06.3353244661E-011.4801293858E+01+
*       0.0000000000E+00               0
GRID*                135               02.9599443207E+001.3240017120E+01+
*       0.0000000000E+00               0
GRID*                136               06.2392834395E+001.1898064580E+01+
*       0.0000000000E+00               0
GRID*                137               09.3439917246E+001.0831559744E+01+
*       0.0000000000E+00               0
GRID*                138               01.1601748395E+011.0091930512E+01+
*       0.0000000000E+00               0
GRID*                139               01.2025247483E+017.7366557350E+00+
*       0.0000000000E+00               0
GRID*                140               01.2691863067E+014.4971935754E+00+
*       0.0000000000E+00               0
GRID*                141               01.3611677271E+011.0633218893E+00+
*       0.0000000000E+00               0
GRID*                142               01.4832385362E+01-1.439015480E+00+
*       0.0000000000E+00               0
GRID*                143               01.3192340116E+01-3.689967469E+00+
*       0.0000000000E+00               0
GRID*                144               01.1739516727E+01-6.900003066E+00+
*       0.0000000000E+00               0
GRID*                145               01.0554360333E+01-9.915142315E+00+
*       0.0000000000E+00               0
GRID*                146               09.7053022442E+00-1.208132204E+01+
*       0.0000000000E+00               0
GRID*                147               07.4008371899E+00-1.232922237E+01+
*       0.0000000000E+00               0
GRID*                148               04.2821126037E+00-1.268394407E+01+
*       0.0000000000E+00               0
GRID*                149               0-5.352780807E+00-1.232107152E+01+
*       0.0000000000E+00               0
GRID*                150               0-8.421401135E+00-1.168988210E+01+
*       0.0000000000E+00               0
GRID*                151               0-1.068372357E+01-1.121676308E+01+
*       0.0000000000E+00               0
GRID*                152               0-1.132951709E+01-8.963868733E+00+
*       0.0000000000E+00               0
GRID*                153               0-1.226867773E+01-5.847536653E+00+
*       0.0000000000E+00               0
GRID*                154               0-1.346798215E+01-2.536435955E+00+
*       0.0000000000E+00               0
GRID*                155               0-9.850501885E+00-1.756510432E-01+
*       0.0000000000E+00               0
GRID*                156               0-4.688910537E+00-2.091982319E-01+
*       0.0000000000E+00               0
GRID*                157               03.2320027453E-04-3.208032486E-01+
*       0.0000000000E+00               0
GRID*                158               04.6782730752E+00-5.892067348E-01+
*       0.0000000000E+00               0
GRID*                159               09.7987865788E+00-9.987057333E-01+
*       0.0000000000E+00               0
GRID*                160               0-1.908900817E-01-4.897636943E+00+
*       0.0000000000E+00               0
GRID*                161               04.1821213776E+00-5.059936717E+00+
*       0.0000000000E+00               0
GRID*                162               03.9189127377E+00-9.106586696E+00+
*       0.0000000000E+00               0
GRID*                163               08.2794361241E+00-5.590304767E+00+
*       0.0000000000E+00               0
GRID*                164               07.5311609960E+00-9.237307595E+00+
*       0.0000000000E+00               0
GRID*                165               0-4.661030020E+00-8.771616881E+00+
*       0.0000000000E+00               0
GRID*                166               0-4.564442018E+00-4.694970424E+00+
*       0.0000000000E+00               0
GRID*                167               0-8.700914116E+00-4.867826404E+00+
*       0.0000000000E+00               0
GRID*                168               0-8.268058437E+00-8.576705613E+00+
*       0.0000000000E+00               0
GRID*                169               01.8472948287E-014.4212428069E+00+
*       0.0000000000E+00               0
GRID*                170               04.0571638502E-019.6667332400E+00+
*       0.0000000000E+00               0
GRID*                171               04.7365396638E+003.9968951035E+00+
*       0.0000000000E+00               0
GRID*                172               08.9842929491E+003.8277848884E+00+
*       0.0000000000E+00               0
GRID*                173               05.0830047018E+008.2774604935E+00+
*       0.0000000000E+00               0
GRID*                174               08.8483984931E+007.6631564099E+00+
*       0.0000000000E+00               0
GRID*                175               0-8.647623434E+004.5709690361E+00+
*       0.0000000000E+00               0
GRID*                176               0-4.381698374E+004.3660542520E+00+
*       0.0000000000E+00               0
GRID*                177               0-4.366955970E+008.6633589494E+00+
*       0.0000000000E+00               0
GRID*                178               0-8.179621921E+008.3764557629E+00+
*       0.0000000000E+00               0
GRID*                179               0-2.149209685E+00-1.300047351E+01+
*       0.0000000000E+00               0
GRID*                180               01.0201761609E+00-1.311689795E+01+
*       0.0000000000E+00               0
GRID*                181               0-3.982851094E-01-9.426166098E+00+
*       0.0000000000E+00               0
GRID*                182               0-2.038989796E+01-2.046939606E-02+
*       1.0000000000E+01               0
GRID*                183               0-1.991957570E+014.0680185208E+00+
*       1.0000000000E+01               0
GRID*                184               0-1.866867517E+018.0745217287E+00+
*       1.0000000000E+01               0
GRID*                185               0-1.674049900E+011.1757136844E+01+
*       1.0000000000E+01               0
GRID*                186               0-1.416957868E+011.4873255232E+01+
*       1.0000000000E+01               0
GRID*                187               0-1.092530644E+011.7278678599E+01+
*       1.0000000000E+01               0
GRID*                188               0-7.148046219E+001.9011931776E+01+
*       1.0000000000E+01               0
GRID*                189               0-3.080418584E+002.0052329827E+01+
*       1.0000000000E+01               0
GRID*                190               01.0306657816E+002.0309468772E+01+
*       1.0000000000E+01               0
GRID*                191               05.0946287875E+001.9637566715E+01+
*       1.0000000000E+01               0
GRID*                192               09.0360859658E+001.8190807826E+01+
*       1.0000000000E+01               0
GRID*                193               01.2618513544E+011.6084150215E+01+
*       1.0000000000E+01               0
GRID*                194               01.5602642928E+011.3362746563E+01+
*       1.0000000000E+01               0
GRID*                195               01.7844969051E+011.0002437504E+01+
*       1.0000000000E+01               0
GRID*                196               01.9390512896E+016.1435721868E+00+
*       1.0000000000E+01               0
GRID*                197               02.0229467320E+012.0310179241E+00+
*       1.0000000000E+01               0
GRID*                198               02.0283554309E+01-2.084087780E+00+
*       1.0000000000E+01               0
GRID*                199               01.9414961390E+01-6.104571983E+00+
*       1.0000000000E+01               0
GRID*                200               01.7779939480E+01-9.959785447E+00+
*       1.0000000000E+01               0
GRID*                201               01.5502720101E+01-1.341791344E+01+
*       1.0000000000E+01               0
GRID*                202               01.2640862292E+01-1.624159397E+01+
*       1.0000000000E+01               0
GRID*                203               09.1808822485E+00-1.828190171E+01+
*       1.0000000000E+01               0
GRID*                204               05.2525373173E+00-1.958064371E+01+
*       1.0000000000E+01               0
GRID*                205               01.0798458675E+00-2.013734265E+01+
*       1.0000000000E+01               0
GRID*                206               0-3.111899556E+00-1.992467688E+01+
*       1.0000000000E+01               0
GRID*                207               0-7.206832941E+00-1.894851857E+01+
*       1.0000000000E+01               0
GRID*                208               0-1.098357093E+01-1.725885744E+01+
*       1.0000000000E+01               0
GRID*                209               0-1.421926819E+01-1.487886580E+01+
*       1.0000000000E+01               0
GRID*                210               0-1.678062358E+01-1.178006173E+01+
*       1.0000000000E+01               0
GRID*                211               0-1.869613299E+01-8.109229605E+00+
*       1.0000000000E+01               0
GRID*                212               0-1.993256217E+01-4.108338766E+00+
*       1.0000000000E+01               0
GRID*                213               0-1.670697320E+01-4.207002128E-02+
*       1.0000000000E+01               0
GRID*                214               0-1.613119663E+013.1849709649E+00+
*       1.0000000000E+01               0
GRID*                215               0-1.504045778E+016.6134155664E+00+
*       1.0000000000E+01               0
GRID*                216               0-1.360445380E+019.7984736247E+00+
*       1.0000000000E+01               0
GRID*                217               0-1.178815604E+011.2336799066E+01+
*       1.0000000000E+01               0
GRID*                218               0-9.159449983E+001.4012768348E+01+
*       1.0000000000E+01               0
GRID*                219               0-5.903977881E+001.5272222064E+01+
*       1.0000000000E+01               0
GRID*                220               0-2.418827121E+001.6175558125E+01+
*       1.0000000000E+01               0
GRID*                221               08.4200174324E-011.6579450600E+01+
*       1.0000000000E+01               0
GRID*                222               04.0452140993E+001.5847463231E+01+
*       1.0000000000E+01               0
GRID*                223               07.4209941248E+001.4595857180E+01+
*       1.0000000000E+01               0
GRID*                224               01.0532165038E+011.3013241360E+01+
*       1.0000000000E+01               0
GRID*                225               01.2977611270E+011.1079748531E+01+
*       1.0000000000E+01               0
GRID*                226               01.4527573726E+018.3705522491E+00+
*       1.0000000000E+01               0
GRID*                227               01.5633681630E+015.0564404195E+00+
*       1.0000000000E+01               0
GRID*                228               01.6371616925E+011.5351696822E+00+
*       1.0000000000E+01               0
GRID*                229               01.6617633616E+01-1.733578094E+00+
*       1.0000000000E+01               0
GRID*                230               01.5742512886E+01-4.890243731E+00+
*       1.0000000000E+01               0
GRID*                231               01.4343089943E+01-8.184019580E+00+
*       1.0000000000E+01               0
GRID*                232               01.2620815344E+01-1.118588700E+01+
*       1.0000000000E+01               0
GRID*                233               01.0576941945E+01-1.349705882E+01+
*       1.0000000000E+01               0
GRID*                234               07.8202038633E+00-1.486007803E+01+
*       1.0000000000E+01               0
GRID*                235               04.4831755278E+00-1.570123990E+01+
*       1.0000000000E+01               0
GRID*                236               09.1261858186E-01-1.607602245E+01+
*       1.0000000000E+01               0
GRID*                237               0-2.534814695E+00-1.590104784E+01+
*       1.0000000000E+01               0
GRID*                238               0-6.049067108E+00-1.516666510E+01+
*       1.0000000000E+01               0
GRID*                239               0-9.283760509E+00-1.399195708E+01+
*       1.0000000000E+01               0
GRID*                240               0-1.188830584E+01-1.235684865E+01+
*       1.0000000000E+01               0
GRID*                241               0-1.368764231E+01-9.850613756E+00+
*       1.0000000000E+01               0
GRID*                242               0-1.509708160E+01-6.689797715E+00+
*       1.0000000000E+01               0
GRID*                243               0-1.615578217E+01-3.271282232E+00+
*       1.0000000000E+01               0
GRID*                244               0-1.415036719E+01-6.227271326E-02+
*       1.0000000000E+01               0
GRID*                245               0-1.285740776E+012.0998253880E+00+
*       1.0000000000E+01               0
GRID*                246               0-1.175721711E+015.3948922061E+00+
*       1.0000000000E+01               0
GRID*                247               0-1.084849338E+018.4856743873E+00+
*       1.0000000000E+01               0
GRID*                248               0-1.021900986E+011.0661809448E+01+
*       1.0000000000E+01               0
GRID*                249               0-8.020333478E+001.1162461898E+01+
*       1.0000000000E+01               0
GRID*                250               0-4.889702906E+001.1887726528E+01+
*       1.0000000000E+01               0
GRID*                251               0-1.533162787E+001.2797358545E+01+
*       1.0000000000E+01               0
GRID*                252               07.1061192371E-011.3984481776E+01+
*       1.0000000000E+01               0
GRID*                253               02.8227929897E+001.2576192189E+01+
*       1.0000000000E+01               0
GRID*                254               06.0699646921E+001.1331209402E+01+
*       1.0000000000E+01               0
GRID*                255               09.1109245568E+001.0292589927E+01+
*       1.0000000000E+01               0
GRID*                256               01.1247422270E+019.5719169040E+00+
*       1.0000000000E+01               0
GRID*                257               01.1653384269E+017.3431265842E+00+
*       1.0000000000E+01               0
GRID*                258               01.2244392164E+014.1761360750E+00+
*       1.0000000000E+01               0
GRID*                259               01.3005087357E+017.8659908636E-01+
*       1.0000000000E+01               0
GRID*                260               01.4072290160E+01-1.495251585E+00+
*       1.0000000000E+01               0
GRID*                261               01.2593864535E+01-3.538832656E+00+
*       1.0000000000E+01               0
GRID*                262               01.1228673789E+01-6.700088806E+00+
*       1.0000000000E+01               0
GRID*                263               01.0060175340E+01-9.644407268E+00+
*       1.0000000000E+01               0
GRID*                264               09.2256320460E+00-1.170049751E+01+
*       1.0000000000E+01               0
GRID*                265               07.0396565548E+00-1.195994770E+01+
*       1.0000000000E+01               0
GRID*                266               03.9473164818E+00-1.228808350E+01+
*       1.0000000000E+01               0
GRID*                267               06.2237819103E-01-1.256436634E+01+
*       1.0000000000E+01               0
GRID*                268               0-1.890691606E+00-1.243677747E+01+
*       1.0000000000E+01               0
GRID*                269               0-5.170530040E+00-1.182514610E+01+
*       1.0000000000E+01               0
GRID*                270               0-8.213691825E+00-1.118552131E+01+
*       1.0000000000E+01               0
GRID*                271               0-1.036211436E+01-1.070608153E+01+
*       1.0000000000E+01               0
GRID*                272               0-1.098411415E+01-8.575974344E+00+
*       1.0000000000E+01               0
GRID*                273               0-1.184833697E+01-5.528422886E+00+
*       1.0000000000E+01               0
GRID*                274               0-1.288629352E+01-2.245171717E+00+
*       1.0000000000E+01               0
GRID*                275               0-9.390522603E+00-1.190282611E-01+
*       1.0000000000E+01               0
GRID*                276               0-8.282284701E+004.3797605759E+00+
*       1.0000000000E+01               0
GRID*                277               0-7.813140684E+008.0865707537E+00+
*       1.0000000000E+01               0
GRID*                278               0-4.101483078E+008.3179094060E+00+
*       1.0000000000E+01               0
GRID*                279               04.6495626196E-019.1407668276E+00+
*       1.0000000000E+01               0
GRID*                280               04.9245689104E+007.8594578858E+00+
*       1.0000000000E+01               0
GRID*                281               08.5934927695E+007.2533529686E+00+
*       1.0000000000E+01               0
GRID*                282               08.6847930200E+003.5179807449E+00+
*       1.0000000000E+01               0
GRID*                283               09.3314762063E+00-1.069882527E+00+
*       1.0000000000E+01               0
GRID*                284               07.9171698620E+00-5.433083349E+00+
*       1.0000000000E+01               0
GRID*                285               07.1652713137E+00-8.991044378E+00+
*       1.0000000000E+01               0
GRID*                286               03.6440118203E+00-8.926744810E+00+
*       1.0000000000E+01               0
GRID*                287               0-4.796123832E-01-9.456591900E+00+
*       1.0000000000E+01               0
GRID*                288               0-4.528337628E+00-8.511738590E+00+
*       1.0000000000E+01               0
GRID*                289               0-8.037946005E+00-8.219057825E+00+
*       1.0000000000E+01               0
GRID*                290               0-8.425469100E+00-4.603193118E+00+
*       1.0000000000E+01               0
GRID*                291               0-4.500829114E+00-2.272902130E-01+
*       1.0000000000E+01               0
GRID*                292               0-4.168196981E+004.1557275526E+00+
*       1.0000000000E+01               0
GRID*                293               02.1169473519E-014.1521680402E+00+
*       1.0000000000E+01               0
GRID*                294               04.5693303915E+003.7118710776E+00+
*       1.0000000000E+01               0
GRID*                295               04.4560972428E+00-6.823252213E-01+
*       1.0000000000E+01               0
GRID*                296               03.9429961634E+00-4.971391812E+00+
*       1.0000000000E+01               0
GRID*                297               0-2.453031942E-01-4.843561294E+00+
*       1.0000000000E+01               0
GRID*                298               0-4.424984759E+00-4.546445804E+00+
*       1.0000000000E+01               0
GRID*                299               0-1.958508263E-02-4.002521720E-01+
*       1.0000000000E+01               0
GRID*                300               0-2.448824078E+015.0325018282E+00+
*       4.9999991657E+00               0
GRID*                301               0-2.297393954E+019.8589086997E+00+
*       5.0000011397E+00               0
GRID*                302               0-2.051908818E+011.4281700815E+01+
*       5.0000025134E+00               0
GRID*                303               0-1.722419764E+011.8119796209E+01+
*       4.9999966844E+00               0
GRID*                304               0-1.322410957E+012.1216101284E+01+
*       4.9999999728E+00               0
GRID*                305               0-8.682596114E+002.3443816645E+01+
*       4.9999971041E+00               0
GRID*                306               0-3.785677290E+002.4711709467E+01+
*       4.9999984509E+00               0
GRID*                307               01.2662262692E+002.4967912025E+01+
*       5.0000008350E+00               0
GRID*                308               06.2662818387E+002.4201935696E+01+
*       4.9999989446E+00               0
GRID*                309               01.1009833048E+012.2445123692E+01+
*       4.9999987414E+00               0
GRID*                310               01.5302675875E+011.9769372313E+01+
*       4.9999995938E+00               0
GRID*                311               01.8968966294E+011.6284295883E+01+
*       4.9999985025E+00               0
GRID*                312               02.1858664032E+011.2132551000E+01+
*       5.0000003387E+00               0
GRID*                313               02.3853471397E+017.4841063202E+00+
*       5.0000003824E+00               0
GRID*                314               02.4871729478E+012.5292405759E+00+
*       4.9999985721E+00               0
GRID*                315               02.4871729481E+01-2.529240552E+00+
*       4.9999997657E+00               0
GRID*                316               02.3853471397E+01-7.484106318E+00+
*       5.0000003857E+00               0
GRID*                317               02.1858664035E+01-1.213255099E+01+
*       5.0000003443E+00               0
GRID*                318               01.8968966297E+01-1.628429588E+01+
*       4.9999985062E+00               0
GRID*                319               01.5302675878E+01-1.976937231E+01+
*       4.9999995953E+00               0
GRID*                320               01.1009833049E+01-2.244512369E+01+
*       4.9999987422E+00               0
GRID*                321               06.2662818027E+00-2.420193571E+01+
*       4.9999999772E+00               0
GRID*                322               01.2662262828E+00-2.496791202E+01+
*       5.0000000857E+00               0
GRID*                323               0-3.785677279E+00-2.471170947E+01+
*       4.9999966764E+00               0
GRID*                324               0-8.682596103E+00-2.344381665E+01+
*       5.0000011398E+00               0
GRID*                325               0-1.322410957E+01-2.121610128E+01+
*       4.9999991933E+00               0
GRID*                326               0-1.722419765E+01-1.811979620E+01+
*       5.0000018679E+00               0
GRID*                327               0-2.051908818E+01-1.428170082E+01+
*       4.9999972855E+00               0
GRID*                328               0-2.297393954E+01-9.858908697E+00+
*       4.9999985148E+00               0
GRID*                329               0-2.448824079E+01-5.032501828E+00+
*       4.9999991980E+00               0
GRID*                330               0-2.081591789E+01-1.088880553E-01+
*       4.9999994264E+00               0
GRID*                331               0-2.029788610E+014.0704564507E+00+
*       4.9999994264E+00               0
GRID*                332               0-1.901368198E+018.1649691336E+00+
*       4.9999994264E+00               0
GRID*                333               0-1.708089516E+011.1930356496E+01+
*       4.9999994264E+00               0
GRID*                334               0-1.451289741E+011.5112208767E+01+
*       4.9999994264E+00               0
GRID*                335               0-1.120718471E+011.7529642255E+01+
*       4.9999994264E+00               0
GRID*                336               0-7.361374755E+001.9304208503E+01+
*       4.9999994264E+00               0
GRID*                337               0-3.228044322E+002.0414168318E+01+
*       4.9999994264E+00               0
GRID*                338               09.6144209763E-012.0732380510E+01+
*       4.9999994264E+00               0
GRID*                339               05.1088725073E+002.0018132888E+01+
*       4.9999994264E+00               0
GRID*                340               09.1301522966E+001.8540301528E+01+
*       4.9999994264E+00               0
GRID*                341               01.2791530592E+011.6428471018E+01+
*       4.9999994264E+00               0
GRID*                342               01.5842225431E+011.3708631079E+01+
*       4.9999994264E+00               0
GRID*                343               01.8094768904E+011.0286550979E+01+
*       4.9999994264E+00               0
GRID*                344               01.9677193687E+016.3537898553E+00+
*       4.9999994264E+00               0
GRID*                345               02.0581021363E+012.1666917807E+00+
*       4.9999994264E+00               0
GRID*                346               02.0694054664E+01-2.033454350E+00+
*       4.9999994264E+00               0
GRID*                347               01.9780299336E+01-6.139557281E+00+
*       4.9999994264E+00               0
GRID*                348               01.8113731657E+01-1.008059042E+01+
*       4.9999994264E+00               0
GRID*                349               01.5833135942E+01-1.361972347E+01+
*       4.9999994264E+00               0
GRID*                350               01.2973779821E+01-1.649921839E+01+
*       4.9999994264E+00               0
GRID*                351               09.4544212725E+00-1.852567544E+01+
*       4.9999994264E+00               0
GRID*                352               05.4552574987E+00-1.982982449E+01+
*       4.9999994264E+00               0
GRID*                353               01.2012279730E+00-2.041434549E+01+
*       4.9999994264E+00               0
GRID*                354               0-3.106071276E+00-2.022230304E+01+
*       4.9999994264E+00               0
GRID*                355               0-7.285947650E+00-1.925918669E+01+
*       4.9999994264E+00               0
GRID*                356               0-1.113885411E+01-1.759175528E+01+
*       4.9999994264E+00               0
GRID*                357               0-1.443904518E+01-1.523060630E+01+
*       4.9999994264E+00               0
GRID*                358               0-1.701266538E+01-1.207562955E+01+
*       4.9999994264E+00               0
GRID*                359               0-1.896597628E+01-8.333456201E+00+
*       4.9999994264E+00               0
GRID*                360               0-2.026848412E+01-4.263341209E+00+
*       4.9999994264E+00               0
GRID*                361               0-1.740412880E+01-1.625361374E-01+
*       4.9999994264E+00               0
GRID*                362               0-1.670884018E+013.2157496113E+00+
*       4.9999994264E+00               0
GRID*                363               0-1.555249681E+016.7599662384E+00+
*       4.9999994264E+00               0
GRID*                364               0-1.410310246E+011.0056169904E+01+
*       4.9999994264E+00               0
GRID*                365               0-1.229794076E+011.2709970201E+01+
*       4.9999994264E+00               0
GRID*                366               0-9.555204877E+001.4393482386E+01+
*       4.9999994264E+00               0
GRID*                367               0-6.206646026E+001.5722901683E+01+
*       4.9999994264E+00               0
GRID*                368               0-2.641950082E+001.6749230850E+01+
*       4.9999994264E+00               0
GRID*                369               07.5161770858E-011.7284189424E+01+
*       4.9999994264E+00               0
GRID*                370               04.0927491036E+001.6441539052E+01+
*       4.9999994264E+00               0
GRID*                371               07.5674613041E+001.5126926803E+01+
*       4.9999994264E+00               0
GRID*                372               01.0781617373E+011.3528556986E+01+
*       4.9999994264E+00               0
GRID*                373               01.3343675576E+011.1601684512E+01+
*       4.9999994264E+00               0
GRID*                374               01.4896026424E+018.7789935632E+00+
*       4.9999994264E+00               0
GRID*                375               01.6063611710E+015.3627822002E+00+
*       4.9999994264E+00               0
GRID*                376               01.6915725413E+011.7450328346E+00+
*       4.9999994264E+00               0
GRID*                377               01.7289068609E+01-1.668098278E+00+
*       4.9999994264E+00               0
GRID*                378               01.6297879478E+01-4.962485892E+00+
*       4.9999994264E+00               0
GRID*                379               01.4837136737E+01-8.366646052E+00+
*       4.9999994264E+00               0
GRID*                380               01.3104033095E+01-1.147646836E+01+
*       4.9999994264E+00               0
GRID*                381               01.1066860344E+01-1.389106758E+01+
*       4.9999994264E+00               0
GRID*                382               08.2035530236E+00-1.522586479E+01+
*       4.9999994264E+00               0
GRID*                383               04.7818090029E+00-1.608561360E+01+
*       4.9999994264E+00               0
GRID*                384               01.1192531902E+00-1.652625021E+01+
*       4.9999994264E+00               0
GRID*                385               0-2.574022057E+00-1.637807596E+01+
*       4.9999994264E+00               0
GRID*                386               0-6.181299610E+00-1.564131452E+01+
*       4.9999994264E+00               0
GRID*                387               0-9.504728237E+00-1.448743220E+01+
*       4.9999994264E+00               0
GRID*                388               0-1.221959133E+01-1.288225203E+01+
*       4.9999994264E+00               0
GRID*                389               0-1.402814159E+01-1.026816685E+01+
*       4.9999994264E+00               0
GRID*                390               0-1.550101189E+01-7.009216202E+00+
*       4.9999994264E+00               0
GRID*                391               0-1.667670597E+01-3.504189038E+00+
*       4.9999994264E+00               0
GRID*                392               0-1.494273770E+01-1.731631275E-01+
*       4.9999994264E+00               0
GRID*                393               0-1.348337843E+012.2202871556E+00+
*       4.9999994264E+00               0
GRID*                394               0-1.228498271E+015.5750803953E+00+
*       4.9999994264E+00               0
GRID*                395               0-1.135267329E+018.7404483433E+00+
*       4.9999994264E+00               0
GRID*                396               0-1.071292276E+011.1035653196E+01+
*       4.9999994264E+00               0
GRID*                397               0-8.384838182E+001.1562893230E+01+
*       4.9999994264E+00               0
GRID*                398               0-5.191287787E+001.2374333518E+01+
*       4.9999994264E+00               0
GRID*                399               0-1.816945785E+001.3455412851E+01+
*       4.9999994264E+00               0
GRID*                400               06.3353250195E-011.4801293859E+01+
*       4.9999994264E+00               0
GRID*                401               02.9599443760E+001.3240017121E+01+
*       4.9999994264E+00               0
GRID*                402               06.2392834948E+001.1898064580E+01+
*       4.9999994264E+00               0
GRID*                403               09.3439917799E+001.0831559745E+01+
*       4.9999994264E+00               0
GRID*                404               01.1601748451E+011.0091930513E+01+
*       4.9999994264E+00               0
GRID*                405               01.2025247538E+017.7366557358E+00+
*       4.9999994264E+00               0
GRID*                406               01.2691863122E+014.4971935762E+00+
*       4.9999994264E+00               0
GRID*                407               01.3611677326E+011.0633218901E+00+
*       4.9999994264E+00               0
GRID*                408               01.4832385417E+01-1.439015479E+00+
*       4.9999994264E+00               0
GRID*                409               01.3192340171E+01-3.689967468E+00+
*       4.9999994264E+00               0
GRID*                410               01.1739516782E+01-6.900003065E+00+
*       4.9999994264E+00               0
GRID*                411               01.0554360388E+01-9.915142315E+00+
*       4.9999994264E+00               0
GRID*                412               09.7053022995E+00-1.208132204E+01+
*       4.9999994264E+00               0
GRID*                413               07.4008372452E+00-1.232922237E+01+
*       4.9999994264E+00               0
GRID*                414               04.2821126590E+00-1.268394407E+01+
*       4.9999994264E+00               0
GRID*                415               01.0201762162E+00-1.311689794E+01+
*       4.9999994264E+00               0
GRID*                416               0-2.149209629E+00-1.300047351E+01+
*       4.9999994264E+00               0
GRID*                417               0-5.352780751E+00-1.232107152E+01+
*       4.9999994264E+00               0
GRID*                418               0-8.421401079E+00-1.168988210E+01+
*       4.9999994264E+00               0
GRID*                419               0-1.068372352E+01-1.121676308E+01+
*       4.9999994264E+00               0
GRID*                420               0-1.132951704E+01-8.963868732E+00+
*       4.9999994264E+00               0
GRID*                421               0-1.226867768E+01-5.847536653E+00+
*       4.9999994264E+00               0
GRID*                422               0-1.346798210E+01-2.536435954E+00+
*       4.9999994264E+00               0
GRID*                423               0-9.850501830E+00-1.756510423E-01+
*       4.9999994264E+00               0
GRID*                424               0-8.647623378E+004.5709690370E+00+
*       4.9999994264E+00               0
GRID*                425               0-8.179621866E+008.3764557637E+00+
*       4.9999994264E+00               0
GRID*                426               0-4.366955915E+008.6633589502E+00+
*       4.9999994264E+00               0
GRID*                427               04.0571644035E-019.6667332409E+00+
*       4.9999994264E+00               0
GRID*                428               05.0830047572E+008.2774604943E+00+
*       4.9999994264E+00               0
GRID*                429               08.8483985485E+007.6631564107E+00+
*       4.9999994264E+00               0
GRID*                430               08.9842930044E+003.8277848892E+00+
*       4.9999994264E+00               0
GRID*                431               09.7987866341E+00-9.987057324E-01+
*       4.9999994264E+00               0
GRID*                432               08.2794361795E+00-5.590304766E+00+
*       4.9999994264E+00               0
GRID*                433               07.5311610513E+00-9.237307594E+00+
*       4.9999994264E+00               0
GRID*                434               03.9189127930E+00-9.106586695E+00+
*       4.9999994264E+00               0
GRID*                435               0-3.982850541E-01-9.426166097E+00+
*       4.9999994264E+00               0
GRID*                436               0-4.661029965E+00-8.771616880E+00+
*       4.9999994264E+00               0
GRID*                437               0-8.268058381E+00-8.576705613E+00+
*       4.9999994264E+00               0
GRID*                438               0-8.700914061E+00-4.867826404E+00+
*       4.9999994264E+00               0
GRID*                439               0-4.688910482E+00-2.091982310E-01+
*       4.9999994264E+00               0
GRID*                440               0-4.381698319E+004.3660542528E+00+
*       4.9999994264E+00               0
GRID*                441               01.8472953820E-014.4212428078E+00+
*       4.9999994264E+00               0
GRID*                442               04.7365397191E+003.9968951044E+00+
*       4.9999994264E+00               0
GRID*                443               04.6782731305E+00-5.892067339E-01+
*       4.9999994264E+00               0
GRID*                444               04.1821214329E+00-5.059936716E+00+
*       4.9999994264E+00               0
GRID*                445               0-1.908900263E-01-4.897636942E+00+
*       4.9999994264E+00               0
GRID*                446               0-4.564441962E+00-4.694970423E+00+
*       4.9999994264E+00               0
GRID*                447               03.2325560560E-04-3.208032478E-01+
*       4.9999994264E+00               0
GRID*                448               0-1.767766953E+01-2.164890005E-15+
*       5.0000000000E+01               0
GRID*                449               0-1.767766953E+01-2.164890005E-15+
*       4.5000000000E+01               0
GRID*                450               0-1.696142500E+01-4.980968402E+00+
*       4.5000000000E+01               0
GRID*                451               0-1.487110211E+01-9.557735196E+00+
*       4.5000000000E+01               0
GRID*                452               0-1.157604752E+01-1.336020675E+01+
*       4.5000000000E+01               0
GRID*                453               0-7.343194439E+00-1.608034522E+01+
*       4.5000000000E+01               0
GRID*                454               0-2.515444270E+00-1.749778700E+01+
*       4.5000000000E+01               0
GRID*                455               02.5160952572E+00-1.749769341E+01+
*       4.5000000000E+01               0
GRID*                456               07.3437928002E+00-1.608007196E+01+
*       4.5000000000E+01               0
GRID*                457               01.1576544717E+01-1.335977594E+01+
*       4.5000000000E+01               0
GRID*                458               01.4871457768E+01-9.557181788E+00+
*       4.5000000000E+01               0
GRID*                459               01.6961610332E+01-4.980337271E+00+
*       4.5000000000E+01               0
GRID*                460               01.7677669525E+01-9.529748856E-06+
*       4.5000000000E+01               0
GRID*                461               01.6961610317E+014.9803373225E+00+
*       4.5000000000E+01               0
GRID*                462               01.4871457742E+019.5571818287E+00+
*       4.5000000000E+01               0
GRID*                463               01.1576544680E+011.3359775967E+01+
*       4.5000000000E+01               0
GRID*                464               07.3437927561E+001.6080071976E+01+
*       4.5000000000E+01               0
GRID*                465               02.5160952093E+001.7497693412E+01+
*       4.5000000000E+01               0
GRID*                466               0-2.515444319E+001.7497786997E+01+
*       4.5000000000E+01               0
GRID*                467               0-7.343194483E+001.6080345195E+01+
*       4.5000000000E+01               0
GRID*                468               0-1.157604756E+011.3360206719E+01+
*       4.5000000000E+01               0
GRID*                469               0-1.487110213E+019.5577351544E+00+
*       4.5000000000E+01               0
GRID*                470               0-1.696142502E+014.9809683543E+00+
*       4.5000000000E+01               0
GRID*                471               0-1.696160046E+01-4.980371013E+00+
*       5.0000000000E+01               0
GRID*                472               0-1.487172815E+01-9.556760779E+00+
*       5.0000000000E+01               0
GRID*                473               0-1.157730174E+01-1.335911895E+01+
*       5.0000000000E+01               0
GRID*                474               0-7.345067895E+00-1.607948960E+01+
*       5.0000000000E+01               0
GRID*                475               0-2.517726110E+00-1.749745870E+01+
*       5.0000000000E+01               0
GRID*                476               02.5136313028E+00-1.749804518E+01+
*       5.0000000000E+01               0
GRID*                477               07.3415276460E+00-1.608110586E+01+
*       5.0000000000E+01               0
GRID*                478               01.1574896670E+01-1.336120372E+01+
*       5.0000000000E+01               0
GRID*                479               01.4870521495E+01-9.558632768E+00+
*       5.0000000000E+01               0
GRID*                480               01.6961323635E+01-4.981301313E+00+
*       5.0000000000E+01               0
GRID*                481               01.7677669525E+01-2.708944180E-14+
*       5.0000000000E+01               0
GRID*                482               01.6961323635E+014.9813013129E+00+
*       5.0000000000E+01               0
GRID*                483               01.4870521495E+019.5586327675E+00+
*       5.0000000000E+01               0
GRID*                484               01.1574896670E+011.3361203715E+01+
*       5.0000000000E+01               0
GRID*                485               07.3415276460E+001.6081105856E+01+
*       5.0000000000E+01               0
GRID*                486               02.5136313028E+001.7498045181E+01+
*       5.0000000000E+01               0
GRID*                487               0-2.517726110E+001.7497458702E+01+
*       5.0000000000E+01               0
GRID*                488               0-7.345067895E+001.6079489596E+01+
*       5.0000000000E+01               0
GRID*                489               0-1.157730174E+011.3359118946E+01+
*       5.0000000000E+01               0
GRID*                490               0-1.487172815E+019.5567607788E+00+
*       5.0000000000E+01               0
GRID*                491               0-1.696160046E+014.9803710131E+00+
*       5.0000000000E+01               0
GRID*                492               0-1.383920482E+01-9.890966640E-02+
*       4.5000000000E+01               0
GRID*                493               0-1.332232657E+013.8851823729E+00+
*       4.5000000000E+01               0
GRID*                494               0-1.179557678E+017.5080933936E+00+
*       4.5000000000E+01               0
GRID*                495               0-9.167702993E+001.0444967204E+01+
*       4.5000000000E+01               0
GRID*                496               0-5.800818028E+001.2641104875E+01+
*       4.5000000000E+01               0
GRID*                497               0-2.043108668E+001.3878843166E+01+
*       4.5000000000E+01               0
GRID*                498               01.9041758471E+001.3841857584E+01+
*       4.5000000000E+01               0
GRID*                499               05.7297590872E+001.2792574395E+01+
*       4.5000000000E+01               0
GRID*                500               09.0248813399E+001.0787721916E+01+
*       4.5000000000E+01               0
GRID*                501               01.1457431950E+017.7884242254E+00+
*       4.5000000000E+01               0
GRID*                502               01.3015237244E+014.1513402970E+00+
*       4.5000000000E+01               0
GRID*                503               01.3576928350E+012.0572666379E-01+
*       4.5000000000E+01               0
GRID*                504               01.3067217908E+01-3.737563577E+00+
*       4.5000000000E+01               0
GRID*                505               01.1505502995E+01-7.389148757E+00+
*       4.5000000000E+01               0
GRID*                506               09.0343897814E+00-1.046327161E+01+
*       4.5000000000E+01               0
GRID*                507               05.8498369580E+00-1.269910476E+01+
*       4.5000000000E+01               0
GRID*                508               02.0826233892E+00-1.375894567E+01+
*       4.5000000000E+01               0
GRID*                509               0-1.893126751E+00-1.380172318E+01+
*       4.5000000000E+01               0
GRID*                510               0-5.666353668E+00-1.279122922E+01+
*       4.5000000000E+01               0
GRID*                511               0-8.922026950E+00-1.059827490E+01+
*       4.5000000000E+01               0
GRID*                512               0-1.154834383E+01-7.568870362E+00+
*       4.5000000000E+01               0
GRID*                513               0-1.327685840E+01-4.009650817E+00+
*       4.5000000000E+01               0
GRID*                514               0-1.064828856E+01-1.557885172E-01+
*       4.5000000000E+01               0
GRID*                515               0-1.028414400E+013.0794548673E+00+
*       4.5000000000E+01               0
GRID*                516               0-9.334805073E+005.9293740052E+00+
*       4.5000000000E+01               0
GRID*                517               0-7.169848956E+008.0349817136E+00+
*       4.5000000000E+01               0
GRID*                518               0-4.435408862E+009.8151877126E+00+
*       4.5000000000E+01               0
GRID*                519               0-1.617121375E+001.1012228542E+01+
*       4.5000000000E+01               0
GRID*                520               01.4214098170E+001.0789979716E+01+
*       4.5000000000E+01               0
GRID*                521               04.4979263032E+001.0026175125E+01+
*       4.5000000000E+01               0
GRID*                522               07.0682702243E+008.7143918381E+00+
*       4.5000000000E+01               0
GRID*                523               08.6923794087E+006.3263425857E+00+
*       4.5000000000E+01               0
GRID*                524               09.7977793295E+003.4073880057E+00+
*       4.5000000000E+01               0
GRID*                525               01.0234122072E+012.8143268721E-01+
*       4.5000000000E+01               0
GRID*                526               09.8799608034E+00-2.810416654E+00+
*       4.5000000000E+01               0
GRID*                527               08.7004827415E+00-5.701875312E+00+
*       4.5000000000E+01               0
GRID*                528               06.8602407337E+00-8.177655586E+00+
*       4.5000000000E+01               0
GRID*                529               04.6054437064E+00-1.007510323E+01+
*       4.5000000000E+01               0
GRID*                530               01.6821534703E+00-1.067666306E+01+
*       4.5000000000E+01               0
GRID*                531               0-1.498980663E+00-1.074097549E+01+
*       4.5000000000E+01               0
GRID*                532               0-4.407621113E+00-1.017572136E+01+
*       4.5000000000E+01               0
GRID*                533               0-6.757341387E+00-8.321214376E+00+
*       4.5000000000E+01               0
GRID*                534               0-8.861723821E+00-5.850003398E+00+
*       4.5000000000E+01               0
GRID*                535               0-1.039692617E+01-3.197328576E+00+
*       4.5000000000E+01               0
GRID*                536               0-7.793935261E+00-3.055788676E-01+
*       4.5000000000E+01               0
GRID*                537               0-7.569260530E+002.5987416750E+00+
*       4.5000000000E+01               0
GRID*                538               0-7.567491775E+004.8417350341E+00+
*       4.5000000000E+01               0
GRID*                539               0-5.531955709E+005.8337767556E+00+
*       4.5000000000E+01               0
GRID*                540               0-3.037286683E+007.3659317137E+00+
*       4.5000000000E+01               0
GRID*                541               0-1.269900783E+008.9746302193E+00+
*       4.5000000000E+01               0
GRID*                542               09.1146552557E-018.0678238211E+00+
*       4.5000000000E+01               0
GRID*                543               03.6468547077E+007.5369638439E+00+
*       4.5000000000E+01               0
GRID*                544               05.7346882848E+007.2345471702E+00+
*       4.5000000000E+01               0
GRID*                545               06.2946250303E+005.2082709594E+00+
*       4.5000000000E+01               0
GRID*                546               04.8353153280E+00-6.355196111E+00+
*       4.5000000000E+01               0
GRID*                547               03.6842898800E+00-8.272524183E+00+
*       4.5000000000E+01               0
GRID*                548               01.4179609254E+00-7.943786263E+00+
*       4.5000000000E+01               0
GRID*                549               0-1.382093074E+00-8.056318853E+00+
*       4.5000000000E+01               0
GRID*                550               0-3.561126288E+00-8.316249980E+00+
*       4.5000000000E+01               0
GRID*                551               0-4.781012119E+00-6.449200367E+00+
*       4.5000000000E+01               0
GRID*                552               0-6.581996007E+00-4.166671997E+00+
*       4.5000000000E+01               0
GRID*                553               0-8.373484533E+00-2.586901777E+00+
*       4.5000000000E+01               0
GRID*                554               03.6608034042E-01-4.195218673E-02+
*       4.5000000000E+01               0
GRID*                555               0-4.187121940E+00-1.369381757E+00+
*       4.5000000000E+01               0
GRID*                556               0-5.245071665E-014.6499053676E+00+
*       4.5000000000E+01               0
GRID*                557               03.4577051149E+004.5757491179E+00+
*       4.5000000000E+01               0
GRID*                558               0-4.409012846E+002.8994834383E+00+
*       4.5000000000E+01               0
GRID*                559               01.9010132713E+00-4.407678861E+00+
*       4.5000000000E+01               0
GRID*                560               0-2.062616140E+00-5.036829412E+00+
*       4.5000000000E+01               0
GRID*                561               04.2863256803E+009.8711686712E-01+
*       4.5000000000E+01               0
GRID*                562               07.4492940924E+002.4380768029E-01+
*       4.5000000000E+01               0
GRID*                563               07.0582499598E+002.7465920003E+00+
*       4.5000000000E+01               0
GRID*                564               07.2543338778E+00-2.111604891E+00+
*       4.5000000000E+01               0
GRID*                565               04.7109954311E+00-2.367435696E+00+
*       4.5000000000E+01               0
GRID*                566               06.3036129333E+00-4.377826601E+00+
*       4.5000000000E+01               0
GRID*                567               0-1.319490590E+01-1.261758356E-02+
*       5.0000000000E+01               0
GRID*                568               0-1.267431821E+013.7662247207E+00+
*       5.0000000000E+01               0
GRID*                569               0-1.115929255E+017.2023075754E+00+
*       5.0000000000E+01               0
GRID*                570               0-8.668125494E+001.0012650658E+01+
*       5.0000000000E+01               0
GRID*                571               0-5.453145307E+001.2061586488E+01+
*       5.0000000000E+01               0
GRID*                572               0-1.847507754E+001.3163593943E+01+
*       5.0000000000E+01               0
GRID*                573               01.9179894314E+001.3143342362E+01+
*       5.0000000000E+01               0
GRID*                574               05.5651216956E+001.2104508899E+01+
*       5.0000000000E+01               0
GRID*                575               08.7221840189E+001.0125365107E+01+
*       5.0000000000E+01               0
GRID*                576               01.1109460611E+017.2679218229E+00+
*       5.0000000000E+01               0
GRID*                577               01.2619355955E+013.7895074022E+00+
*       5.0000000000E+01               0
GRID*                578               01.3135103771E+012.8562402763E-02+
*       5.0000000000E+01               0
GRID*                579               01.2610109544E+01-3.739285784E+00+
*       5.0000000000E+01               0
GRID*                580               01.1063904883E+01-7.185716299E+00+
*       5.0000000000E+01               0
GRID*                581               08.6123673294E+00-1.006869359E+01+
*       5.0000000000E+01               0
GRID*                582               05.4957318233E+00-1.213497757E+01+
*       5.0000000000E+01               0
GRID*                583               01.8937935735E+00-1.316240730E+01+
*       5.0000000000E+01               0
GRID*                584               0-1.900316210E+00-1.317414489E+01+
*       5.0000000000E+01               0
GRID*                585               0-5.503364873E+00-1.215230457E+01+
*       5.0000000000E+01               0
GRID*                586               0-8.626186940E+00-1.007878455E+01+
*       5.0000000000E+01               0
GRID*                587               0-1.109843971E+01-7.179139075E+00+
*       5.0000000000E+01               0
GRID*                588               0-1.269164837E+01-3.755595071E+00+
*       5.0000000000E+01               0
GRID*                589               0-9.735225908E+00-6.152615953E-02+
*       5.0000000000E+01               0
GRID*                590               0-9.380937741E+002.8944945324E+00+
*       5.0000000000E+01               0
GRID*                591               0-8.422488685E+005.4732459816E+00+
*       5.0000000000E+01               0
GRID*                592               0-6.482271307E+007.4272447350E+00+
*       5.0000000000E+01               0
GRID*                593               0-3.951410585E+008.9902794971E+00+
*       5.0000000000E+01               0
GRID*                594               0-1.336697977E+009.9516748438E+00+
*       5.0000000000E+01               0
GRID*                595               01.4411584721E+009.8069315017E+00+
*       5.0000000000E+01               0
GRID*                596               04.2792272238E+009.0679614399E+00+
*       5.0000000000E+01               0
GRID*                597               06.6397015960E+007.7675939884E+00+
*       5.0000000000E+01               0
GRID*                598               08.2262460090E+005.5979762518E+00+
*       5.0000000000E+01               0
GRID*                599               09.2720251686E+002.8800658734E+00+
*       5.0000000000E+01               0
GRID*                600               09.6337876393E+006.3873198321E-02+
*       5.0000000000E+01               0
GRID*                601               09.2806326387E+00-2.818824406E+00+
*       5.0000000000E+01               0
GRID*                602               08.1631601887E+00-5.376379881E+00+
*       5.0000000000E+01               0
GRID*                603               06.3154848645E+00-7.593002156E+00+
*       5.0000000000E+01               0
GRID*                604               04.1357945102E+00-9.227835423E+00+
*       5.0000000000E+01               0
GRID*                605               01.4666942836E+00-9.842612371E+00+
*       5.0000000000E+01               0
GRID*                606               0-1.473396964E+00-9.884581879E+00+
*       5.0000000000E+01               0
GRID*                607               0-4.141320268E+00-9.276996353E+00+
*       5.0000000000E+01               0
GRID*                608               0-6.325075068E+00-7.624803048E+00+
*       5.0000000000E+01               0
GRID*                609               0-8.203640955E+00-5.325671965E+00+
*       5.0000000000E+01               0
GRID*                610               0-9.511304968E+00-2.850422316E+00+
*       5.0000000000E+01               0
GRID*                611               0-6.852615909E+00-2.781788068E-01+
*       5.0000000000E+01               0
GRID*                612               0-6.690961160E+002.3995641102E+00+
*       5.0000000000E+01               0
GRID*                613               0-6.666734753E+004.3684669049E+00+
*       5.0000000000E+01               0
GRID*                614               0-4.886349959E+005.2323359315E+00+
*       5.0000000000E+01               0
GRID*                615               0-2.532846454E+006.5201640838E+00+
*       5.0000000000E+01               0
GRID*                616               0-9.883815420E-017.8454714264E+00+
*       5.0000000000E+01               0
GRID*                617               09.0477593403E-017.0643490394E+00+
*       5.0000000000E+01               0
GRID*                618               03.4715781470E+006.5924518773E+00+
*       5.0000000000E+01               0
GRID*                619               05.3317952503E+006.2787489585E+00+
*       5.0000000000E+01               0
GRID*                620               05.8844850260E+004.4760220205E+00+
*       5.0000000000E+01               0
GRID*                621               06.6094338523E+002.0686385095E+00+
*       5.0000000000E+01               0
GRID*                622               06.8481349165E+001.6544785161E-01+
*       5.0000000000E+01               0
GRID*                623               06.7162389080E+00-2.223721835E+00+
*       5.0000000000E+01               0
GRID*                624               05.9933971042E+00-3.908183986E+00+
*       5.0000000000E+01               0
GRID*                625               04.3514028774E+00-5.699305854E+00+
*       5.0000000000E+01               0
GRID*                626               03.2660484847E+00-7.340957711E+00+
*       5.0000000000E+01               0
GRID*                627               01.3113902132E+00-7.095864256E+00+
*       5.0000000000E+01               0
GRID*                628               0-1.317842410E+00-7.244839572E+00+
*       5.0000000000E+01               0
GRID*                629               0-3.262652693E+00-7.446584241E+00+
*       5.0000000000E+01               0
GRID*                630               0-4.328352442E+00-5.818089608E+00+
*       5.0000000000E+01               0
GRID*                631               0-5.878960613E+00-3.648691514E+00+
*       5.0000000000E+01               0
GRID*                632               0-7.414293830E+00-2.259097546E+00+
*       5.0000000000E+01               0
GRID*                633               0-3.568673898E+00-1.192330025E+00+
*       5.0000000000E+01               0
GRID*                634               0-3.862716831E+002.6129764970E+00+
*       5.0000000000E+01               0
GRID*                635               0-3.044552954E-014.0121058054E+00+
*       5.0000000000E+01               0
GRID*                636               03.3712777574E+003.9583625897E+00+
*       5.0000000000E+01               0
GRID*                637               04.4339426295E+007.5269481273E-01+
*       5.0000000000E+01               0
GRID*                638               04.7436705737E+00-2.333601121E+00+
*       5.0000000000E+01               0
GRID*                639               01.8315656508E+00-3.955354617E+00+
*       5.0000000000E+01               0
GRID*                640               0-1.845825775E+00-4.552653455E+00+
*       5.0000000000E+01               0
GRID*                641               05.9809477175E-01-9.572100599E-02+
*       5.0000000000E+01               0
GRID*                642               0-2.500000000E+01-3.061616893E-15+
*       3.0000000000E+01               0
GRID*                643               0-1.767766953E+01-2.164890005E-15+
*       3.0000000000E+01               0
GRID*                644               01.7677669525E+010.0000000000E+00+
*       3.0000000000E+01               0
GRID*                645               0-1.749859729E+012.5165843512E+00+
*       4.5000000000E+01               0
GRID*                646               0-1.607923664E+017.3437632688E+00+
*       4.5000000000E+01               0
GRID*                647               0-1.335993175E+011.1577142859E+01+
*       4.5000000000E+01               0
GRID*                648               0-9.556158223E+001.4870558743E+01+
*       4.5000000000E+01               0
GRID*                649               0-4.980099270E+001.6962081517E+01+
*       4.5000000000E+01               0
GRID*                650               03.2865689396E-041.7677667618E+01+
*       4.5000000000E+01               0
GRID*                651               04.9806191052E+001.6961528652E+01+
*       4.5000000000E+01               0
GRID*                652               09.5577089531E+001.4871675891E+01+
*       4.5000000000E+01               0
GRID*                653               01.3360173025E+011.1576465831E+01+
*       4.5000000000E+01               0
GRID*                654               01.6080053203E+017.3434170927E+00+
*       4.5000000000E+01               0
GRID*                655               01.7500925305E+012.5163802609E+00+
*       4.5000000000E+01               0
GRID*                656               01.7499273795E+01-2.516044359E+00+
*       4.5000000000E+01               0
GRID*                657               01.6079052317E+01-7.342943082E+00+
*       4.5000000000E+01               0
GRID*                658               01.3360357888E+01-1.157664168E+01+
*       4.5000000000E+01               0
GRID*                659               09.5567052672E+00-1.487019367E+01+
*       4.5000000000E+01               0
GRID*                660               04.9807311454E+00-1.696189951E+01+
*       4.5000000000E+01               0
GRID*                661               03.2870582537E-04-1.767766762E+01+
*       4.5000000000E+01               0
GRID*                662               0-4.980663622E+00-1.696386776E+01+
*       4.5000000000E+01               0
GRID*                663               0-9.557153093E+00-1.487202771E+01+
*       4.5000000000E+01               0
GRID*                664               0-1.335973711E+01-1.157695849E+01+
*       4.5000000000E+01               0
GRID*                665               0-1.607987902E+01-7.344061047E+00+
*       4.5000000000E+01               0
GRID*                666               0-1.749765094E+01-2.516420923E+00+
*       4.5000000000E+01               0
GRID*                667               01.6961595081E+01-4.980373540E+00+
*       3.0000000000E+01               0
GRID*                668               01.4871392276E+01-9.557263301E+00+
*       3.0000000000E+01               0
GRID*                669               01.1576402852E+01-1.335988117E+01+
*       3.0000000000E+01               0
GRID*                670               07.3435655881E+00-1.608016608E+01+
*       3.0000000000E+01               0
GRID*                671               02.5157943317E+00-1.749773427E+01+
*       3.0000000000E+01               0
GRID*                672               0-2.515794332E+00-1.749773427E+01+
*       3.0000000000E+01               0
GRID*                673               0-7.343565588E+00-1.608016608E+01+
*       3.0000000000E+01               0
GRID*                674               0-1.157640285E+01-1.335988117E+01+
*       3.0000000000E+01               0
GRID*                675               0-1.487139228E+01-9.557263301E+00+
*       3.0000000000E+01               0
GRID*                676               0-1.696159508E+01-4.980373540E+00+
*       3.0000000000E+01               0
GRID*                677               0-1.749773427E+01-2.515794332E+00+
*       3.0000000000E+01               0
GRID*                678               0-1.608016608E+01-7.343565588E+00+
*       3.0000000000E+01               0
GRID*                679               0-1.335988117E+01-1.157640285E+01+
*       3.0000000000E+01               0
GRID*                680               0-4.980373540E+00-1.696159508E+01+
*       3.0000000000E+01               0
GRID*                681               0-9.557263301E+00-1.487139228E+01+
*       3.0000000000E+01               0
GRID*                682               00.0000000000E+00-1.767766953E+01+
*       3.0000000000E+01               0
GRID*                683               01.6080166082E+01-7.343565588E+00+
*       3.0000000000E+01               0
GRID*                684               01.7497734266E+01-2.515794332E+00+
*       3.0000000000E+01               0
GRID*                685               04.9803735402E+00-1.696159508E+01+
*       3.0000000000E+01               0
GRID*                686               09.5572633005E+00-1.487139228E+01+
*       3.0000000000E+01               0
GRID*                687               01.3359881166E+01-1.157640285E+01+
*       3.0000000000E+01               0
GRID*                688               0-1.696159508E+014.9803735402E+00+
*       3.0000000000E+01               0
GRID*                689               0-1.487139228E+019.5572633005E+00+
*       3.0000000000E+01               0
GRID*                690               0-1.157640285E+011.3359881166E+01+
*       3.0000000000E+01               0
GRID*                691               0-7.343565588E+001.6080166082E+01+
*       3.0000000000E+01               0
GRID*                692               0-2.515794332E+001.7497734266E+01+
*       3.0000000000E+01               0
GRID*                693               02.5157943317E+001.7497734266E+01+
*       3.0000000000E+01               0
GRID*                694               07.3435655881E+001.6080166082E+01+
*       3.0000000000E+01               0
GRID*                695               01.1576402852E+011.3359881166E+01+
*       3.0000000000E+01               0
GRID*                696               01.4871392276E+019.5572633005E+00+
*       3.0000000000E+01               0
GRID*                697               01.6961595081E+014.9803735402E+00+
*       3.0000000000E+01               0
GRID*                698               0-1.749773427E+012.5157943317E+00+
*       3.0000000000E+01               0
GRID*                699               0-1.608016608E+017.3435655881E+00+
*       3.0000000000E+01               0
GRID*                700               0-1.335988117E+011.1576402852E+01+
*       3.0000000000E+01               0
GRID*                701               0-4.980373540E+001.6961595081E+01+
*       3.0000000000E+01               0
GRID*                702               0-9.557263301E+001.4871392276E+01+
*       3.0000000000E+01               0
GRID*                703               01.6080166082E+017.3435655881E+00+
*       3.0000000000E+01               0
GRID*                704               01.3359881166E+011.1576402852E+01+
*       3.0000000000E+01               0
GRID*                705               01.7497734266E+012.5157943317E+00+
*       3.0000000000E+01               0
GRID*                706               09.5572633005E+001.4871392276E+01+
*       3.0000000000E+01               0
GRID*                707               0-1.172004000E-151.7677669525E+01+
*       3.0000000000E+01               0
GRID*                708               04.9803735402E+001.6961595081E+01+
*       3.0000000000E+01               0
GRID*                709               0-2.448824445E+01-5.032462284E+00+
*       3.0000000000E+01               0
GRID*                710               0-2.297393677E+01-9.858892829E+00+
*       3.0000000000E+01               0
GRID*                711               0-2.051907849E+01-1.428170006E+01+
*       3.0000000000E+01               0
GRID*                712               0-1.722416964E+01-1.811981598E+01+
*       3.0000000000E+01               0
GRID*                713               0-1.322410052E+01-2.121610678E+01+
*       3.0000000000E+01               0
GRID*                714               0-8.682630367E+00-2.344380102E+01+
*       3.0000000000E+01               0
GRID*                715               0-3.785693043E+00-2.471169994E+01+
*       3.0000000000E+01               0
GRID*                716               01.2662286894E+00-2.496790283E+01+
*       3.0000000000E+01               0
GRID*                717               06.2663116566E+00-2.420192209E+01+
*       3.0000000000E+01               0
GRID*                718               01.1009853435E+01-2.244511278E+01+
*       3.0000000000E+01               0
GRID*                719               01.5302648693E+01-1.976939216E+01+
*       3.0000000000E+01               0
GRID*                720               01.8968947497E+01-1.628430709E+01+
*       3.0000000000E+01               0
GRID*                721               02.1858656570E+01-1.213254424E+01+
*       3.0000000000E+01               0
GRID*                722               02.3853475099E+01-7.484076275E+00+
*       3.0000000000E+01               0
GRID*                723               02.4871732413E+01-2.529208040E+00+
*       3.0000000000E+01               0
GRID*                724               02.4871732413E+012.5292080396E+00+
*       3.0000000000E+01               0
GRID*                725               02.3853475099E+017.4840762755E+00+
*       3.0000000000E+01               0
GRID*                726               02.1858656570E+011.2132544235E+01+
*       3.0000000000E+01               0
GRID*                727               01.8968947497E+011.6284307087E+01+
*       3.0000000000E+01               0
GRID*                728               01.5302648693E+011.9769392159E+01+
*       3.0000000000E+01               0
GRID*                729               01.1009853435E+012.2445112779E+01+
*       3.0000000000E+01               0
GRID*                730               06.2663116566E+002.4201922090E+01+
*       3.0000000000E+01               0
GRID*                731               01.2662286894E+002.4967902830E+01+
*       3.0000000000E+01               0
GRID*                732               0-3.785693043E+002.4711699942E+01+
*       3.0000000000E+01               0
GRID*                733               0-8.682630367E+002.3443801018E+01+
*       3.0000000000E+01               0
GRID*                734               0-1.322410052E+012.1216106781E+01+
*       3.0000000000E+01               0
GRID*                735               0-1.722416964E+011.8119815983E+01+
*       3.0000000000E+01               0
GRID*                736               0-2.051907849E+011.4281700059E+01+
*       3.0000000000E+01               0
GRID*                737               0-2.297393677E+019.8588928288E+00+
*       3.0000000000E+01               0
GRID*                738               0-2.448824445E+015.0324622845E+00+
*       3.0000000000E+01               0
GRID*                739               0-2.385347510E+017.4840762755E+00+
*       3.0000000000E+01               0
GRID*                740               0-1.896894750E+011.6284307087E+01+
*       3.0000000000E+01               0
GRID*                741               0-2.185865657E+011.2132544235E+01+
*       3.0000000000E+01               0
GRID*                742               0-1.530264869E+011.9769392159E+01+
*       3.0000000000E+01               0
GRID*                743               0-1.100985344E+012.2445112779E+01+
*       3.0000000000E+01               0
GRID*                744               02.0519078493E+011.4281700059E+01+
*       3.0000000000E+01               0
GRID*                745               02.5000000000E+01-3.508304758E-14+
*       3.0000000000E+01               0
GRID*                746               02.2973936766E+019.8588928288E+00+
*       3.0000000000E+01               0
GRID*                747               02.4488244451E+015.0324622845E+00+
*       3.0000000000E+01               0
GRID*                748               01.7224169641E+011.8119815983E+01+
*       3.0000000000E+01               0
GRID*                749               0-6.266311657E+002.4201922090E+01+
*       3.0000000000E+01               0
GRID*                750               0-1.266228689E+002.4967902830E+01+
*       3.0000000000E+01               0
GRID*                751               01.3224100523E+012.1216106781E+01+
*       3.0000000000E+01               0
GRID*                752               08.6826303671E+002.3443801018E+01+
*       3.0000000000E+01               0
GRID*                753               03.7856930425E+002.4711699942E+01+
*       3.0000000000E+01               0
GRID*                754               0-2.487173241E+012.5292080396E+00+
*       3.0000000000E+01               0
GRID*                755               0-2.487173241E+01-2.529208040E+00+
*       3.0000000000E+01               0
GRID*                756               0-2.385347510E+01-7.484076275E+00+
*       3.0000000000E+01               0
GRID*                757               0-1.530264869E+01-1.976939216E+01+
*       3.0000000000E+01               0
GRID*                758               0-1.896894750E+01-1.628430709E+01+
*       3.0000000000E+01               0
GRID*                759               0-2.185865657E+01-1.213254424E+01+
*       3.0000000000E+01               0
GRID*                760               0-1.100985344E+01-2.244511278E+01+
*       3.0000000000E+01               0
GRID*                761               03.7856930425E+00-2.471169994E+01+
*       3.0000000000E+01               0
GRID*                762               0-6.266311657E+00-2.420192209E+01+
*       3.0000000000E+01               0
GRID*                763               0-1.266228689E+00-2.496790283E+01+
*       3.0000000000E+01               0
GRID*                764               02.0519078493E+01-1.428170006E+01+
*       3.0000000000E+01               0
GRID*                765               02.2973936766E+01-9.858892829E+00+
*       3.0000000000E+01               0
GRID*                766               02.4488244451E+01-5.032462284E+00+
*       3.0000000000E+01               0
GRID*                767               01.3224100523E+01-2.121610678E+01+
*       3.0000000000E+01               0
GRID*                768               08.6826303671E+00-2.344380102E+01+
*       3.0000000000E+01               0
GRID*                769               01.7224169641E+01-1.811981598E+01+
*       3.0000000000E+01               0
GRID*                770               0-2.486920474E+01-2.529047628E+00+
*       1.0000000000E+01               0
GRID*                771               0-2.385154284E+01-7.483530861E+00+
*       1.0000000000E+01               0
GRID*                772               0-2.185915655E+01-1.213279118E+01+
*       1.0000000000E+01               0
GRID*                773               0-1.896409281E+01-1.628001816E+01+
*       1.0000000000E+01               0
GRID*                774               0-1.529971219E+01-1.976532242E+01+
*       1.0000000000E+01               0
GRID*                775               0-1.100891433E+01-2.244336532E+01+
*       1.0000000000E+01               0
GRID*                776               0-6.265647444E+00-2.419963467E+01+
*       1.0000000000E+01               0
GRID*                777               0-1.266257124E+00-2.496808431E+01+
*       1.0000000000E+01               0
GRID*                778               03.7846499181E+00-2.470535319E+01+
*       1.0000000000E+01               0
GRID*                779               08.6803775683E+00-2.343826142E+01+
*       1.0000000000E+01               0
GRID*                780               01.3223523351E+01-2.121510689E+01+
*       1.0000000000E+01               0
GRID*                781               01.7222380566E+01-1.811781797E+01+
*       1.0000000000E+01               0
GRID*                782               02.0518881578E+01-1.428157553E+01+
*       1.0000000000E+01               0
GRID*                783               02.2968194512E+01-9.856478098E+00+
*       1.0000000000E+01               0
GRID*                784               02.4481493860E+01-5.031278207E+00+
*       1.0000000000E+01               0
GRID*                785               02.5000000000E+011.3100631691E-14+
*       1.0000000000E+01               0
GRID*                786               02.4485406227E+015.0319792222E+00+
*       1.0000000000E+01               0
GRID*                787               02.2973311816E+019.8586367076E+00+
*       1.0000000000E+01               0
GRID*                788               02.0514194108E+011.4278289531E+01+
*       1.0000000000E+01               0
GRID*                789               01.7219129706E+011.8114242258E+01+
*       1.0000000000E+01               0
GRID*                790               01.3223419467E+012.1214917196E+01+
*       1.0000000000E+01               0
GRID*                791               08.6815145689E+002.3441078230E+01+
*       1.0000000000E+01               0
GRID*                792               03.7854994816E+002.4710584289E+01+
*       1.0000000000E+01               0
GRID*                793               0-1.266219606E+002.4968732179E+01+
*       1.0000000000E+01               0
GRID*                794               0-6.264287349E+002.4194784081E+01+
*       1.0000000000E+01               0
GRID*                795               0-1.100862875E+012.2442845578E+01+
*       1.0000000000E+01               0
GRID*                796               0-1.530098847E+011.9767088483E+01+
*       1.0000000000E+01               0
GRID*                797               0-1.896776970E+011.6283250401E+01+
*       1.0000000000E+01               0
GRID*                798               0-2.185408698E+011.2129961400E+01+
*       1.0000000000E+01               0
GRID*                799               0-2.384733314E+017.4822768030E+00+
*       1.0000000000E+01               0
GRID*                800               0-2.486778646E+012.5289571116E+00+
*       1.0000000000E+01               0
GRID*                801               0-1.767766953E+01-2.164890005E-15+
*       3.9956352790E+01               0
GRID*                802               0-1.767766953E+01-2.164890005E-15+
*       3.4956505830E+01               0
GRID*                803               0-1.767766953E+01-2.164890005E-15+
*       4.2478176395E+01               0
GRID*                804               0-1.767766953E+01-2.164890005E-15+
*       3.7456429310E+01               0
GRID*                805               0-1.767766953E+01-2.164890005E-15+
*       3.2478252915E+01               0
GRID*                806               0-2.500000000E+01-1.530808447E-15+
*       2.5000000000E+01               0
GRID*                807               0-2.500000000E+010.0000000000E+00+
*       2.0000000000E+01               0
GRID*                808               0-2.500000000E+011.5308084466E-15+
*       1.5000000000E+01               0
GRID*                809               0-2.500000000E+01-2.296212670E-15+
*       2.7500000000E+01               0
GRID*                810               0-2.500000000E+010.0000000000E+00+
*       2.2500000000E+01               0
GRID*                811               0-2.500000000E+010.0000000000E+00+
*       1.7500000000E+01               0
GRID*                812               0-2.500000000E+012.2962126699E-15+
*       1.2500000000E+01               0
GRID*                813               05.6722878201E+001.8668544337E+00+
*       4.5000000000E+01               0
GRID*                814               07.2537720261E+001.4951998403E+00+
*       4.5000000000E+01               0
GRID*                815               05.8678098864E+006.1546227373E-01+
*       4.5000000000E+01               0
GRID*                816               06.7789734056E+00-3.244715746E+00+
*       4.5000000000E+01               0
GRID*                817               05.5073041822E+00-3.372631149E+00+
*       4.5000000000E+01               0
GRID*                818               05.9826646545E+00-2.239520293E+00+
*       4.5000000000E+01               0
GRID*                819               0-1.358076570E+011.8931363533E+00+
*       4.5000000000E+01               0
GRID*                820               0-1.575843717E+01-4.945483320E-02+
*       4.5000000000E+01               0
GRID*                821               0-1.549999805E+011.9425911865E+00+
*       4.5000000000E+01               0
GRID*                822               0-1.514187714E+014.4330684831E+00+
*       4.5000000000E+01               0
GRID*                823               0-1.255895168E+015.6966378833E+00+
*       4.5000000000E+01               0
GRID*                824               0-1.437850225E+016.2445239934E+00+
*       4.5000000000E+01               0
GRID*                825               0-1.333333408E+018.5329227486E+00+
*       4.5000000000E+01               0
GRID*                826               0-1.048163989E+018.9765302986E+00+
*       4.5000000000E+01               0
GRID*                827               0-1.201939719E+011.0001359654E+01+
*       4.5000000000E+01               0
GRID*                828               0-1.037188098E+011.1902582025E+01+
*       4.5000000000E+01               0
GRID*                829               0-7.484260511E+001.1543036040E+01+
*       4.5000000000E+01               0
GRID*                830               0-8.688438501E+001.3000650860E+01+
*       4.5000000000E+01               0
GRID*                831               0-6.572008442E+001.4360723832E+01+
*       4.5000000000E+01               0
GRID*                832               0-3.921963348E+001.3259974021E+01+
*       4.5000000000E+01               0
GRID*                833               0-4.693153762E+001.4979592977E+01+
*       4.5000000000E+01               0
GRID*                834               0-2.279265983E+001.5688315900E+01+
*       4.5000000000E+01               0
GRID*                835               0-6.946641069E-021.3860350375E+01+
*       4.5000000000E+01               0
GRID*                836               0-3.056237250E-011.5669823109E+01+
*       4.5000000000E+01               0
GRID*                837               02.2101251349E+001.5669777233E+01+
*       4.5000000000E+01               0
GRID*                838               03.8169674671E+001.3317215990E+01+
*       4.5000000000E+01               0
GRID*                839               04.1229167550E+001.5145135638E+01+
*       4.5000000000E+01               0
GRID*                840               06.5367782003E+001.4436322103E+01+
*       4.5000000000E+01               0
GRID*                841               07.3773202136E+001.1790148156E+01+
*       4.5000000000E+01               0
GRID*                842               08.1843393266E+001.3433895864E+01+
*       4.5000000000E+01               0
GRID*                843               01.0300718690E+011.2073744031E+01+
*       4.5000000000E+01               0
GRID*                844               01.0241156645E+019.2880730707E+00+
*       4.5000000000E+01               0
GRID*                845               01.1516993995E+011.0574095186E+01+
*       4.5000000000E+01               0
GRID*                846               01.3164439469E+018.6728114828E+00+
*       4.5000000000E+01               0
GRID*                847               01.2236334597E+015.9698822612E+00+
*       4.5000000000E+01               0
GRID*                848               01.3943342116E+016.8542695185E+00+
*       4.5000000000E+01               0
GRID*                849               01.4989179098E+014.5660349131E+00+
*       4.5000000000E+01               0
GRID*                850               01.3296082797E+012.1785334804E+00+
*       4.5000000000E+01               0
GRID*                851               01.5270024651E+012.5932280965E+00+
*       4.5000000000E+01               0
GRID*                852               01.5627298938E+011.0285856816E-01+
*       4.5000000000E+01               0
GRID*                853               01.3322073129E+01-1.765918456E+00+
*       4.5000000000E+01               0
GRID*                854               01.5372443717E+01-1.868786552E+00+
*       4.5000000000E+01               0
GRID*                855               01.5014416310E+01-4.358943743E+00+
*       4.5000000000E+01               0
GRID*                856               01.2286360452E+01-5.563356167E+00+
*       4.5000000000E+01               0
GRID*                857               01.4233558854E+01-6.184736334E+00+
*       4.5000000000E+01               0
GRID*                858               01.3188475005E+01-8.473173728E+00+
*       4.5000000000E+01               0
GRID*                859               01.0269946388E+01-8.926210184E+00+
*       4.5000000000E+01               0
GRID*                860               01.1952918398E+01-1.001023515E+01+
*       4.5000000000E+01               0
GRID*                861               01.0305472929E+01-1.191151886E+01+
*       4.5000000000E+01               0
GRID*                862               07.4421133697E+00-1.158118819E+01+
*       4.5000000000E+01               0
GRID*                863               08.7131965177E+00-1.302943544E+01+
*       4.5000000000E+01               0
GRID*                864               06.5968171577E+00-1.438958728E+01+
*       4.5000000000E+01               0
GRID*                865               03.9662301736E+00-1.322902521E+01+
*       4.5000000000E+01               0
GRID*                866               04.7132103733E+00-1.491950773E+01+
*       4.5000000000E+01               0
GRID*                867               02.2993489239E+00-1.562832123E+01+
*       4.5000000000E+01               0
GRID*                868               09.4748319246E-02-1.378033442E+01+
*       4.5000000000E+01               0
GRID*                869               03.1147385400E-01-1.564970998E+01+
*       4.5000000000E+01               0
GRID*                870               0-2.204275000E+00-1.564975591E+01+
*       4.5000000000E+01               0
GRID*                871               0-3.779740211E+00-1.329647619E+01+
*       4.5000000000E+01               0
GRID*                872               0-4.090888460E+00-1.514450893E+01+
*       4.5000000000E+01               0
GRID*                873               0-6.504776241E+00-1.443578601E+01+
*       4.5000000000E+01               0
GRID*                874               0-7.294190310E+00-1.169475205E+01+
*       4.5000000000E+01               0
GRID*                875               0-8.132612881E+00-1.333930885E+01+
*       4.5000000000E+01               0
GRID*                876               0-1.024904294E+01-1.197923589E+01+
*       4.5000000000E+01               0
GRID*                877               0-1.023518539E+01-9.083572630E+00+
*       4.5000000000E+01               0
GRID*                878               0-1.156220138E+01-1.046453362E+01+
*       4.5000000000E+01               0
GRID*                879               0-1.320971759E+01-8.563311253E+00+
*       4.5000000000E+01               0
GRID*                880               0-1.241260112E+01-5.789260589E+00+
*       4.5000000000E+01               0
GRID*                881               0-1.407397488E+01-6.783701481E+00+
*       4.5000000000E+01               0
GRID*                882               0-1.511914451E+01-4.495303130E+00+
*       4.5000000000E+01               0
GRID*                883               0-1.355803161E+01-2.054280242E+00+
*       4.5000000000E+01               0
GRID*                884               0-1.540031772E+01-2.539932555E+00+
*       4.5000000000E+01               0
GRID*                885               0-1.046621628E+011.4618331751E+00+
*       4.5000000000E+01               0
GRID*                886               0-1.224374669E+01-1.273490918E-01+
*       4.5000000000E+01               0
GRID*                887               0-1.206167441E+011.4902726004E+00+
*       4.5000000000E+01               0
GRID*                888               0-1.180323529E+013.4823186201E+00+
*       4.5000000000E+01               0
GRID*                889               0-9.809474536E+004.5044144362E+00+
*       4.5000000000E+01               0
GRID*                890               0-1.132856582E+014.9072781891E+00+
*       4.5000000000E+01               0
GRID*                891               0-1.056519093E+016.7187336994E+00+
*       4.5000000000E+01               0
GRID*                892               0-8.252327014E+006.9821778594E+00+
*       4.5000000000E+01               0
GRID*                893               0-9.251254033E+008.1871706044E+00+
*       4.5000000000E+01               0
GRID*                894               0-8.168775975E+009.2399744586E+00+
*       4.5000000000E+01               0
GRID*                895               0-5.802628909E+008.9250847131E+00+
*       4.5000000000E+01               0
GRID*                896               0-6.801555928E+001.0130077458E+01+
*       4.5000000000E+01               0
GRID*                897               0-5.118113445E+001.1228146294E+01+
*       4.5000000000E+01               0
GRID*                898               0-3.026265119E+001.0413708127E+01+
*       4.5000000000E+01               0
GRID*                899               0-3.708969702E+001.1826666709E+01+
*       4.5000000000E+01               0
GRID*                900               0-1.830115022E+001.2445535854E+01+
*       4.5000000000E+01               0
GRID*                901               0-9.785577922E-021.0901104129E+01+
*       4.5000000000E+01               0
GRID*                902               01.4352723582E-011.2427043063E+01+
*       4.5000000000E+01               0
GRID*                903               01.6627928320E+001.2315918650E+01+
*       4.5000000000E+01               0
GRID*                904               02.9596680601E+001.0408077420E+01+
*       4.5000000000E+01               0
GRID*                905               03.2010510751E+001.1934016354E+01+
*       4.5000000000E+01               0
GRID*                906               05.1138426952E+001.1409374760E+01+
*       4.5000000000E+01               0
GRID*                907               05.7830982638E+009.3702834814E+00+
*       4.5000000000E+01               0
GRID*                908               06.3990146558E+001.0753483117E+01+
*       4.5000000000E+01               0
GRID*                909               08.0465757821E+009.7510568770E+00+
*       4.5000000000E+01               0
GRID*                910               07.8803248165E+007.5203672119E+00+
*       4.5000000000E+01               0
GRID*                911               09.2628510872E+008.2514080318E+00+
*       4.5000000000E+01               0
GRID*                912               01.0074905679E+017.0573834055E+00+
*       4.5000000000E+01               0
GRID*                913               09.2450793691E+004.8668652957E+00+
*       4.5000000000E+01               0
GRID*                914               01.0627605640E+015.5979061156E+00+
*       4.5000000000E+01               0
GRID*                915               01.1406508287E+013.7793641514E+00+
*       4.5000000000E+01               0
GRID*                916               01.0015950701E+011.8444103465E+00+
*       4.5000000000E+01               0
GRID*                917               01.1624679658E+012.2163864921E+00+
*       4.5000000000E+01               0
GRID*                918               01.1905525211E+012.4357967552E-01+
*       4.5000000000E+01               0
GRID*                919               01.0057041438E+01-1.264491983E+00+
*       4.5000000000E+01               0
GRID*                920               01.1728444577E+01-1.302344995E+00+
*       4.5000000000E+01               0
GRID*                921               01.1473589356E+01-3.273990115E+00+
*       4.5000000000E+01               0
GRID*                922               09.2902217725E+00-4.256145983E+00+
*       4.5000000000E+01               0
GRID*                923               01.0883850325E+01-4.719719445E+00+
*       4.5000000000E+01               0
GRID*                924               01.0102992868E+01-6.545512035E+00+
*       4.5000000000E+01               0
GRID*                925               07.7803617376E+00-6.939765449E+00+
*       4.5000000000E+01               0
GRID*                926               09.1828718645E+00-7.783402172E+00+
*       4.5000000000E+01               0
GRID*                927               07.9473152575E+00-9.320463598E+00+
*       4.5000000000E+01               0
GRID*                928               05.7328422200E+00-9.126379410E+00+
*       4.5000000000E+01               0
GRID*                929               06.8199167438E+00-1.026918742E+01+
*       4.5000000000E+01               0
GRID*                930               05.2276403321E+00-1.138710400E+01+
*       4.5000000000E+01               0
GRID*                931               03.1437985883E+00-1.037588315E+01+
*       4.5000000000E+01               0
GRID*                932               03.3440335477E+00-1.191702445E+01+
*       4.5000000000E+01               0
GRID*                933               01.8823884297E+00-1.221780436E+01+
*       4.5000000000E+01               0
GRID*                934               09.1586403607E-02-1.070881927E+01+
*       4.5000000000E+01               0
GRID*                935               02.9182136306E-01-1.224996058E+01+
*       4.5000000000E+01               0
GRID*                936               0-1.696053707E+00-1.227134933E+01+
*       4.5000000000E+01               0
GRID*                937               0-2.953300888E+00-1.045834843E+01+
*       4.5000000000E+01               0
GRID*                938               0-3.150373932E+00-1.198872227E+01+
*       4.5000000000E+01               0
GRID*                939               0-5.036987392E+00-1.148347529E+01+
*       4.5000000000E+01               0
GRID*                940               0-5.582481250E+00-9.248467870E+00+
*       4.5000000000E+01               0
GRID*                941               0-6.664824031E+00-1.038699813E+01+
*       4.5000000000E+01               0
GRID*                942               0-7.839684168E+00-9.459744637E+00+
*       4.5000000000E+01               0
GRID*                943               0-7.809532604E+00-7.085608887E+00+
*       4.5000000000E+01               0
GRID*                944               0-8.891875385E+00-8.224139148E+00+
*       4.5000000000E+01               0
GRID*                945               0-1.020503383E+01-6.709436880E+00+
*       4.5000000000E+01               0
GRID*                946               0-9.629324995E+00-4.523665987E+00+
*       4.5000000000E+01               0
GRID*                947               0-1.097263500E+01-5.383099469E+00+
*       4.5000000000E+01               0
GRID*                948               0-1.183689228E+01-3.603489696E+00+
*       4.5000000000E+01               0
GRID*                949               0-1.052260737E+01-1.676558546E+00+
*       4.5000000000E+01               0
GRID*                950               0-1.211806549E+01-1.648119121E+00+
*       4.5000000000E+01               0
GRID*                951               0-7.681597895E+001.1465814037E+00+
*       4.5000000000E+01               0
GRID*                952               0-9.221111912E+00-2.306836924E-01+
*       4.5000000000E+01               0
GRID*                953               0-9.108774547E+001.2214765789E+00+
*       4.5000000000E+01               0
GRID*                954               0-8.926702265E+002.8390982712E+00+
*       4.5000000000E+01               0
GRID*                955               0-7.568376153E+003.7202383546E+00+
*       4.5000000000E+01               0
GRID*                956               0-8.925817887E+003.9605949507E+00+
*       4.5000000000E+01               0
GRID*                957               0-8.451148424E+005.3855545196E+00+
*       4.5000000000E+01               0
GRID*                958               0-6.549723742E+005.3377558948E+00+
*       4.5000000000E+01               0
GRID*                959               0-7.368670366E+006.4383583738E+00+
*       4.5000000000E+01               0
GRID*                960               0-6.350902333E+006.9343792346E+00+
*       4.5000000000E+01               0
GRID*                961               0-4.284621196E+006.5998542346E+00+
*       4.5000000000E+01               0
GRID*                962               0-4.983682286E+007.8244822341E+00+
*       4.5000000000E+01               0
GRID*                963               0-3.736347773E+008.5905597131E+00+
*       4.5000000000E+01               0
GRID*                964               0-2.153593733E+008.1702809665E+00+
*       4.5000000000E+01               0
GRID*                965               0-2.852654823E+009.3949089659E+00+
*       4.5000000000E+01               0
GRID*                966               0-1.443511079E+009.9934293806E+00+
*       4.5000000000E+01               0
GRID*                967               0-1.792176290E-018.5212270202E+00+
*       4.5000000000E+01               0
GRID*                968               07.5754516757E-029.8823049674E+00+
*       4.5000000000E+01               0
GRID*                969               01.1664376713E+009.4289017683E+00+
*       4.5000000000E+01               0
GRID*                970               02.2791601166E+007.8023938325E+00+
*       4.5000000000E+01               0
GRID*                971               02.5341322623E+009.1634717797E+00+
*       4.5000000000E+01               0
GRID*                972               04.0723905054E+008.7815694843E+00+
*       4.5000000000E+01               0
GRID*                973               04.6907714962E+007.3857555070E+00+
*       4.5000000000E+01               0
GRID*                974               05.1163072940E+008.6303611474E+00+
*       4.5000000000E+01               0
GRID*                975               06.4014792546E+007.9744695042E+00+
*       4.5000000000E+01               0
GRID*                976               06.0146566576E+006.2214090648E+00+
*       4.5000000000E+01               0
GRID*                977               07.2135338467E+006.7804448779E+00+
*       4.5000000000E+01               0
GRID*                978               07.4935022195E+005.7673067726E+00+
*       4.5000000000E+01               0
GRID*                979               06.6764374951E+003.9774314799E+00+
*       4.5000000000E+01               0
GRID*                980               08.0462021799E+004.3078294826E+00+
*       4.5000000000E+01               0
GRID*                981               08.4280146447E+003.0769900030E+00+
*       4.5000000000E+01               0
GRID*                982               08.6235367110E+001.8255978430E+00+
*       4.5000000000E+01               0
GRID*                983               08.8417080820E+002.6262018376E-01+
*       4.5000000000E+01               0
GRID*                984               07.3518139851E+00-9.338986052E-01+
*       4.5000000000E+01               0
GRID*                985               08.7442279747E+00-9.150861018E-01+
*       4.5000000000E+01               0
GRID*                986               08.5671473407E+00-2.461010772E+00+
*       4.5000000000E+01               0
GRID*                987               07.9774083097E+00-3.906740102E+00+
*       4.5000000000E+01               0
GRID*                988               07.5020478374E+00-5.039850957E+00+
*       4.5000000000E+01               0
GRID*                989               05.5694641307E+00-5.366511356E+00+
*       4.5000000000E+01               0
GRID*                990               06.5819268335E+00-6.277741094E+00+
*       4.5000000000E+01               0
GRID*                991               05.8477780309E+00-7.266425849E+00+
*       4.5000000000E+01               0
GRID*                992               04.2598026040E+00-7.313860147E+00+
*       4.5000000000E+01               0
GRID*                993               05.2722653069E+00-8.225089885E+00+
*       4.5000000000E+01               0
GRID*                994               04.1448667931E+00-9.173813709E+00+
*       4.5000000000E+01               0
GRID*                995               02.5511254027E+00-8.108155223E+00+
*       4.5000000000E+01               0
GRID*                996               02.6832216751E+00-9.474593620E+00+
*       4.5000000000E+01               0
GRID*                997               01.5500571978E+00-9.310224660E+00+
*       4.5000000000E+01               0
GRID*                998               01.7933925798E-02-8.000052558E+00+
*       4.5000000000E+01               0
GRID*                999               01.5003019823E-01-9.366490955E+00+
*       4.5000000000E+01               0
GRID*               1000               0-1.440536868E+00-9.398647172E+00+
*       4.5000000000E+01               0
GRID*               1001               0-2.471609681E+00-8.186284416E+00+
*       4.5000000000E+01               0
GRID*               1002               0-2.530053475E+00-9.528612735E+00+
*       4.5000000000E+01               0
GRID*               1003               0-3.984373700E+00-9.245985672E+00+
*       4.5000000000E+01               0
GRID*               1004               0-4.171069203E+00-7.382725173E+00+
*       4.5000000000E+01               0
GRID*               1005               0-5.159233837E+00-8.318732178E+00+
*       4.5000000000E+01               0
GRID*               1006               0-5.769176753E+00-7.385207372E+00+
*       4.5000000000E+01               0
GRID*               1007               0-5.681504063E+00-5.307936182E+00+
*       4.5000000000E+01               0
GRID*               1008               0-6.821367970E+00-6.149601882E+00+
*       4.5000000000E+01               0
GRID*               1009               0-7.721859914E+00-5.008337697E+00+
*       4.5000000000E+01               0
GRID*               1010               0-7.477740270E+00-3.376786887E+00+
*       4.5000000000E+01               0
GRID*               1011               0-8.617604177E+00-4.218452587E+00+
*       4.5000000000E+01               0
GRID*               1012               0-9.385205351E+00-2.892115176E+00+
*       4.5000000000E+01               0
GRID*               1013               0-8.083709897E+00-1.446240322E+00+
*       4.5000000000E+01               0
GRID*               1014               0-9.510886548E+00-1.371345147E+00+
*       4.5000000000E+01               0
GRID*               1015               03.5522799113E+006.0563564809E+00+
*       4.5000000000E+01               0
GRID*               1016               04.5961966998E+005.9051481440E+00+
*       4.5000000000E+01               0
GRID*               1017               04.8761650726E+004.8920100387E+00+
*       4.5000000000E+01               0
GRID*               1018               02.1845853202E+006.3217864695E+00+
*       4.5000000000E+01               0
GRID*               1019               01.4665989743E+004.6128272430E+00+
*       4.5000000000E+01               0
GRID*               1020               01.9347917962E-016.3588645946E+00+
*       4.5000000000E+01               0
GRID*               1021               03.8720153976E+002.7814329925E+00+
*       4.5000000000E+01               0
GRID*               1022               02.3262030104E+004.7258234021E-01+
*       4.5000000000E+01               0
GRID*               1023               01.9118927276E+002.2668984656E+00+
*       4.5000000000E+01               0
GRID*               1024               0-7.921341296E-022.3039765906E+00+
*       4.5000000000E+01               0
GRID*               1025               05.2579775374E+003.6611705591E+00+
*       4.5000000000E+01               0
GRID*               1026               0-4.298067393E+007.6505084079E-01+
*       4.5000000000E+01               0
GRID*               1027               0-2.021466253E+001.4287656258E+00+
*       4.5000000000E+01               0
GRID*               1028               0-1.910520800E+00-7.056669717E-01+
*       4.5000000000E+01               0
GRID*               1029               0-2.466760006E+003.7746944032E+00+
*       4.5000000000E+01               0
GRID*               1030               0-5.989136688E+002.7491125567E+00+
*       4.5000000000E+01               0
GRID*               1031               0-6.101474054E+001.2969522853E+00+
*       4.5000000000E+01               0
GRID*               1032               0-5.990528600E+00-8.374803122E-01+
*       4.5000000000E+01               0
GRID*               1033               0-4.970484278E+004.3666300969E+00+
*       4.5000000000E+01               0
GRID*               1034               0-5.988252311E+003.8706092362E+00+
*       4.5000000000E+01               0
GRID*               1035               0-1.780896925E+006.0079185408E+00+
*       4.5000000000E+01               0
GRID*               1036               0-8.972039749E-016.8122677936E+00+
*       4.5000000000E+01               0
GRID*               1037               0-3.723149765E+005.1327075760E+00+
*       4.5000000000E+01               0
GRID*               1038               03.3681642997E+00-5.381437486E+00+
*       4.5000000000E+01               0
GRID*               1039               03.1266381267E+00-7.149491187E+00+
*       4.5000000000E+01               0
GRID*               1040               01.6594870983E+00-6.175732562E+00+
*       4.5000000000E+01               0
GRID*               1041               04.7731553796E+00-4.361315903E+00+
*       4.5000000000E+01               0
GRID*               1042               03.3060043512E+00-3.387557278E+00+
*       4.5000000000E+01               0
GRID*               1043               04.4986605557E+00-6.901594144E-01+
*       4.5000000000E+01               0
GRID*               1044               02.5385378858E+00-1.204693941E+00+
*       4.5000000000E+01               0
GRID*               1045               01.1335468058E+00-2.224815524E+00+
*       4.5000000000E+01               0
GRID*               1046               0-8.080143445E-02-4.722254136E+00+
*       4.5000000000E+01               0
GRID*               1047               0-8.482678999E-01-2.539390799E+00+
*       4.5000000000E+01               0
GRID*               1048               0-3.124869040E+00-3.203105584E+00+
*       4.5000000000E+01               0
GRID*               1049               0-1.722354607E+00-6.546574132E+00+
*       4.5000000000E+01               0
GRID*               1050               0-3.223276074E-01-6.490307838E+00+
*       4.5000000000E+01               0
GRID*               1051               0-3.421814130E+00-5.743014890E+00+
*       4.5000000000E+01               0
GRID*               1052               0-2.811871214E+00-6.676539696E+00+
*       4.5000000000E+01               0
GRID*               1053               0-5.384558973E+00-2.768026877E+00+
*       4.5000000000E+01               0
GRID*               1054               0-6.280303237E+00-1.978141767E+00+
*       4.5000000000E+01               0
GRID*               1055               0-4.322306074E+00-4.601750705E+00+
*       4.5000000000E+01               0
GRID*               1056               06.0801447618E+00-1.061814008E+00+
*       4.5000000000E+01               0
GRID*               1057               0-2.099220590E+012.3417424184E+00+
*       3.0000000000E+01               0
GRID*               1058               02.1798661779E+016.2745396906E-04+
*       3.0000000000E+01               0
GRID*               1059               0-5.421472466E+002.0411674837E+01+
*       3.0000000000E+01               0
GRID*               1060               0-1.867765781E+019.8023325785E+00+
*       3.0000000000E+01               0
GRID*               1061               0-2.083122681E+016.4090337810E+00+
*       3.0000000000E+01               0
GRID*               1062               0-1.586156738E+011.3670428885E+01+
*       3.0000000000E+01               0
GRID*               1063               0-1.246561591E+011.7026209518E+01+
*       3.0000000000E+01               0
GRID*               1064               0-9.436221739E+001.9645199297E+01+
*       3.0000000000E+01               0
GRID*               1065               01.4995436341E+011.4842125014E+01+
*       3.0000000000E+01               0
GRID*               1066               01.9387427791E+018.3824454673E+00+
*       3.0000000000E+01               0
GRID*               1067               01.8022775451E+011.2249837943E+01+
*       3.0000000000E+01               0
GRID*               1068               02.0769572972E+013.9048122828E+00+
*       3.0000000000E+01               0
GRID*               1069               01.1181147761E+011.7704223322E+01+
*       3.0000000000E+01               0
GRID*               1070               0-7.889918565E-012.1113584992E+01+
*       3.0000000000E+01               0
GRID*               1071               06.9343614965E+001.9925667488E+01+
*       3.0000000000E+01               0
GRID*               1072               03.2414693379E+002.1556091745E+01+
*       3.0000000000E+01               0
GRID*               1073               03.2428868805E+00-2.156309361E+01+
*       3.0000000000E+01               0
GRID*               1074               0-1.246520406E+01-1.702722824E+01+
*       3.0000000000E+01               0
GRID*               1075               0-2.099584318E+01-2.342751898E+00+
*       3.0000000000E+01               0
GRID*               1076               0-1.868234356E+01-9.806932756E+00+
*       3.0000000000E+01               0
GRID*               1077               0-2.083334101E+01-6.410579107E+00+
*       3.0000000000E+01               0
GRID*               1078               0-1.586408297E+01-1.367320618E+01+
*       3.0000000000E+01               0
GRID*               1079               0-5.422838222E+00-2.041651105E+01+
*       3.0000000000E+01               0
GRID*               1080               0-9.436658693E+00-1.964688046E+01+
*       3.0000000000E+01               0
GRID*               1081               0-7.880847142E-01-2.111826520E+01+
*       3.0000000000E+01               0
GRID*               1082               01.6910497491E+01-1.262847436E+01+
*       3.0000000000E+01               0
GRID*               1083               01.9161407182E+01-8.452726745E+00+
*       3.0000000000E+01               0
GRID*               1084               02.0731975479E+01-3.911171248E+00+
*       3.0000000000E+01               0
GRID*               1085               01.1157235763E+01-1.793164825E+01+
*       3.0000000000E+01               0
GRID*               1086               06.9367099406E+00-1.996599234E+01+
*       3.0000000000E+01               0
GRID*               1087               01.4794202213E+01-1.599706473E+01+
*       3.0000000000E+01               0
GRID*               1088               0-1.897690051E+013.6610579829E+00+
*       3.0000000000E+01               0
GRID*               1089               0-1.933493771E+011.1708712092E+00+
*       3.0000000000E+01               0
GRID*               1090               0-1.781962646E+017.3913530629E+00+
*       3.0000000000E+01               0
GRID*               1091               0-1.677452504E+019.6797979390E+00+
*       3.0000000000E+01               0
GRID*               1092               0-1.975444231E+018.1056831797E+00+
*       3.0000000000E+01               0
GRID*               1093               0-1.889641096E+015.6947036642E+00+
*       3.0000000000E+01               0
GRID*               1094               0-2.091171636E+014.3753880997E+00+
*       3.0000000000E+01               0
GRID*               1095               0-2.265973563E+015.7207480330E+00+
*       3.0000000000E+01               0
GRID*               1096               0-2.274022518E+013.6871023517E+00+
*       3.0000000000E+01               0
GRID*               1097               0-2.190258179E+018.1339633064E+00+
*       3.0000000000E+01               0
GRID*               1098               0-2.082579729E+019.8306127051E+00+
*       3.0000000000E+01               0
GRID*               1099               0-1.819032298E+011.3976064499E+01+
*       3.0000000000E+01               0
GRID*               1100               0-1.654286851E+011.5895122429E+01+
*       3.0000000000E+01               0
GRID*               1101               0-1.726961259E+011.1736380732E+01+
*       3.0000000000E+01               0
GRID*               1102               0-1.536647983E+011.1613846092E+01+
*       3.0000000000E+01               0
GRID*               1103               0-1.959836819E+011.2042016346E+01+
*       3.0000000000E+01               0
GRID*               1104               0-1.484489277E+011.7573012746E+01+
*       3.0000000000E+01               0
GRID*               1105               0-1.284485821E+011.9121158143E+01+
*       3.0000000000E+01               0
GRID*               1106               0-1.416359165E+011.5348319201E+01+
*       3.0000000000E+01               0
GRID*               1107               0-1.371898512E+011.3515155028E+01+
*       3.0000000000E+01               0
GRID*               1108               0-1.202100938E+011.5193045344E+01+
*       3.0000000000E+01               0
GRID*               1109               0-6.382519029E+001.8245920463E+01+
*       3.0000000000E+01               0
GRID*               1110               0-3.968633398E+001.8954704547E+01+
*       3.0000000000E+01               0
GRID*               1111               0-9.904590752E+001.6553187803E+01+
*       3.0000000000E+01               0
GRID*               1112               0-7.428847103E+002.0028437067E+01+
*       3.0000000000E+01               0
GRID*               1113               0-8.389893665E+001.7862682693E+01+
*       3.0000000000E+01               0
GRID*               1114               0-1.095091883E+011.8335704407E+01+
*       3.0000000000E+01               0
GRID*               1115               0-9.059426053E+002.1544500159E+01+
*       3.0000000000E+01               0
GRID*               1116               0-7.052051417E+002.1927737929E+01+
*       3.0000000000E+01               0
GRID*               1117               0-1.133016113E+012.0430653033E+01+
*       3.0000000000E+01               0
GRID*               1118               01.7129410033E+018.9698543834E+00+
*       3.0000000000E+01               0
GRID*               1119               01.8174511449E+016.6814095073E+00+
*       3.0000000000E+01               0
GRID*               1120               01.4933414308E+011.2199694157E+01+
*       3.0000000000E+01               0
GRID*               1121               01.3285919598E+011.4101003092E+01+
*       3.0000000000E+01               0
GRID*               1122               01.8705101621E+011.0316141705E+01+
*       3.0000000000E+01               0
GRID*               1123               01.6447083863E+011.0903550621E+01+
*       3.0000000000E+01               0
GRID*               1124               01.6509105896E+011.3545981478E+01+
*       3.0000000000E+01               0
GRID*               1125               01.9940715982E+011.2191191072E+01+
*       3.0000000000E+01               0
GRID*               1126               02.0623042152E+011.0257494834E+01+
*       3.0000000000E+01               0
GRID*               1127               01.8495861458E+011.4267072502E+01+
*       3.0000000000E+01               0
GRID*               1128               01.6982191903E+011.5563216037E+01+
*       3.0000000000E+01               0
GRID*               1129               01.9223621249E+011.9524061414E+00+
*       3.0000000000E+01               0
GRID*               1130               01.8865584040E+014.4425929151E+00+
*       3.0000000000E+01               0
GRID*               1131               01.9738165652E+013.1372698453E-04+
*       3.0000000000E+01               0
GRID*               1132               02.1284117375E+011.9527198684E+00+
*       3.0000000000E+01               0
GRID*               1133               02.3335197099E+011.2649177471E+00+
*       3.0000000000E+01               0
GRID*               1134               02.3335197099E+01-1.264290293E+00+
*       3.0000000000E+01               0
GRID*               1135               02.2820652695E+013.2170101615E+00+
*       3.0000000000E+01               0
GRID*               1136               02.0078500381E+016.1436288750E+00+
*       3.0000000000E+01               0
GRID*               1137               02.1620451443E+017.9332608708E+00+
*       3.0000000000E+01               0
GRID*               1138               02.2311524034E+015.6944442785E+00+
*       3.0000000000E+01               0
GRID*               1139               01.1378775308E+011.5532052246E+01+
*       3.0000000000E+01               0
GRID*               1140               09.2623566757E+001.6892194705E+01+
*       3.0000000000E+01               0
GRID*               1141               01.3088292051E+011.6273174168E+01+
*       3.0000000000E+01               0
GRID*               1142               01.5149042527E+011.7305758601E+01+
*       3.0000000000E+01               0
GRID*               1143               01.3241898237E+011.8736807755E+01+
*       3.0000000000E+01               0
GRID*               1144               0-3.105232161E+002.0762629914E+01+
*       3.0000000000E+01               0
GRID*               1145               0-1.652393093E+001.9305659625E+01+
*       3.0000000000E+01               0
GRID*               1146               0-4.603582754E+002.2561687386E+01+
*       3.0000000000E+01               0
GRID*               1147               0-2.287342449E+002.2912642463E+01+
*       3.0000000000E+01               0
GRID*               1148               02.3861841691E-012.3040743915E+01+
*       3.0000000000E+01               0
GRID*               1149               01.1095500597E+012.0074668049E+01+
*       3.0000000000E+01               0
GRID*               1150               09.0577546285E+001.8814945405E+01+
*       3.0000000000E+01               0
GRID*               1151               07.1389635437E+001.8002916788E+01+
*       3.0000000000E+01               0
GRID*               1152               08.9721074646E+002.1185390132E+01+
*       3.0000000000E+01               0
GRID*               1153               06.6003365760E+002.2063794787E+01+
*       3.0000000000E+01               0
GRID*               1154               08.6340123680E-011.9305659625E+01+
*       3.0000000000E+01               0
GRID*               1155               04.7250779133E+001.8711700873E+01+
*       3.0000000000E+01               0
GRID*               1156               05.0879154172E+002.0740879617E+01+
*       3.0000000000E+01               0
GRID*               1157               02.8786318340E+001.9526913001E+01+
*       3.0000000000E+01               0
GRID*               1158               01.2262387407E+002.1334838369E+01+
*       3.0000000000E+01               0
GRID*               1159               02.2538490141E+002.3261997292E+01+
*       3.0000000000E+01               0
GRID*               1160               04.7538904967E+002.2879006915E+01+
*       3.0000000000E+01               0
GRID*               1161               0-2.099402454E+01-5.047398922E-04+
*       3.0000000000E+01               0
GRID*               1162               0-1.933675635E+01-1.171375949E+00+
*       3.0000000000E+01               0
GRID*               1163               0-2.299610295E+011.1708712092E+00+
*       3.0000000000E+01               0
GRID*               1164               0-2.299792159E+01-1.171375949E+00+
*       3.0000000000E+01               0
GRID*               1165               0-2.274204382E+01-3.687607092E+00+
*       3.0000000000E+01               0
GRID*               1166               0-1.897871915E+01-3.661562723E+00+
*       3.0000000000E+01               0
GRID*               1167               0-1.782196933E+01-7.393653152E+00+
*       3.0000000000E+01               0
GRID*               1168               0-1.677686792E+01-9.682098028E+00+
*       3.0000000000E+01               0
GRID*               1169               0-2.091459210E+01-4.376665503E+00+
*       3.0000000000E+01               0
GRID*               1170               0-1.889746806E+01-5.695476327E+00+
*       3.0000000000E+01               0
GRID*               1171               0-1.975784228E+01-8.108755931E+00+
*       3.0000000000E+01               0
GRID*               1172               0-2.266079273E+01-5.721520696E+00+
*       3.0000000000E+01               0
GRID*               1173               0-2.190363889E+01-8.134735969E+00+
*       3.0000000000E+01               0
GRID*               1174               0-2.082814017E+01-9.832912794E+00+
*       3.0000000000E+01               0
GRID*               1175               0-1.484468685E+01-1.757352211E+01+
*       3.0000000000E+01               0
GRID*               1176               0-1.416464351E+01-1.535021721E+01+
*       3.0000000000E+01               0
GRID*               1177               0-1.654412630E+01-1.589651108E+01+
*       3.0000000000E+01               0
GRID*               1178               0-1.284465229E+01-1.912166750E+01+
*       3.0000000000E+01               0
GRID*               1179               0-1.372024291E+01-1.351654368E+01+
*       3.0000000000E+01               0
GRID*               1180               0-1.536773762E+01-1.161523474E+01+
*       3.0000000000E+01               0
GRID*               1181               0-1.202080346E+01-1.519355470E+01+
*       3.0000000000E+01               0
GRID*               1182               0-1.819158077E+01-1.397745315E+01+
*       3.0000000000E+01               0
GRID*               1183               0-1.727321327E+01-1.174006947E+01+
*       3.0000000000E+01               0
GRID*               1184               0-1.960071107E+01-1.204431643E+01+
*       3.0000000000E+01               0
GRID*               1185               0-6.383201906E+00-1.824833857E+01+
*       3.0000000000E+01               0
GRID*               1186               0-3.969316276E+00-1.895712265E+01+
*       3.0000000000E+01               0
GRID*               1187               0-9.904384824E+00-1.655369716E+01+
*       3.0000000000E+01               0
GRID*               1188               0-1.095093138E+01-1.833705435E+01+
*       3.0000000000E+01               0
GRID*               1189               0-8.390112142E+00-1.786352327E+01+
*       3.0000000000E+01               0
GRID*               1190               0-7.429748458E+00-2.003169575E+01+
*       3.0000000000E+01               0
GRID*               1191               0-9.059644531E+00-2.154534074E+01+
*       3.0000000000E+01               0
GRID*               1192               0-7.052734295E+00-2.193015603E+01+
*       3.0000000000E+01               0
GRID*               1193               0-1.133037960E+01-2.043149361E+01+
*       3.0000000000E+01               0
GRID*               1194               02.2545577854E+00-2.326549822E+01+
*       3.0000000000E+01               0
GRID*               1195               01.2274010831E+00-2.134067940E+01+
*       3.0000000000E+01               0
GRID*               1196               02.3907198804E-01-2.304308402E+01+
*       3.0000000000E+01               0
GRID*               1197               04.7545992680E+00-2.288250785E+01+
*       3.0000000000E+01               0
GRID*               1198               08.6385480793E-01-1.930799973E+01+
*       3.0000000000E+01               0
GRID*               1199               0-1.651939522E+00-1.930799973E+01+
*       3.0000000000E+01               0
GRID*               1200               02.8793406053E+00-1.953041393E+01+
*       3.0000000000E+01               0
GRID*               1201               0-3.105461468E+00-2.076738812E+01+
*       3.0000000000E+01               0
GRID*               1202               0-4.604265632E+00-2.256410549E+01+
*       3.0000000000E+01               0
GRID*               1203               0-2.286888878E+00-2.291498256E+01+
*       3.0000000000E+01               0
GRID*               1204               01.7016399729E+01-9.004995022E+00+
*       3.0000000000E+01               0
GRID*               1205               01.8061501145E+01-6.716550146E+00+
*       3.0000000000E+01               0
GRID*               1206               01.5890944883E+01-1.109286883E+01+
*       3.0000000000E+01               0
GRID*               1207               01.8035952337E+01-1.054060055E+01+
*       3.0000000000E+01               0
GRID*               1208               01.9384577003E+01-1.238050928E+01+
*       3.0000000000E+01               0
GRID*               1209               01.7939722478E+01-1.445639071E+01+
*       3.0000000000E+01               0
GRID*               1210               02.0510031848E+01-1.029263547E+01+
*       3.0000000000E+01               0
GRID*               1211               02.1507441139E+01-7.968401510E+00+
*       3.0000000000E+01               0
GRID*               1212               01.8846785293E+01-4.445772398E+00+
*       3.0000000000E+01               0
GRID*               1213               01.9946691331E+01-6.181948997E+00+
*       3.0000000000E+01               0
GRID*               1214               01.9204822502E+01-1.955585624E+00+
*       3.0000000000E+01               0
GRID*               1215               02.1265318629E+01-1.955271897E+00+
*       3.0000000000E+01               0
GRID*               1216               02.2292725287E+01-5.697623761E+00+
*       3.0000000000E+01               0
GRID*               1217               02.2801853948E+01-3.220189644E+00+
*       3.0000000000E+01               0
GRID*               1218               01.1083544598E+01-2.018838051E+01+
*       3.0000000000E+01               0
GRID*               1219               01.3229942238E+01-1.885052022E+01+
*       3.0000000000E+01               0
GRID*               1220               07.1401377658E+00-1.802307922E+01+
*       3.0000000000E+01               0
GRID*               1221               09.0469728519E+00-1.894882030E+01+
*       3.0000000000E+01               0
GRID*               1222               09.2504006771E+00-1.700590717E+01+
*       3.0000000000E+01               0
GRID*               1223               04.7262521354E+00-1.873186330E+01+
*       3.0000000000E+01               0
GRID*               1224               05.0897984106E+00-2.076454298E+01+
*       3.0000000000E+01               0
GRID*               1225               08.9732816867E+00-2.120555256E+01+
*       3.0000000000E+01               0
GRID*               1226               06.6015107981E+00-2.208395721E+01+
*       3.0000000000E+01               0
GRID*               1227               01.1366819309E+01-1.564576471E+01+
*       3.0000000000E+01               0
GRID*               1228               01.4243450173E+01-1.299417777E+01+
*       3.0000000000E+01               0
GRID*               1229               01.2975718988E+01-1.696435649E+01+
*       3.0000000000E+01               0
GRID*               1230               01.3185302534E+01-1.467847295E+01+
*       3.0000000000E+01               0
GRID*               1231               01.5852349852E+01-1.431276954E+01+
*       3.0000000000E+01               0
GRID*               1232               01.5048425463E+01-1.788322846E+01+
*       3.0000000000E+01               0
GRID*               1233               01.6881574839E+01-1.614068589E+01+
*       3.0000000000E+01               0
GRID*               1234               0-1.695697522E+014.9792312547E+00+
*       3.9956348574E+01               0
GRID*               1235               0-1.696032426E+014.9796811835E+00+
*       3.4956501581E+01               0
GRID*               1236               0-1.486955061E+019.5558532630E+00+
*       3.9956354911E+01               0
GRID*               1237               0-1.487148347E+019.5571149755E+00+
*       3.4956541992E+01               0
GRID*               1238               0-1.157261636E+011.3354110400E+01+
*       3.9956391949E+01               0
GRID*               1239               0-1.157656788E+011.3359733021E+01+
*       3.4956535515E+01               0
GRID*               1240               0-7.343634163E+001.6080125788E+01+
*       3.9956416737E+01               0
GRID*               1241               0-7.343642260E+001.6080126158E+01+
*       3.4956541759E+01               0
GRID*               1242               0-2.515668713E+001.7497749289E+01+
*       3.9956387783E+01               0
GRID*               1243               0-2.515727209E+001.7497742556E+01+
*       3.4956528490E+01               0
GRID*               1244               02.5153748089E+001.7494363387E+01+
*       3.9956350268E+01               0
GRID*               1245               02.5154614739E+001.7496139897E+01+
*       3.4956499446E+01               0
GRID*               1246               07.3416944771E+001.6076334172E+01+
*       3.9956346291E+01               0
GRID*               1247               07.3415885518E+001.6078025953E+01+
*       3.4956517434E+01               0
GRID*               1248               01.1573906336E+011.3358258826E+01+
*       3.9956373935E+01               0
GRID*               1249               01.1576143776E+011.3360105203E+01+
*       3.4956535139E+01               0
GRID*               1250               01.4868038809E+019.5561533717E+00+
*       3.9956415383E+01               0
GRID*               1251               01.4871239111E+019.5574957541E+00+
*       3.4956539150E+01               0
GRID*               1252               01.6960836668E+014.9804321196E+00+
*       3.9956420131E+01               0
GRID*               1253               01.6961320052E+014.9804318609E+00+
*       3.4956547152E+01               0
GRID*               1254               01.7677669525E+01-6.320167248E-06+
*       3.9956352790E+01               0
GRID*               1255               01.7677669525E+01-3.146284047E-06+
*       3.4956505830E+01               0
GRID*               1256               01.6957103182E+01-4.978814100E+00+
*       3.9956348564E+01               0
GRID*               1257               01.6960386069E+01-4.979472838E+00+
*       3.4956501579E+01               0
GRID*               1258               01.4869785125E+01-9.555485592E+00+
*       3.9956354900E+01               0
GRID*               1259               01.4871604413E+01-9.556937168E+00+
*       3.4956541964E+01               0
GRID*               1260               01.1572944302E+01-1.335382115E+01+
*       3.9956391975E+01               0
GRID*               1261               01.1576733161E+01-1.335959453E+01+
*       3.4956535489E+01               0
GRID*               1262               07.3440335767E+00-1.607995402E+01+
*       3.9956416665E+01               0
GRID*               1263               07.3438403406E+00-1.608003906E+01+
*       3.4956541725E+01               0
GRID*               1264               02.5161006782E+00-1.749769087E+01+
*       3.9956387757E+01               0
GRID*               1265               02.5159422409E+00-1.749771338E+01+
*       3.4956528477E+01               0
GRID*               1266               0-2.514862168E+00-1.749387907E+01+
*       3.9956350132E+01               0
GRID*               1267               0-2.515108571E+00-1.749530965E+01+
*       3.4956499223E+01               0
GRID*               1268               0-7.340171397E+00-1.607396375E+01+
*       3.9956345844E+01               0
GRID*               1269               0-7.343182420E+00-1.608032190E+01+
*       3.4956518185E+01               0
GRID*               1270               0-1.157631528E+01-1.336112568E+01+
*       3.9956377305E+01               0
GRID*               1271               0-1.157598374E+01-1.336024923E+01+
*       3.4956535110E+01               0
GRID*               1272               0-1.487102786E+01-9.557840329E+00+
*       3.9956414824E+01               0
GRID*               1273               0-1.487112514E+01-9.557679225E+00+
*       3.4956539108E+01               0
GRID*               1274               0-1.696140906E+01-4.981013004E+00+
*       3.9956403747E+01               0
GRID*               1275               0-1.696150176E+01-4.980692345E+00+
*       3.4956539327E+01               0
GRID*               1276               0-1.607513511E+017.3413344895E+00+
*       3.9956217062E+01               0
GRID*               1277               0-1.486843495E+019.5544555414E+00+
*       3.7456447720E+01               0
GRID*               1278               0-1.607159514E+017.3389349901E+00+
*       3.7456288842E+01               0
GRID*               1279               0-1.607836932E+017.3422312251E+00+
*       3.4956394376E+01               0
GRID*               1280               0-1.695847316E+014.9794641053E+00+
*       3.7456420647E+01               0
GRID*               1281               0-1.336042257E+011.1577216241E+01+
*       3.9956220359E+01               0
GRID*               1282               0-1.157653836E+011.3359753440E+01+
*       3.7456481822E+01               0
GRID*               1283               0-1.336006691E+011.1576234809E+01+
*       3.7456347590E+01               0
GRID*               1284               0-1.336003598E+011.1576220474E+01+
*       3.4956402005E+01               0
GRID*               1285               0-9.557256338E+001.4871396615E+01+
*       3.9956294216E+01               0
GRID*               1286               0-7.343683741E+001.6080104083E+01+
*       3.7456471812E+01               0
GRID*               1287               0-9.557651359E+001.4871133530E+01+
*       3.7456339192E+01               0
GRID*               1288               0-9.557401082E+001.4871298005E+01+
*       3.4956406615E+01               0
GRID*               1289               0-4.980385249E+001.6961583520E+01+
*       3.9956267731E+01               0
GRID*               1290               0-2.515698953E+001.7497745733E+01+
*       3.7456457987E+01               0
GRID*               1291               0-4.980642599E+001.6961509711E+01+
*       3.7456337892E+01               0
GRID*               1292               0-4.980380084E+001.6961589458E+01+
*       3.4956405908E+01               0
GRID*               1293               02.1814678818E-041.7677668120E+01+
*       3.9956241338E+01               0
GRID*               1294               02.5154105536E+001.7495182708E+01+
*       3.7456424894E+01               0
GRID*               1295               0-8.887885013E-051.7677668578E+01+
*       3.7456315865E+01               0
GRID*               1296               01.0859588316E-041.7677669038E+01+
*       3.4956384560E+01               0
GRID*               1297               04.9804484536E+001.6961577841E+01+
*       3.9956216954E+01               0
GRID*               1298               07.3421904144E+001.6078318059E+01+
*       3.7456427267E+01               0
GRID*               1299               04.9801299365E+001.6961669899E+01+
*       3.7456290116E+01               0
GRID*               1300               04.9803051025E+001.6961616857E+01+
*       3.4956368201E+01               0
GRID*               1301               09.5580933264E+001.4872388297E+01+
*       3.9956223726E+01               0
GRID*               1302               01.1572148188E+011.3356765552E+01+
*       3.7456465314E+01               0
GRID*               1303               09.5575517727E+001.4872279327E+01+
*       3.7456300673E+01               0
GRID*               1304               09.5570158373E+001.4871550454E+01+
*       3.4956409039E+01               0
GRID*               1305               01.3359858892E+011.1576568236E+01+
*       3.9956254713E+01               0
GRID*               1306               01.4871184481E+019.5575784426E+00+
*       3.7456472589E+01               0
GRID*               1307               01.3359481434E+011.1576860723E+01+
*       3.7456348418E+01               0
GRID*               1308               01.3359661150E+011.1576654263E+01+
*       3.4956403217E+01               0
GRID*               1309               01.6080032443E+017.3438468767E+00+
*       3.9956285933E+01               0
GRID*               1310               01.6961074328E+014.9804446745E+00+
*       3.7456481722E+01               0
GRID*               1311               01.6079926037E+017.3440779873E+00+
*       3.7456338449E+01               0
GRID*               1312               01.6080079079E+017.3437478479E+00+
*       3.4956408442E+01               0
GRID*               1313               01.7497718300E+012.5158942319E+00+
*       3.9956259695E+01               0
GRID*               1314               01.7677669525E+01-4.733214706E-06+
*       3.7456429310E+01               0
GRID*               1315               01.7497686278E+012.5161199127E+00+
*       3.7456337744E+01               0
GRID*               1316               01.7497727148E+012.5158394840E+00+
*       3.4956399690E+01               0
GRID*               1317               01.7499965682E+01-2.516289660E+00+
*       3.9956219304E+01               0
GRID*               1318               01.6958567379E+01-4.979151317E+00+
*       3.7456420660E+01               0
GRID*               1319               01.7499912632E+01-2.516002564E+00+
*       3.7456291285E+01               0
GRID*               1320               01.7498460813E+01-2.515964037E+00+
*       3.4956368755E+01               0
GRID*               1321               01.6079059351E+01-7.343040244E+00+
*       3.9956219885E+01               0
GRID*               1322               01.4868609532E+01-9.554178306E+00+
*       3.7456447733E+01               0
GRID*               1323               01.6080030892E+01-7.343092681E+00+
*       3.7456291854E+01               0
GRID*               1324               01.6080279560E+01-7.343320864E+00+
*       3.4956393230E+01               0
GRID*               1325               01.3360701505E+01-1.157687844E+01+
*       3.9956220402E+01               0
GRID*               1326               01.1576789462E+01-1.335954788E+01+
*       3.7456481777E+01               0
GRID*               1327               01.3360286595E+01-1.157599473E+01+
*       3.7456347528E+01               0
GRID*               1328               01.3360180257E+01-1.157606068E+01+
*       3.4956401968E+01               0
GRID*               1329               09.5576287717E+00-1.487117197E+01+
*       3.9956294140E+01               0
GRID*               1330               07.3439821236E+00-1.607997397E+01+
*       3.7456471761E+01               0
GRID*               1331               09.5579283535E+00-1.487096353E+01+
*       3.7456339145E+01               0
GRID*               1332               09.5575845126E+00-1.487118391E+01+
*       3.4956406582E+01               0
GRID*               1333               04.9808049794E+00-1.696146821E+01+
*       3.9956267678E+01               0
GRID*               1334               02.5160224489E+00-1.749770192E+01+
*       3.7456457968E+01               0
GRID*               1335               04.9809567729E+00-1.696142278E+01+
*       3.7456337850E+01               0
GRID*               1336               04.9805888189E+00-1.696153130E+01+
*       3.4956405879E+01               0
GRID*               1337               02.1818904636E-04-1.767766812E+01+
*       3.9956241303E+01               0
GRID*               1338               0-2.514968461E+00-1.749445299E+01+
*       3.7456424688E+01               0
GRID*               1339               04.1565557000E-04-1.767766858E+01+
*       3.7456315839E+01               0
GRID*               1340               01.0862396548E-04-1.767766904E+01+
*       3.4956384537E+01               0
GRID*               1341               0-4.980588993E+00-1.696290380E+01+
*       3.9956216715E+01               0
GRID*               1342               0-7.341878066E+00-1.607801375E+01+
*       3.7456428126E+01               0
GRID*               1343               0-4.980020613E+00-1.696188917E+01+
*       3.7456289741E+01               0
GRID*               1344               0-4.980139032E+00-1.696164415E+01+
*       3.4956368161E+01               0
GRID*               1345               0-9.557718975E+00-1.487261597E+01+
*       3.9956223764E+01               0
GRID*               1346               0-1.157598428E+01-1.336024919E+01+
*       3.7456464808E+01               0
GRID*               1347               0-9.557273596E+00-1.487245270E+01+
*       3.7456300639E+01               0
GRID*               1348               0-9.556838059E+00-1.487167138E+01+
*       3.4956409010E+01               0
GRID*               1349               0-1.335957366E+01-1.157689862E+01+
*       3.9956254641E+01               0
GRID*               1350               0-1.487101472E+01-9.557855530E+00+
*       3.7456472525E+01               0
GRID*               1351               0-1.335927591E+01-1.157711178E+01+
*       3.7456348372E+01               0
GRID*               1352               0-1.335952267E+01-1.157681954E+01+
*       3.4956403195E+01               0
GRID*               1353               0-1.607986178E+01-7.344246636E+00+
*       3.9956281873E+01               0
GRID*               1354               0-1.696145105E+01-4.980864952E+00+
*       3.7456469619E+01               0
GRID*               1355               0-1.607979668E+01-7.344376569E+00+
*       3.7456338668E+01               0
GRID*               1356               0-1.607999238E+01-7.343946031E+00+
*       3.4956408689E+01               0
GRID*               1357               0-1.695591177E+014.9791132545E+00+
*       4.2478176436E+01               0
GRID*               1358               0-1.749848911E+012.5162451379E+00+
*       4.2478041711E+01               0
GRID*               1359               0-1.749851818E+012.5163662455E+00+
*       3.9956218270E+01               0
GRID*               1360               0-1.486782767E+019.5553566708E+00+
*       4.2478175367E+01               0
GRID*               1361               0-1.607815438E+017.3427774937E+00+
*       4.2478041596E+01               0
GRID*               1362               0-1.157656156E+011.3359515073E+01+
*       4.2478195681E+01               0
GRID*               1363               0-1.336034101E+011.1577005443E+01+
*       4.2478049754E+01               0
GRID*               1364               0-7.341242764E+001.6073667707E+01+
*       4.2478228217E+01               0
GRID*               1365               0-9.557279289E+001.4871306734E+01+
*       4.2478056506E+01               0
GRID*               1366               0-2.515622797E+001.7497755719E+01+
*       4.2478220066E+01               0
GRID*               1367               0-4.980515930E+001.6961594043E+01+
*       4.2478114826E+01               0
GRID*               1368               02.5153553463E+001.7493672086E+01+
*       4.2478175794E+01               0
GRID*               1369               01.8941909839E-051.7677667760E+01+
*       4.2478072836E+01               0
GRID*               1370               07.3412982128E+001.6074984286E+01+
*       4.2478176894E+01               0
GRID*               1371               04.9802835659E+001.6961626825E+01+
*       4.2478040751E+01               0
GRID*               1372               01.1575453137E+011.3359167454E+01+
*       4.2478182006E+01               0
GRID*               1373               09.5575693570E+001.4872009809E+01+
*       4.2478047736E+01               0
GRID*               1374               01.4868735580E+019.5565977462E+00+
*       4.2478212263E+01               0
GRID*               1375               01.3360014165E+011.1576807650E+01+
*       4.2478048992E+01               0
GRID*               1376               01.6963526408E+014.9816940083E+00+
*       4.2478260496E+01               0
GRID*               1377               01.6080151561E+017.3439979593E+00+
*       4.2478093542E+01               0
GRID*               1378               01.7677669525E+01-7.921044176E-06+
*       4.2478176395E+01               0
GRID*               1379               01.7497680480E+012.5161597171E+00+
*       4.2478100612E+01               0
GRID*               1380               01.6956072544E+01-4.978590438E+00+
*       4.2478176413E+01               0
GRID*               1381               01.7499553278E+01-2.515978378E+00+
*       4.2478042753E+01               0
GRID*               1382               01.4868119870E+01-9.554894268E+00+
*       4.2478175387E+01               0
GRID*               1383               01.6079060490E+01-7.342759322E+00+
*       4.2478043366E+01               0
GRID*               1384               01.1576975460E+01-1.335915767E+01+
*       4.2478195691E+01               0
GRID*               1385               01.3360693073E+01-1.157658519E+01+
*       4.2478049753E+01               0
GRID*               1386               07.3450460857E+00-1.608154697E+01+
*       4.2478231757E+01               0
GRID*               1387               09.5577369665E+00-1.487100604E+01+
*       4.2478056429E+01               0
GRID*               1388               02.5161642397E+00-1.749768282E+01+
*       4.2478220034E+01               0
GRID*               1389               04.9810429610E+00-1.696145134E+01+
*       4.2478114755E+01               0
GRID*               1390               0-2.514753987E+00-1.749334207E+01+
*       4.2478175727E+01               0
GRID*               1391               05.2790995084E-04-1.767766776E+01+
*       4.2478072799E+01               0
GRID*               1392               0-7.339791411E+00-1.607291740E+01+
*       4.2478176701E+01               0
GRID*               1393               0-4.980658995E+00-1.696417586E+01+
*       4.2478040839E+01               0
GRID*               1394               0-1.157495265E+01-1.335935822E+01+
*       4.2478183112E+01               0
GRID*               1395               0-9.557104917E+00-1.487230075E+01+
*       4.2478047770E+01               0
GRID*               1396               0-1.487407143E+01-9.560492790E+00+
*       4.2478216511E+01               0
GRID*               1397               0-1.335964755E+01-1.157721505E+01+
*       4.2478049025E+01               0
GRID*               1398               0-1.696140377E+01-4.981041699E+00+
*       4.2478243606E+01               0
GRID*               1399               0-1.607979388E+01-7.344403028E+00+
*       4.2478089408E+01               0
GRID*               1400               0-1.749760699E+01-2.516717080E+00+
*       4.2478138191E+01               0
GRID*               1401               0-1.749765941E+01-2.516338914E+00+
*       3.9956301610E+01               0
GRID*               1402               0-1.749764201E+01-2.516452900E+00+
*       3.7456379647E+01               0
GRID*               1403               0-1.749769754E+01-2.516060816E+00+
*       3.4956445891E+01               0
GRID*               1404               0-1.749768031E+01-2.516174405E+00+
*       3.2478194394E+01               0
GRID*               1405               0-1.696155131E+01-4.980523650E+00+
*       3.2478279291E+01               0
GRID*               1406               0-1.607997981E+01-7.343973693E+00+
*       3.2478152964E+01               0
GRID*               1407               0-1.487126972E+01-9.557453934E+00+
*       3.2478285402E+01               0
GRID*               1408               0-1.335954752E+01-1.157678847E+01+
*       3.2478150659E+01               0
GRID*               1409               0-1.157618865E+01-1.336006816E+01+
*       3.2478280501E+01               0
GRID*               1410               0-9.556790028E+00-1.487169895E+01+
*       3.2478140740E+01               0
GRID*               1411               0-7.343282200E+00-1.608029868E+01+
*       3.2478270987E+01               0
GRID*               1412               0-4.979862195E+00-1.696174737E+01+
*       3.2478136268E+01               0
GRID*               1413               0-2.515475530E+00-1.749732302E+01+
*       3.2478249406E+01               0
GRID*               1414               03.0437915604E-04-1.767766938E+01+
*       3.2478129656E+01               0
GRID*               1415               02.5158653164E+00-1.749772428E+01+
*       3.2478269215E+01               0
GRID*               1416               04.9807172596E+00-1.696149407E+01+
*       3.2478150114E+01               0
GRID*               1417               07.3436877154E+00-1.608010983E+01+
*       3.2478284314E+01               0
GRID*               1418               09.5576207448E+00-1.487116183E+01+
*       3.2478152859E+01               0
GRID*               1419               01.1576556166E+01-1.335974799E+01+
*       3.2478283790E+01               0
GRID*               1420               01.3360198176E+01-1.157603802E+01+
*       3.2478146273E+01               0
GRID*               1421               01.4871528725E+01-9.557054093E+00+
*       3.2478275666E+01               0
GRID*               1422               01.6080382489E+01-7.343097463E+00+
*       3.2478135994E+01               0
GRID*               1423               01.6961658355E+01-4.980161275E+00+
*       3.2478270822E+01               0
GRID*               1424               01.7497790659E+01-2.515459311E+00+
*       3.2478114229E+01               0
GRID*               1425               01.7677669525E+01-1.573131273E-06+
*       3.2478252915E+01               0
GRID*               1426               01.7497695326E+012.5160637849E+00+
*       3.2478148205E+01               0
GRID*               1427               01.6961511430E+014.9804075309E+00+
*       3.2478282874E+01               0
GRID*               1428               01.6080023625E+017.3438748149E+00+
*       3.2478148480E+01               0
GRID*               1429               01.4871327208E+019.5573624802E+00+
*       3.2478285425E+01               0
GRID*               1430               01.3359617374E+011.1576706339E+01+
*       3.2478150668E+01               0
GRID*               1431               01.1576269442E+011.3359996965E+01+
*       3.2478280516E+01               0
GRID*               1432               09.5568799476E+001.4871640006E+01+
*       3.2478140753E+01               0
GRID*               1433               07.3433793397E+001.6080252982E+01+
*       3.2478270998E+01               0
GRID*               1434               04.9799645242E+001.6961715437E+01+
*       3.2478136267E+01               0
GRID*               1435               02.5154968888E+001.7497333329E+01+
*       3.2478249259E+01               0
GRID*               1436               0-1.957681247E-041.7677669384E+01+
*       3.2478129669E+01               0
GRID*               1437               0-2.515757814E+001.7497738979E+01+
*       3.2478269222E+01               0
GRID*               1438               0-4.980612968E+001.6961523504E+01+
*       3.2478150134E+01               0
GRID*               1439               0-7.343588830E+001.6080153777E+01+
*       3.2478284333E+01               0
GRID*               1440               0-9.557529297E+001.4871219367E+01+
*       3.2478152875E+01               0
GRID*               1441               0-1.157647401E+011.3359817861E+01+
*       3.2478283802E+01               0
GRID*               1442               0-1.336012689E+011.1576118762E+01+
*       3.2478146294E+01               0
GRID*               1443               0-1.487146977E+019.5571440270E+00+
*       3.2478275676E+01               0
GRID*               1444               0-1.608033680E+017.3431946720E+00+
*       3.2478136012E+01               0
GRID*               1445               0-1.696162651E+014.9802637476E+00+
*       3.2478270832E+01               0
GRID*               1446               0-1.749748550E+012.5158349415E+00+
*       3.4956368094E+01               0
GRID*               1447               0-1.749615438E+012.5149942492E+00+
*       3.2478113798E+01               0
GRID*               1448               0-1.749843331E+012.5159513782E+00+
*       3.7456290405E+01               0
GRID*               1449               0-2.448701626E+015.0326350265E+00+
*       2.4999990692E+01               0
GRID*               1450               0-2.448071261E+015.0313457515E+00+
*       2.0000005729E+01               0
GRID*               1451               0-2.448143301E+015.0313156480E+00+
*       1.5000001128E+01               0
GRID*               1452               0-2.297381200E+019.8591863147E+00+
*       2.4999981869E+01               0
GRID*               1453               0-2.297383329E+019.8591419433E+00+
*       1.9999986114E+01               0
GRID*               1454               0-2.297141544E+019.8578125619E+00+
*       1.4999994113E+01               0
GRID*               1455               0-2.051895185E+011.4281880121E+01+
*       2.4999973601E+01               0
GRID*               1456               0-2.051887116E+011.4281995141E+01+
*       1.9999957947E+01               0
GRID*               1457               0-2.051727400E+011.4280825508E+01+
*       1.4999985607E+01               0
GRID*               1458               0-1.722410924E+011.8119871674E+01+
*       2.4999972616E+01               0
GRID*               1459               0-1.722403065E+011.8119943613E+01+
*       1.9999963609E+01               0
GRID*               1460               0-1.722405058E+011.8119927361E+01+
*       1.4999936762E+01               0
GRID*               1461               0-1.322409731E+012.1216108682E+01+
*       2.4999993536E+01               0
GRID*               1462               0-1.322409287E+012.1216111224E+01+
*       1.9999989812E+01               0
GRID*               1463               0-1.322408832E+012.1216113825E+01+
*       1.4999986104E+01               0
GRID*               1464               0-8.681449866E+002.3441939275E+01+
*       2.5000001102E+01               0
GRID*               1465               0-8.680157915E+002.3438128013E+01+
*       2.0000005083E+01               0
GRID*               1466               0-8.680414896E+002.3438457020E+01+
*       1.5000001325E+01               0
GRID*               1467               0-3.785377621E+002.4711749890E+01+
*       2.4999982356E+01               0
GRID*               1468               0-3.785435862E+002.4711742159E+01+
*       1.9999997635E+01               0
GRID*               1469               0-3.785200611E+002.4708524752E+01+
*       1.4999995674E+01               0
GRID*               1470               01.2664701666E+002.4967890017E+01+
*       2.4999974984E+01               0
GRID*               1471               01.2665828762E+002.4967884415E+01+
*       1.9999954388E+01               0
GRID*               1472               01.2664196614E+002.4966483864E+01+
*       1.4999986388E+01               0
GRID*               1473               06.2664103655E+002.4201895002E+01+
*       2.4999971586E+01               0
GRID*               1474               06.2665305064E+002.4201861593E+01+
*       1.9999962820E+01               0
GRID*               1475               06.2665186039E+002.4201988590E+01+
*       1.4999930904E+01               0
GRID*               1476               01.1009860944E+012.2445108830E+01+
*       2.4999988010E+01               0
GRID*               1477               01.1009872669E+012.2445102511E+01+
*       1.9999981668E+01               0
GRID*               1478               01.1009883222E+012.2445096839E+01+
*       1.4999975145E+01               0
GRID*               1479               01.5301258751E+011.9766907649E+01+
*       2.5000007342E+01               0
GRID*               1480               01.5299957233E+011.9765464769E+01+
*       2.0000004307E+01               0
GRID*               1481               01.5299944059E+011.9765588735E+01+
*       1.5000001376E+01               0
GRID*               1482               01.8969151915E+011.6284071597E+01+
*       2.4999982081E+01               0
GRID*               1483               01.8969101556E+011.6284132326E+01+
*       2.0000006624E+01               0
GRID*               1484               01.8966248098E+011.6281971722E+01+
*       1.4999997068E+01               0
GRID*               1485               02.1858783338E+011.2132314955E+01+
*       2.4999976484E+01               0
GRID*               1486               02.1858817030E+011.2132254097E+01+
*       1.9999949006E+01               0
GRID*               1487               02.1858150871E+011.2132017969E+01+
*       1.4999987591E+01               0
GRID*               1488               02.3853510454E+017.4839576684E+00+
*       2.4999971123E+01               0
GRID*               1489               02.3853549877E+017.4838236096E+00+
*       1.9999962389E+01               0
GRID*               1490               02.3853880131E+017.4839220168E+00+
*       1.4999941738E+01               0
GRID*               1491               02.4871733394E+012.5291915039E+00+
*       2.4999983380E+01               0
GRID*               1492               02.4871734576E+012.5291653385E+00+
*       1.9999975354E+01               0
GRID*               1493               02.4871735356E+012.5291463288E+00+
*       1.4999966361E+01               0
GRID*               1494               02.4869159113E+01-2.529248746E+00+
*       2.5000005514E+01               0
GRID*               1495               02.4868330624E+01-2.529072270E+00+
*       2.0000003393E+01               0
GRID*               1496               02.4868197501E+01-2.529007897E+00+
*       1.5000001259E+01               0
GRID*               1497               02.3853387776E+01-7.484359758E+00+
*       2.4999980729E+01               0
GRID*               1498               02.3853304912E+01-7.484206763E+00+
*       2.0000005526E+01               0
GRID*               1499               02.3849827657E+01-7.482964880E+00+
*       1.4999998274E+01               0
GRID*               1500               02.1858519513E+01-1.213279167E+01+
*       2.4999978045E+01               0
GRID*               1501               02.1858518578E+01-1.213279337E+01+
*       1.9999948445E+01               0
GRID*               1502               02.1857665779E+01-1.213201320E+01+
*       1.4999989037E+01               0
GRID*               1503               01.8968849082E+01-1.628441891E+01+
*       2.4999971173E+01               0
GRID*               1504               01.8968747687E+01-1.628453337E+01+
*       1.9999962012E+01               0
GRID*               1505               01.8968362482E+01-1.628423708E+01+
*       1.4999954355E+01               0
GRID*               1506               01.5302624049E+01-1.976941024E+01+
*       2.4999979570E+01               0
GRID*               1507               01.5302587216E+01-1.976943676E+01+
*       1.9999970630E+01               0
GRID*               1508               01.5302566862E+01-1.976945158E+01+
*       1.4999958963E+01               0
GRID*               1509               01.1009256096E+01-2.244426358E+01+
*       2.5000003540E+01               0
GRID*               1510               01.1008826043E+01-2.244333616E+01+
*       2.0000002251E+01               0
GRID*               1511               01.1008580108E+01-2.244279778E+01+
*       1.5000000948E+01               0
GRID*               1512               06.2660553979E+00-2.420198864E+01+
*       2.4999977802E+01               0
GRID*               1513               06.2632487630E+00-2.419244257E+01+
*       2.0000006694E+01               0
GRID*               1514               06.2637596609E+00-2.419325230E+01+
*       1.5000000916E+01               0
GRID*               1515               01.2659309831E+00-2.496791801E+01+
*       2.4999979558E+01               0
GRID*               1516               01.2659674088E+00-2.496791646E+01+
*       1.9999959383E+01               0
GRID*               1517               01.2660820930E+00-2.496815954E+01+
*       1.4999990644E+01               0
GRID*               1518               0-3.785862629E+00-2.471167203E+01+
*       2.4999971666E+01               0
GRID*               1519               0-3.786017384E+00-2.471164601E+01+
*       1.9999961380E+01               0
GRID*               1520               0-3.785813702E+00-2.471015890E+01+
*       1.4999966636E+01               0
GRID*               1521               0-8.682671746E+00-2.344378444E+01+
*       2.4999976543E+01               0
GRID*               1522               0-8.682731160E+00-2.344376000E+01+
*       1.9999967252E+01               0
GRID*               1523               0-8.682750492E+00-2.344375217E+01+
*       1.4999952107E+01               0
GRID*               1524               0-1.322382467E+01-2.121550486E+01+
*       2.5000001813E+01               0
GRID*               1525               0-1.322349104E+01-2.121497518E+01+
*       2.0000001149E+01               0
GRID*               1526               0-1.322331875E+01-2.121471389E+01+
*       1.5000000504E+01               0
GRID*               1527               0-1.722421813E+01-1.811938892E+01+
*       2.4999981032E+01               0
GRID*               1528               0-1.721840048E+01-1.811302866E+01+
*       2.0000006190E+01               0
GRID*               1529               0-1.721888233E+01-1.811387562E+01+
*       1.5000000706E+01               0
GRID*               1530               0-2.051925590E+01-1.428144641E+01+
*       2.4999980868E+01               0
GRID*               1531               0-2.051923014E+01-1.428148625E+01+
*       1.9999972873E+01               0
GRID*               1532               0-2.051725249E+01-1.428043657E+01+
*       1.4999992468E+01               0
GRID*               1533               0-2.297401253E+01-9.858713358E+00+
*       2.4999972479E+01               0
GRID*               1534               0-2.297407205E+01-9.858572965E+00+
*       1.9999960143E+01               0
GRID*               1535               0-2.297214596E+01-9.857746419E+00+
*       1.4999977867E+01               0
GRID*               1536               0-2.448825584E+01-5.032402436E+00+
*       2.4999974261E+01               0
GRID*               1537               0-2.448827133E+01-5.032319831E+00+
*       1.9999965011E+01               0
GRID*               1538               0-2.448827338E+01-5.032315763E+00+
*       1.4999945010E+01               0
GRID*               1539               0-2.385338806E+017.4843588391E+00+
*       2.5000050675E+01               0
GRID*               1540               0-2.297380464E+019.8592003090E+00+
*       2.2499963765E+01               0
GRID*               1541               0-2.385336198E+017.4844426610E+00+
*       2.2500055886E+01               0
GRID*               1542               0-2.385330550E+017.4842049798E+00+
*       2.0000075417E+01               0
GRID*               1543               0-2.448208680E+015.0317656261E+00+
*       2.2500008166E+01               0
GRID*               1544               0-2.297354039E+019.8588630892E+00+
*       1.7499998853E+01               0
GRID*               1545               0-2.385179141E+017.4837617359E+00+
*       1.7500068986E+01               0
GRID*               1546               0-2.384982856E+017.4829622314E+00+
*       1.5000068112E+01               0
GRID*               1547               0-2.448097623E+015.0312963244E+00+
*       1.7500003448E+01               0
GRID*               1548               0-2.185851956E+011.2132791586E+01+
*       2.5000050421E+01               0
GRID*               1549               0-2.051888723E+011.4281971864E+01+
*       2.2499971437E+01               0
GRID*               1550               0-2.185840618E+011.2132995965E+01+
*       2.2500043383E+01               0
GRID*               1551               0-2.185851867E+011.2132793211E+01+
*       2.0000021269E+01               0
GRID*               1552               0-2.051889825E+011.4281927382E+01+
*       1.7499946174E+01               0
GRID*               1553               0-2.185848066E+011.2132871202E+01+
*       1.7500057847E+01               0
GRID*               1554               0-2.185766596E+011.2132013035E+01+
*       1.5000062323E+01               0
GRID*               1555               0-1.896884858E+011.6284419492E+01+
*       2.5000043950E+01               0
GRID*               1556               0-1.722406776E+011.8119909601E+01+
*       2.2499968508E+01               0
GRID*               1557               0-1.896869879E+011.6284591737E+01+
*       2.2500042127E+01               0
GRID*               1558               0-1.896874668E+011.6284534543E+01+
*       2.0000035952E+01               0
GRID*               1559               0-1.722401311E+011.8119960107E+01+
*       1.7499955166E+01               0
GRID*               1560               0-1.896867363E+011.6284620843E+01+
*       1.7500018582E+01               0
GRID*               1561               0-1.896836104E+011.6284238903E+01+
*       1.5000029461E+01               0
GRID*               1562               0-1.530262275E+011.9769411245E+01+
*       2.5000050740E+01               0
GRID*               1563               0-1.322409518E+012.1216109906E+01+
*       2.2499991660E+01               0
GRID*               1564               0-1.530249412E+011.9769509852E+01+
*       2.2500050620E+01               0
GRID*               1565               0-1.530258463E+011.9769438768E+01+
*       2.0000043871E+01               0
GRID*               1566               0-1.322409052E+012.1216112566E+01+
*       1.7499987970E+01               0
GRID*               1567               0-1.530245846E+011.9769535592E+01+
*       1.7500043340E+01               0
GRID*               1568               0-1.530256298E+011.9769454587E+01+
*       1.5000034274E+01               0
GRID*               1569               0-1.100925760E+012.2444262849E+01+
*       2.5000066860E+01               0
GRID*               1570               0-8.680276475E+002.3438725086E+01+
*       2.2500006988E+01               0
GRID*               1571               0-1.100889813E+012.2443817502E+01+
*       2.2500064806E+01               0
GRID*               1572               0-1.100882903E+012.2443334660E+01+
*       2.0000062896E+01               0
GRID*               1573               0-8.680293575E+002.3438280804E+01+
*       1.7500003225E+01               0
GRID*               1574               0-1.100855559E+012.2443073727E+01+
*       1.7500060859E+01               0
GRID*               1575               0-1.100858457E+012.2442795479E+01+
*       1.5000058919E+01               0
GRID*               1576               0-6.266056437E+002.4201988366E+01+
*       2.5000047136E+01               0
GRID*               1577               0-3.785420153E+002.4711741492E+01+
*       2.2499965022E+01               0
GRID*               1578               0-6.264348004E+002.4197619826E+01+
*       2.2500065801E+01               0
GRID*               1579               0-6.263250837E+002.4192442080E+01+
*       2.0000075921E+01               0
GRID*               1580               0-3.785475673E+002.4710917600E+01+
*       1.7499999414E+01               0
GRID*               1581               0-6.263220944E+002.4192203714E+01+
*       1.7500071209E+01               0
GRID*               1582               0-6.263762734E+002.4193251404E+01+
*       1.5000070037E+01               0
GRID*               1583               0-1.265931199E+002.4967917996E+01+
*       2.5000051660E+01               0
GRID*               1584               01.2665821988E+002.4967884112E+01+
*       2.2499972210E+01               0
GRID*               1585               0-1.265715788E+002.4967928400E+01+
*       2.2500041596E+01               0
GRID*               1586               0-1.265967834E+002.4967916438E+01+
*       2.0000031831E+01               0
GRID*               1587               01.2665185179E+002.4967652721E+01+
*       1.7499960020E+01               0
GRID*               1588               0-1.265874131E+002.4967925336E+01+
*       1.7500067471E+01               0
GRID*               1589               0-1.266082731E+002.4968159493E+01+
*       1.5000063468E+01               0
GRID*               1590               03.7858632685E+002.4711671930E+01+
*       2.5000044507E+01               0
GRID*               1591               06.2664758968E+002.4201876741E+01+
*       2.2499967969E+01               0
GRID*               1592               03.7860972621E+002.4711634597E+01+
*       2.2500042624E+01               0
GRID*               1593               03.7860186644E+002.4711645811E+01+
*       2.0000035247E+01               0
GRID*               1594               06.2665457784E+002.4201857738E+01+
*       1.7499952150E+01               0
GRID*               1595               03.7860943702E+002.4711635343E+01+
*       1.7500011706E+01               0
GRID*               1596               03.7858156340E+002.4710158717E+01+
*       1.5000041541E+01               0
GRID*               1597               08.6826731581E+002.3443783917E+01+
*       2.5000048124E+01               0
GRID*               1598               01.1009866544E+012.2445105818E+01+
*       2.2499984798E+01               0
GRID*               1599               08.6828334949E+002.3443723335E+01+
*       2.2500047147E+01               0
GRID*               1600               08.6827339816E+002.3443758959E+01+
*       2.0000040742E+01               0
GRID*               1601               01.1009878639E+012.2445099289E+01+
*       1.7499978514E+01               0
GRID*               1602               08.6828863799E+002.3443701617E+01+
*       1.7500038607E+01               0
GRID*               1603               08.6827547238E+002.3443750604E+01+
*       1.5000027505E+01               0
GRID*               1604               01.3223823761E+012.1215505435E+01+
*       2.5000063182E+01               0
GRID*               1605               01.5300162416E+011.9765621018E+01+
*       2.2500005753E+01               0
GRID*               1606               01.3223762141E+012.1215144874E+01+
*       2.2500061579E+01               0
GRID*               1607               01.3223489196E+012.1214976301E+01+
*       2.0000057862E+01               0
GRID*               1608               01.5299959257E+011.9765551045E+01+
*       1.7500002859E+01               0
GRID*               1609               01.3223496671E+012.1214730019E+01+
*       1.7500056268E+01               0
GRID*               1610               01.3223315963E+012.1214715546E+01+
*       1.5000052560E+01               0
GRID*               1611               01.7224217319E+011.8119389803E+01+
*       2.5000049724E+01               0
GRID*               1612               01.8969111282E+011.6284117479E+01+
*       2.2499975385E+01               0
GRID*               1613               01.7220709922E+011.8115003572E+01+
*       2.2500075004E+01               0
GRID*               1614               01.7218398737E+011.8113030298E+01+
*       2.0000074716E+01               0
GRID*               1615               01.8968035395E+011.6283424879E+01+
*       1.7500000154E+01               0
GRID*               1616               01.7218524953E+011.8113161860E+01+
*       1.7500070177E+01               0
GRID*               1617               01.7218879641E+011.8113878043E+01+
*       1.5000069064E+01               0
GRID*               1618               02.0519255706E+011.4281446679E+01+
*       2.5000052658E+01               0
GRID*               1619               02.1858835279E+011.2132220948E+01+
*       2.2499972543E+01               0
GRID*               1620               02.0519362833E+011.4281291560E+01+
*       2.2500038473E+01               0
GRID*               1621               02.0519229753E+011.4281486798E+01+
*       2.0000044925E+01               0
GRID*               1622               02.1858511698E+011.2132131397E+01+
*       1.7499973795E+01               0
GRID*               1623               02.0519193101E+011.4281409859E+01+
*       1.7500069226E+01               0
GRID*               1624               02.0517251965E+011.4280437476E+01+
*       1.5000064794E+01               0
GRID*               1625               02.2974012732E+019.8587128828E+00+
*       2.5000045354E+01               0
GRID*               1626               02.3853532842E+017.4838814260E+00+
*       2.2499968051E+01               0
GRID*               1627               02.2974108071E+019.8584889342E+00+
*       2.2500043269E+01               0
GRID*               1628               02.2974072456E+019.8585720112E+00+
*       2.0000033921E+01               0
GRID*               1629               02.3853550212E+017.4838237933E+00+
*       1.7499948582E+01               0
GRID*               1630               02.2974118297E+019.8585386492E+00+
*       1.7500008551E+01               0
GRID*               1631               02.2972146635E+019.8577450456E+00+
*       1.5000052554E+01               0
GRID*               1632               02.4488256117E+015.0324010976E+00+
*       2.5000046208E+01               0
GRID*               1633               02.4871733981E+012.5291788653E+00+
*       2.2499979307E+01               0
GRID*               1634               02.4488291947E+015.0322228506E+00+
*       2.2500044708E+01               0
GRID*               1635               02.4488271876E+015.0323171554E+00+
*       2.0000038705E+01               0
GRID*               1636               02.4871735100E+012.5291530671E+00+
*       1.7499971231E+01               0
GRID*               1637               02.4488304709E+015.0321565843E+00+
*       1.7500034785E+01               0
GRID*               1638               02.4488274205E+015.0323117484E+00+
*       1.5000020452E+01               0
GRID*               1639               02.5000000000E+01-1.063940225E-09+
*       2.5000059676E+01               0
GRID*               1640               02.4868473537E+01-2.529128657E+00+
*       2.2500004435E+01               0
GRID*               1641               02.5000000000E+01-1.404065719E-04+
*       2.2500058537E+01               0
GRID*               1642               02.5000000000E+01-3.379414616E-10+
*       2.0000053336E+01               0
GRID*               1643               02.4868289825E+01-2.529036994E+00+
*       1.7500002338E+01               0
GRID*               1644               02.5000000000E+01-1.404058517E-04+
*       1.7500052197E+01               0
GRID*               1645               02.5000000000E+013.8904741956E-10+
*       1.5000046996E+01               0
GRID*               1646               02.4487016662E+01-5.032633746E+00+
*       2.5000058702E+01               0
GRID*               1647               02.3853402493E+01-7.484313540E+00+
*       2.2499987734E+01               0
GRID*               1648               02.4482059368E+01-5.031898566E+00+
*       2.2500074429E+01               0
GRID*               1649               02.4480713112E+01-5.031343118E+00+
*       2.0000073514E+01               0
GRID*               1650               02.3851832381E+01-7.483633767E+00+
*       1.7500000909E+01               0
GRID*               1651               02.4480952061E+01-5.031428600E+00+
*       1.7500069484E+01               0
GRID*               1652               02.4481433728E+01-5.031311664E+00+
*       1.5000068686E+01               0
GRID*               1653               02.2973812188E+01-9.859185884E+00+
*       2.5000053306E+01               0
GRID*               1654               02.1858471992E+01-1.213287739E+01+
*       2.2499972205E+01               0
GRID*               1655               02.2973751277E+01-9.859324650E+00+
*       2.2500033564E+01               0
GRID*               1656               02.2973833670E+01-9.859141066E+00+
*       2.0000057733E+01               0
GRID*               1657               02.1858546428E+01-1.213275272E+01+
*       1.7499986195E+01               0
GRID*               1658               02.2973486531E+01-9.858986602E+00+
*       1.7500068833E+01               0
GRID*               1659               02.2971416098E+01-9.857811247E+00+
*       1.5000065910E+01               0
GRID*               1660               02.0518951641E+01-1.428188043E+01+
*       2.5000046440E+01               0
GRID*               1661               01.8968788470E+01-1.628448728E+01+
*       2.2499968605E+01               0
GRID*               1662               02.0518809246E+01-1.428208391E+01+
*       2.2500043875E+01               0
GRID*               1663               02.0518870727E+01-1.428199576E+01+
*       2.0000031581E+01               0
GRID*               1664               01.8968763770E+01-1.628451584E+01+
*       1.7499943905E+01               0
GRID*               1665               02.0518819774E+01-1.428203956E+01+
*       1.7500019421E+01               0
GRID*               1666               02.0517273382E+01-1.428082642E+01+
*       1.5000060023E+01               0
GRID*               1667               01.7224108354E+01-1.811987251E+01+
*       2.5000044868E+01               0
GRID*               1668               01.5302605936E+01-1.976942330E+01+
*       2.2499975051E+01               0
GRID*               1669               01.7223966743E+01-1.812000562E+01+
*       2.2500043109E+01               0
GRID*               1670               01.7224028882E+01-1.811994530E+01+
*       2.0000037461E+01               0
GRID*               1671               01.5302571584E+01-1.976944803E+01+
*       1.7499965699E+01               0
GRID*               1672               01.7223911217E+01-1.812005696E+01+
*       1.7500031366E+01               0
GRID*               1673               01.7224047923E+01-1.811992989E+01+
*       1.5000012216E+01               0
GRID*               1674               01.3224096391E+01-2.121610925E+01+
*       2.5000057371E+01               0
GRID*               1675               01.1009020949E+01-2.244375600E+01+
*       2.2500002881E+01               0
GRID*               1676               01.3223974729E+01-2.121618498E+01+
*       2.2500056798E+01               0
GRID*               1677               01.3224091032E+01-2.121611237E+01+
*       2.0000050548E+01               0
GRID*               1678               01.1008676407E+01-2.244301194E+01+
*       1.7500001609E+01               0
GRID*               1679               01.3223969141E+01-2.121618822E+01+
*       1.7500050010E+01               0
GRID*               1680               01.3224085567E+01-2.121611554E+01+
*       1.5000043741E+01               0
GRID*               1681               08.6814513204E+00-2.344193889E+01+
*       2.5000068395E+01               0
GRID*               1682               06.2644799982E+00-2.419758880E+01+
*       2.2499998265E+01               0
GRID*               1683               08.6801493828E+00-2.343877347E+01+
*       2.2500072595E+01               0
GRID*               1684               08.6801606945E+00-2.343812692E+01+
*       2.0000072078E+01               0
GRID*               1685               06.2633503536E+00-2.419216766E+01+
*       1.7500003799E+01               0
GRID*               1686               08.6801684752E+00-2.343833037E+01+
*       1.7500068533E+01               0
GRID*               1687               08.6804190687E+00-2.343845536E+01+
*       1.5000068021E+01               0
GRID*               1688               03.7853782534E+00-2.471174979E+01+
*       2.5000053362E+01               0
GRID*               1689               01.2658510939E+00-2.496792154E+01+
*       2.2499970887E+01               0
GRID*               1690               03.7852864854E+00-2.471176197E+01+
*       2.2500034331E+01               0
GRID*               1691               03.7854371244E+00-2.471174197E+01+
*       2.0000068737E+01               0
GRID*               1692               01.2660091698E+00-2.496791849E+01+
*       1.7499996380E+01               0
GRID*               1693               03.7853425225E+00-2.471093705E+01+
*       1.7500068791E+01               0
GRID*               1694               03.7852025239E+00-2.470852454E+01+
*       1.5000066858E+01               0
GRID*               1695               0-1.266470376E+00-2.496789001E+01+
*       2.5000047736E+01               0
GRID*               1696               0-3.785961584E+00-2.471165539E+01+
*       2.2499969476E+01               0
GRID*               1697               0-1.266718181E+00-2.496787721E+01+
*       2.2500044267E+01               0
GRID*               1698               0-1.266583305E+00-2.496788439E+01+
*       2.0000027825E+01               0
GRID*               1699               0-3.785958141E+00-2.471165621E+01+
*       1.7499937544E+01               0
GRID*               1700               0-1.266654708E+00-2.496764525E+01+
*       1.7500032772E+01               0
GRID*               1701               0-1.266420305E+00-2.496648382E+01+
*       1.5000060481E+01               0
GRID*               1702               0-6.266411395E+00-2.420189474E+01+
*       2.5000044070E+01               0
GRID*               1703               0-8.682701559E+00-2.344377220E+01+
*       2.2499971912E+01               0
GRID*               1704               0-6.266610211E+00-2.420184196E+01+
*       2.2500042223E+01               0
GRID*               1705               0-6.266532567E+00-2.420186106E+01+
*       2.0000036758E+01               0
GRID*               1706               0-8.682753027E+00-2.344375101E+01+
*       1.7499961463E+01               0
GRID*               1707               0-6.266681099E+00-2.420182270E+01+
*       1.7500027855E+01               0
GRID*               1708               0-6.266521674E+00-2.420198773E+01+
*       1.5000006294E+01               0
GRID*               1709               0-1.100986245E+01-2.244510809E+01+
*       2.5000055523E+01               0
GRID*               1710               0-1.322364380E+01-2.121521696E+01+
*       2.2500001479E+01               0
GRID*               1711               0-1.100999449E+01-2.244504305E+01+
*       2.2500055723E+01               0
GRID*               1712               0-1.100987567E+01-2.244510104E+01+
*       2.0000048933E+01               0
GRID*               1713               0-1.322337862E+01-2.121480053E+01+
*       1.7500000824E+01               0
GRID*               1714               0-1.101000810E+01-2.244503578E+01+
*       1.7500049192E+01               0
GRID*               1715               0-1.100988773E+01-2.244509463E+01+
*       1.5000042163E+01               0
GRID*               1716               0-1.530125751E+01-1.976690873E+01+
*       2.5000073815E+01               0
GRID*               1717               0-1.722061303E+01-1.811509855E+01+
*       2.2500008089E+01               0
GRID*               1718               0-1.530027140E+01-1.976553918E+01+
*       2.2500070616E+01               0
GRID*               1719               0-1.529995460E+01-1.976546672E+01+
*       2.0000070433E+01               0
GRID*               1720               0-1.721842564E+01-1.811325240E+01+
*       1.7500003446E+01               0
GRID*               1721               0-1.530006764E+01-1.976547104E+01+
*       1.7500067376E+01               0
GRID*               1722               0-1.529994010E+01-1.976559165E+01+
*       1.5000067157E+01               0
GRID*               1723               0-1.896915138E+01-1.628407221E+01+
*       2.5000052594E+01               0
GRID*               1724               0-2.051928549E+01-1.428140269E+01+
*       2.2499968219E+01               0
GRID*               1725               0-1.896919938E+01-1.628401486E+01+
*       2.2500044141E+01               0
GRID*               1726               0-1.896910052E+01-1.628413353E+01+
*       2.0000077153E+01               0
GRID*               1727               0-2.051911638E+01-1.428152085E+01+
*       1.7499998701E+01               0
GRID*               1728               0-1.896812226E+01-1.628332228E+01+
*       1.7500068900E+01               0
GRID*               1729               0-1.896624662E+01-1.628197356E+01+
*       1.5000067609E+01               0
GRID*               1730               0-2.185878336E+01-1.213231491E+01+
*       2.5000049081E+01               0
GRID*               1731               0-2.297405409E+01-9.858614723E+00+
*       2.2499970465E+01               0
GRID*               1732               0-2.185890120E+01-1.213210217E+01+
*       2.2500044178E+01               0
GRID*               1733               0-2.185881708E+01-1.213225401E+01+
*       2.0000022172E+01               0
GRID*               1734               0-2.297406400E+01-9.858664848E+00+
*       1.7499934833E+01               0
GRID*               1735               0-2.185857729E+01-1.213201235E+01+
*       1.7500046011E+01               0
GRID*               1736               0-2.185815095E+01-1.213201779E+01+
*       1.5000061309E+01               0
GRID*               1737               0-2.385351073E+01-7.483956797E+00+
*       2.5000043782E+01               0
GRID*               1738               0-2.448826376E+01-5.032360006E+00+
*       2.2499969791E+01               0
GRID*               1739               0-2.385357420E+01-7.483749586E+00+
*       2.2500041944E+01               0
GRID*               1740               0-2.385355042E+01-7.483821866E+00+
*       2.0000036355E+01               0
GRID*               1741               0-2.448827625E+01-5.032295077E+00+
*       1.7499958121E+01               0
GRID*               1742               0-2.385359184E+01-7.483691122E+00+
*       1.7500023778E+01               0
GRID*               1743               0-2.385388097E+01-7.483919403E+00+
*       1.5000017010E+01               0
GRID*               1744               0-2.448821076E+015.0326323778E+00+
*       2.7499989540E+01               0
GRID*               1745               0-2.487145397E+012.5295083768E+00+
*       2.7500060038E+01               0
GRID*               1746               0-2.486915932E+012.5292469669E+00+
*       2.5000071062E+01               0
GRID*               1747               0-2.297387633E+019.8590349761E+00+
*       2.7499979909E+01               0
GRID*               1748               0-2.385338334E+017.4843731219E+00+
*       2.7500053229E+01               0
GRID*               1749               0-2.051902527E+011.4281775899E+01+
*       2.7499973711E+01               0
GRID*               1750               0-2.185852993E+011.2132772532E+01+
*       2.7500046587E+01               0
GRID*               1751               0-1.722414566E+011.8119838258E+01+
*       2.7499977637E+01               0
GRID*               1752               0-1.896881839E+011.6284456607E+01+
*       2.7500046511E+01               0
GRID*               1753               0-1.322409915E+012.1216107609E+01+
*       2.7499995455E+01               0
GRID*               1754               0-1.530252853E+011.9769484882E+01+
*       2.7500058098E+01               0
GRID*               1755               0-8.682478041E+002.3443858494E+01+
*       2.7499990157E+01               0
GRID*               1756               0-1.100942207E+012.2444970427E+01+
*       2.7500068780E+01               0
GRID*               1757               0-3.785532958E+002.4711725309E+01+
*       2.7499981568E+01               0
GRID*               1758               0-6.266008523E+002.4202001901E+01+
*       2.7500054395E+01               0
GRID*               1759               01.2663317526E+002.4967897393E+01+
*       2.7499974187E+01               0
GRID*               1760               0-1.265958110E+002.4967916613E+01+
*       2.7500047411E+01               0
GRID*               1761               06.2663511904E+002.4201911393E+01+
*       2.7499976098E+01               0
GRID*               1762               03.7858977348E+002.4711667985E+01+
*       2.7500045840E+01               0
GRID*               1763               01.1009856387E+012.2445111254E+01+
*       2.7499991383E+01               0
GRID*               1764               08.6827771431E+002.3443746294E+01+
*       2.7500055189E+01               0
GRID*               1765               01.5302761268E+011.9769305211E+01+
*       2.7499989668E+01               0
GRID*               1766               01.3224142186E+012.1215747453E+01+
*       2.7500066930E+01               0
GRID*               1767               01.8969057988E+011.6284180020E+01+
*       2.7499983279E+01               0
GRID*               1768               01.7224397730E+011.8119601064E+01+
*       2.7500055384E+01               0
GRID*               1769               02.1858711577E+011.2132444799E+01+
*       2.7499974895E+01               0
GRID*               1770               02.0519238886E+011.4281470165E+01+
*       2.7500048383E+01               0
GRID*               1771               02.3853489491E+017.4840286143E+00+
*       2.7499974939E+01               0
GRID*               1772               02.2974022065E+019.8586930853E+00+
*       2.7500045459E+01               0
GRID*               1773               02.4871732856E+012.5292017205E+00+
*       2.7499987778E+01               0
GRID*               1774               02.4488276915E+015.0323029763E+00+
*       2.7500052731E+01               0
GRID*               1775               02.4871468686E+01-2.529370492E+00+
*       2.7499995620E+01               0
GRID*               1776               02.5000000000E+01-1.404072945E-04+
*       2.7500064877E+01               0
GRID*               1777               02.3853424142E+01-7.484243077E+00+
*       2.7499985033E+01               0
GRID*               1778               02.4488183130E+01-5.032766842E+00+
*       2.7500056033E+01               0
GRID*               1779               02.1858595807E+01-1.213265385E+01+
*       2.7499975853E+01               0
GRID*               1780               02.2973822751E+01-9.859159824E+00+
*       2.7500049532E+01               0
GRID*               1781               01.8968907563E+01-1.628435274E+01+
*       2.7499974153E+01               0
GRID*               1782               02.0518947493E+01-1.428188764E+01+
*       2.7500045355E+01               0
GRID*               1783               01.5302639043E+01-1.976939934E+01+
*       2.7499984602E+01               0
GRID*               1784               01.7224045546E+01-1.811993342E+01+
*       2.7500050634E+01               0
GRID*               1785               01.1009546577E+01-2.244490947E+01+
*       2.7500004168E+01               0
GRID*               1786               01.3223979621E+01-2.121618211E+01+
*       2.7500063692E+01               0
GRID*               1787               06.2661407417E+00-2.420196767E+01+
*       2.7499986750E+01               0
GRID*               1788               08.6823489630E+00-2.344390630E+01+
*       2.7500056063E+01               0
GRID*               1789               01.2660936737E+00-2.496790974E+01+
*       2.7499977037E+01               0
GRID*               1790               03.7853985748E+00-2.471174590E+01+
*       2.7500050755E+01               0
GRID*               1791               0-3.785762707E+00-2.471168867E+01+
*       2.7499973718E+01               0
GRID*               1792               0-1.266467528E+00-2.496789051E+01+
*       2.7500045561E+01               0
GRID*               1793               0-8.682646634E+00-2.344379463E+01+
*       2.7499981865E+01               0
GRID*               1794               0-6.266484455E+00-2.420187689E+01+
*       2.7500048897E+01               0
GRID*               1795               0-1.322402355E+01-2.121582110E+01+
*       2.7500002174E+01               0
GRID*               1796               0-1.100998282E+01-2.244504923E+01+
*       2.7500062554E+01               0
GRID*               1797               0-1.722429849E+01-1.811969539E+01+
*       2.7499988306E+01               0
GRID*               1798               0-1.530287043E+01-1.976922071E+01+
*       2.7500054878E+01               0
GRID*               1799               0-2.051916132E+01-1.428158161E+01+
*       2.7499978376E+01               0
GRID*               1800               0-1.896914663E+01-1.628407676E+01+
*       2.7500051995E+01               0
GRID*               1801               0-2.297396829E+01-9.858818392E+00+
*       2.7499973559E+01               0
GRID*               1802               0-2.185877749E+01-1.213232605E+01+
*       2.7500045964E+01               0
GRID*               1803               0-2.448824901E+01-5.032438774E+00+
*       2.7499979563E+01               0
GRID*               1804               0-2.385353057E+01-7.483897664E+00+
*       2.7500047522E+01               0
GRID*               1805               0-2.487174706E+01-2.529062057E+00+
*       2.7500061445E+01               0
GRID*               1806               0-2.487173357E+01-2.529189736E+00+
*       2.5000054086E+01               0
GRID*               1807               0-2.487174836E+01-2.529037422E+00+
*       2.2500055225E+01               0
GRID*               1808               0-2.487173494E+01-2.529161804E+00+
*       2.0000048309E+01               0
GRID*               1809               0-2.487174966E+01-2.529009843E+00+
*       1.7500049398E+01               0
GRID*               1810               0-2.487173589E+01-2.529141027E+00+
*       1.5000041564E+01               0
GRID*               1811               0-2.487174917E+01-2.529017254E+00+
*       1.2500038847E+01               0
GRID*               1812               0-2.448656254E+01-5.031859059E+00+
*       1.2499963852E+01               0
GRID*               1813               0-2.385008363E+01-7.482596440E+00+
*       1.2500050953E+01               0
GRID*               1814               0-2.297242382E+01-9.857974005E+00+
*       1.2499978457E+01               0
GRID*               1815               0-2.185890838E+01-1.213231275E+01+
*       1.2500056368E+01               0
GRID*               1816               0-2.051509495E+01-1.427903549E+01+
*       1.2499989200E+01               0
GRID*               1817               0-1.896480447E+01-1.628058930E+01+
*       1.2500062872E+01               0
GRID*               1818               0-1.721913068E+01-1.811423298E+01+
*       1.2499997881E+01               0
GRID*               1819               0-1.529994638E+01-1.976540519E+01+
*       1.2500064027E+01               0
GRID*               1820               0-1.322332397E+01-2.121473671E+01+
*       1.2500000194E+01               0
GRID*               1821               0-1.101001281E+01-2.244503344E+01+
*       1.2500041289E+01               0
GRID*               1822               0-8.683084728E+00-2.344440693E+01+
*       1.2499955279E+01               0
GRID*               1823               0-6.265679897E+00-2.419788389E+01+
*       1.2500050861E+01               0
GRID*               1824               0-3.785579537E+00-2.470925037E+01+
*       1.2499976921E+01               0
GRID*               1825               0-1.266558923E+00-2.496742849E+01+
*       1.2500055212E+01               0
GRID*               1826               01.2661133730E+00-2.496855379E+01+
*       1.2499987257E+01               0
GRID*               1827               03.7847721071E+00-2.470634711E+01+
*       1.2500062051E+01               0
GRID*               1828               06.2641082555E+00-2.419421966E+01+
*       1.2499997788E+01               0
GRID*               1829               08.6803105053E+00-2.343846815E+01+
*       1.2500064381E+01               0
GRID*               1830               01.1008547715E+01-2.244271319E+01+
*       1.2500000272E+01               0
GRID*               1831               01.3223964613E+01-2.121619089E+01+
*       1.2500043059E+01               0
GRID*               1832               01.5302719005E+01-1.976962308E+01+
*       1.2499947451E+01               0
GRID*               1833               01.7221124156E+01-1.811721050E+01+
*       1.2500050052E+01               0
GRID*               1834               01.8966423101E+01-1.628248827E+01+
*       1.2499975573E+01               0
GRID*               1835               02.0517973353E+01-1.428139089E+01+
*       1.2500054131E+01               0
GRID*               1836               02.1855294173E+01-1.213053928E+01+
*       1.2499985479E+01               0
GRID*               1837               02.2969176179E+01-9.856933444E+00+
*       1.2500061087E+01               0
GRID*               1838               02.3848148337E+01-7.482425580E+00+
*       1.2499995489E+01               0
GRID*               1839               02.4481569182E+01-5.031432261E+00+
*       1.2500064540E+01               0
GRID*               1840               02.4867999575E+01-2.528979635E+00+
*       1.2500000160E+01               0
GRID*               1841               02.5000000000E+01-1.404051319E-04+
*       1.2500045858E+01               0
GRID*               1842               02.4871734428E+012.5291622039E+00+
*       1.2499958437E+01               0
GRID*               1843               02.4486584310E+015.0317177758E+00+
*       1.2500042286E+01               0
GRID*               1844               02.3850041941E+017.4827301176E+00+
*       1.2499974454E+01               0
GRID*               1845               02.2972478584E+019.8578475059E+00+
*       1.2500053076E+01               0
GRID*               1846               02.1858842086E+011.2132431492E+01+
*       1.2499983621E+01               0
GRID*               1847               02.0515171210E+011.4278924512E+01+
*       1.2500060001E+01               0
GRID*               1848               01.8964717436E+011.6280690798E+01+
*       1.2499994113E+01               0
GRID*               1849               01.7219229080E+011.8114143180E+01+
*       1.2500064444E+01               0
GRID*               1850               01.5299839124E+011.9765484014E+01+
*       1.2499999856E+01               0
GRID*               1851               01.3223441699E+012.1214667742E+01+
*       1.2500050982E+01               0
GRID*               1852               01.1009881859E+012.2445097680E+01+
*       1.2499970860E+01               0
GRID*               1853               08.6832184007E+002.3444353802E+01+
*       1.2500034359E+01               0
GRID*               1854               06.2655437712E+002.4197920122E+01+
*       1.2499973722E+01               0
GRID*               1855               03.7857165233E+002.4709229740E+01+
*       1.2500052147E+01               0
GRID*               1856               01.2664225127E+002.4967434996E+01+
*       1.2499981835E+01               0
GRID*               1857               0-1.265978503E+002.4968560774E+01+
*       1.2500058707E+01               0
GRID*               1858               0-3.784904596E+002.4706327173E+01+
*       1.2499992591E+01               0
GRID*               1859               0-6.263979814E+002.4194255396E+01+
*       1.2500065091E+01               0
GRID*               1860               0-8.680434204E+002.3438419024E+01+
*       1.2499999372E+01               0
GRID*               1861               0-1.100842885E+012.2442775187E+01+
*       1.2500056848E+01               0
GRID*               1862               0-1.322408691E+012.1216114664E+01+
*       1.2499984119E+01               0
GRID*               1863               0-1.530260688E+011.9769715068E+01+
*       1.2500027182E+01               0
GRID*               1864               0-1.722122991E+011.8117115953E+01+
*       1.2499972240E+01               0
GRID*               1865               0-1.896633251E+011.6282594018E+01+
*       1.2500051430E+01               0
GRID*               1866               0-2.051805135E+011.4281278023E+01+
*       1.2499980129E+01               0
GRID*               1867               0-2.185522745E+011.2130657159E+01+
*       1.2500057573E+01               0
GRID*               1868               0-2.296922970E+019.8568102568E+00+
*       1.2499990929E+01               0
GRID*               1869               0-2.384810859E+017.4825530156E+00+
*       1.2500063515E+01               0
GRID*               1870               0-2.448159313E+015.0313012902E+00+
*       1.2499998731E+01               0
GRID*               1871               0-2.486819791E+012.5290025723E+00+
*       1.5000066068E+01               0
GRID*               1872               0-2.486798964E+012.5291124450E+00+
*       1.2500063452E+01               0
GRID*               1873               0-2.486833091E+012.5290687167E+00+
*       2.0000068571E+01               0
GRID*               1874               0-2.486827925E+012.5291715006E+00+
*       1.7500065999E+01               0
GRID*               1875               0-2.486846203E+012.5292648252E+00+
*       2.2500068466E+01               0
GRID*               1876               0-6.341567074E-01-1.250057190E+01+
*       1.0000000000E+01               0
GRID*               1877               07.1382903912E-02-1.101047912E+01+
*       1.0000000000E+01               0
GRID*               1878               0-1.185151994E+00-1.094668468E+01+
*       1.0000000000E+01               0
GRID*               1879               0-2.220389947E+014.5503028916E+00+
*       1.0000000000E+01               0
GRID*               1880               0-2.243906060E+012.5060589333E+00+
*       1.0000000000E+01               0
GRID*               1881               0-2.015473683E+012.0237745625E+00+
*       1.0000000000E+01               0
GRID*               1882               0-2.269494898E+01-1.023469792E-02+
*       1.0000000000E+01               0
GRID*               1883               0-2.082129569E+018.9667425705E+00+
*       1.0000000000E+01               0
GRID*               1884               0-2.144674596E+016.9634909666E+00+
*       1.0000000000E+01               0
GRID*               1885               0-1.929412543E+016.0712701247E+00+
*       1.0000000000E+01               0
GRID*               1886               0-1.862980572E+011.3019401566E+01+
*       1.0000000000E+01               0
GRID*               1887               0-1.959389381E+011.1178094009E+01+
*       1.0000000000E+01               0
GRID*               1888               0-1.770458708E+019.9158292862E+00+
*       1.0000000000E+01               0
GRID*               1889               0-1.569691941E+011.6496496287E+01+
*       1.0000000000E+01               0
GRID*               1890               0-1.734434557E+011.4577460760E+01+
*       1.0000000000E+01               0
GRID*               1891               0-1.545503884E+011.3315196038E+01+
*       1.0000000000E+01               0
GRID*               1892               0-1.207471673E+011.9247384588E+01+
*       1.0000000000E+01               0
GRID*               1893               0-1.407478329E+011.7699207971E+01+
*       1.0000000000E+01               0
GRID*               1894               0-1.254744256E+011.6075966916E+01+
*       1.0000000000E+01               0
GRID*               1895               0-7.915283941E+002.1227888562E+01+
*       1.0000000000E+01               0
GRID*               1896               0-1.018608662E+012.0114011176E+01+
*       1.0000000000E+01               0
GRID*               1897               0-9.036676332E+001.8145305188E+01+
*       1.0000000000E+01               0
GRID*               1898               0-3.433013992E+002.2382025178E+01+
*       1.0000000000E+01               0
GRID*               1899               0-5.881470124E+002.1748087587E+01+
*       1.0000000000E+01               0
GRID*               1900               0-5.114232402E+001.9532130802E+01+
*       1.0000000000E+01               0
GRID*               1901               01.1484319764E+002.2638691267E+01+
*       1.0000000000E+01               0
GRID*               1902               0-1.377471809E+002.2510594651E+01+
*       1.0000000000E+01               0
GRID*               1903               0-1.024876401E+002.0180899300E+01+
*       1.0000000000E+01               0
GRID*               1904               05.6804132377E+002.1919762440E+01+
*       1.0000000000E+01               0
GRID*               1905               03.6484317348E+002.2255713469E+01+
*       1.0000000000E+01               0
GRID*               1906               03.0626472846E+001.9973517744E+01+
*       1.0000000000E+01               0
GRID*               1907               01.0022940583E+012.0317975262E+01+
*       1.0000000000E+01               0
GRID*               1908               08.0522119936E+002.1041354707E+01+
*       1.0000000000E+01               0
GRID*               1909               07.0653573766E+001.8914187270E+01+
*       1.0000000000E+01               0
GRID*               1910               01.3960622052E+011.7926740147E+01+
*       1.0000000000E+01               0
GRID*               1911               01.2169408263E+011.8980068952E+01+
*       1.0000000000E+01               0
GRID*               1912               01.0827299755E+011.7137479020E+01+
*       1.0000000000E+01               0
GRID*               1913               01.7285829489E+011.4823492717E+01+
*       1.0000000000E+01               0
GRID*               1914               01.5793764797E+011.6184194543E+01+
*       1.0000000000E+01               0
GRID*               1915               01.4110578236E+011.4723448389E+01+
*       1.0000000000E+01               0
GRID*               1916               01.9851813757E+011.1067499447E+01+
*       1.0000000000E+01               0
GRID*               1917               01.8730650696E+011.2747653977E+01+
*       1.0000000000E+01               0
GRID*               1918               01.6723805989E+011.1682592033E+01+
*       1.0000000000E+01               0
GRID*               1919               02.1621979537E+016.8138800757E+00+
*       1.0000000000E+01               0
GRID*               1920               02.0624585680E+019.1380667891E+00+
*       1.0000000000E+01               0
GRID*               1921               01.8617740973E+018.0730048452E+00+
*       1.0000000000E+01               0
GRID*               1922               02.2550595718E+012.2801593215E+00+
*       1.0000000000E+01               0
GRID*               1923               02.2041456749E+014.7576029444E+00+
*       1.0000000000E+01               0
GRID*               1924               01.9809990108E+014.0872950555E+00+
*       1.0000000000E+01               0
GRID*               1925               02.2577639213E+01-2.306694249E+00+
*       1.0000000000E+01               0
GRID*               1926               02.2577639213E+012.2260646948E-01+
*       1.0000000000E+01               0
GRID*               1927               02.0256510815E+01-2.653492788E-02+
*       1.0000000000E+01               0
GRID*               1928               02.1634203784E+01-6.794379974E+00+
*       1.0000000000E+01               0
GRID*               1929               02.2068500243E+01-4.784137872E+00+
*       1.0000000000E+01               0
GRID*               1930               01.9849257849E+01-4.094329881E+00+
*       1.0000000000E+01               0
GRID*               1931               01.9819298972E+01-1.104617342E+01+
*       1.0000000000E+01               0
GRID*               1932               02.0636809927E+01-9.118566687E+00+
*       1.0000000000E+01               0
GRID*               1933               01.8597450435E+01-8.032178715E+00+
*       1.0000000000E+01               0
GRID*               1934               01.7235868075E+01-1.485107616E+01+
*       1.0000000000E+01               0
GRID*               1935               01.8374477765E+01-1.312201216E+01+
*       1.0000000000E+01               0
GRID*               1936               01.6641329790E+01-1.168884945E+01+
*       1.0000000000E+01               0
GRID*               1937               01.3971796426E+01-1.800546202E+01+
*       1.0000000000E+01               0
GRID*               1938               01.5804939171E+01-1.626291642E+01+
*       1.0000000000E+01               0
GRID*               1939               01.4071791197E+01-1.482975371E+01+
*       1.0000000000E+01               0
GRID*               1940               01.0095338724E+01-2.036352221E+01+
*       1.0000000000E+01               0
GRID*               1941               01.2241806404E+01-1.902561590E+01+
*       1.0000000000E+01               0
GRID*               1942               01.0910872270E+01-1.726174784E+01+
*       1.0000000000E+01               0
GRID*               1943               05.7593675050E+00-2.189130093E+01+
*       1.0000000000E+01               0
GRID*               1944               08.1311662585E+00-2.101289320E+01+
*       1.0000000000E+01               0
GRID*               1945               07.2167097829E+00-1.893127271E+01+
*       1.0000000000E+01               0
GRID*               1946               01.1730220235E+00-2.255262821E+01+
*       1.0000000000E+01               0
GRID*               1947               03.6730217802E+00-2.216965040E+01+
*       1.0000000000E+01               0
GRID*               1948               03.1661915924E+00-1.985899318E+01+
*       1.0000000000E+01               0
GRID*               1949               0-3.448754474E+00-2.231819871E+01+
*       1.0000000000E+01               0
GRID*               1950               0-1.352881762E+00-2.242453159E+01+
*       1.0000000000E+01               0
GRID*               1951               0-1.016026844E+00-2.003100977E+01+
*       1.0000000000E+01               0
GRID*               1952               0-7.944677332E+00-2.119618204E+01+
*       1.0000000000E+01               0
GRID*               1953               0-5.897210639E+00-2.168426119E+01+
*       1.0000000000E+01               0
GRID*               1954               0-5.159366249E+00-1.943659773E+01+
*       1.0000000000E+01               0
GRID*               1955               0-1.210384898E+01-1.923747401E+01+
*       1.0000000000E+01               0
GRID*               1956               0-1.021547998E+01-2.008230457E+01+
*       1.0000000000E+01               0
GRID*               1957               0-9.095201937E+00-1.810368800E+01+
*       1.0000000000E+01               0
GRID*               1958               0-1.572176417E+01-1.649930157E+01+
*       1.0000000000E+01               0
GRID*               1959               0-1.410391554E+01-1.768929739E+01+
*       1.0000000000E+01               0
GRID*               1960               0-1.260141956E+01-1.606886162E+01+
*       1.0000000000E+01               0
GRID*               1961               0-1.864986802E+01-1.303086401E+01+
*       1.0000000000E+01               0
GRID*               1962               0-1.736919032E+01-1.458026604E+01+
*       1.0000000000E+01               0
GRID*               1963               0-1.549994589E+01-1.332946376E+01+
*       1.0000000000E+01               0
GRID*               1964               0-2.083502460E+01-8.984096509E+00+
*       1.0000000000E+01               0
GRID*               1965               0-1.960762272E+01-1.119544795E+01+
*       1.0000000000E+01               0
GRID*               1966               0-1.773837828E+01-9.944645667E+00+
*       1.0000000000E+01               0
GRID*               1967               0-2.221039270E+01-4.570463014E+00+
*       1.0000000000E+01               0
GRID*               1968               0-2.145323919E+01-6.983651089E+00+
*       1.0000000000E+01               0
GRID*               1969               0-1.931434758E+01-6.108784185E+00+
*       1.0000000000E+01               0
GRID*               1970               0-2.243906060E+01-2.526528329E+00+
*       1.0000000000E+01               0
GRID*               1971               0-2.016123006E+01-2.064404081E+00+
*       1.0000000000E+01               0
GRID*               1972               0-1.802538617E+013.6264947429E+00+
*       1.0000000000E+01               0
GRID*               1973               0-1.831327445E+012.0129742498E+00+
*       1.0000000000E+01               0
GRID*               1974               0-1.641908492E+011.5714504718E+00+
*       1.0000000000E+01               0
GRID*               1975               0-1.854843558E+01-3.126970857E-02+
*       1.0000000000E+01               0
GRID*               1976               0-1.685456647E+017.3439686475E+00+
*       1.0000000000E+01               0
GRID*               1977               0-1.748001674E+015.3407170436E+00+
*       1.0000000000E+01               0
GRID*               1978               0-1.558582720E+014.8991932656E+00+
*       1.0000000000E+01               0
GRID*               1979               0-1.517247640E+011.0777805234E+01+
*       1.0000000000E+01               0
GRID*               1980               0-1.613656448E+018.9364976767E+00+
*       1.0000000000E+01               0
GRID*               1981               0-1.432245579E+018.2059445956E+00+
*       1.0000000000E+01               0
GRID*               1982               0-1.297886736E+011.3605027149E+01+
*       1.0000000000E+01               0
GRID*               1983               0-1.426432752E+011.2046967955E+01+
*       1.0000000000E+01               0
GRID*               1984               0-1.269630492E+011.1067636345E+01+
*       1.0000000000E+01               0
GRID*               1985               0-1.004237821E+011.5645723473E+01+
*       1.0000000000E+01               0
GRID*               1986               0-1.135673124E+011.4807738833E+01+
*       1.0000000000E+01               0
GRID*               1987               0-1.047380301E+011.3174783707E+01+
*       1.0000000000E+01               0
GRID*               1988               0-6.526012050E+001.7142076920E+01+
*       1.0000000000E+01               0
GRID*               1989               0-8.153748101E+001.6512350062E+01+
*       1.0000000000E+01               0
GRID*               1990               0-7.531713932E+001.4642495206E+01+
*       1.0000000000E+01               0
GRID*               1991               0-2.749622852E+001.8113943976E+01+
*       1.0000000000E+01               0
GRID*               1992               0-4.783436670E+001.7593744951E+01+
*       1.0000000000E+01               0
GRID*               1993               0-4.161402501E+001.5723890095E+01+
*       1.0000000000E+01               0
GRID*               1994               09.3633376244E-011.8444459686E+01+
*       1.0000000000E+01               0
GRID*               1995               0-1.119208420E+001.8315890214E+01+
*       1.0000000000E+01               0
GRID*               1996               0-7.884126887E-011.6377504363E+01+
*       1.0000000000E+01               0
GRID*               1997               04.5699214434E+001.7742514973E+01+
*       1.0000000000E+01               0
GRID*               1998               02.9683152654E+001.8108508657E+01+
*       1.0000000000E+01               0
GRID*               1999               02.4436079213E+001.6213456916E+01+
*       1.0000000000E+01               0
GRID*               2000               08.2285400453E+001.6393332503E+01+
*       1.0000000000E+01               0
GRID*               2001               06.5406500325E+001.7019135529E+01+
*       1.0000000000E+01               0
GRID*               2002               05.7331041121E+001.5221660206E+01+
*       1.0000000000E+01               0
GRID*               2003               01.1575339291E+011.4548695788E+01+
*       1.0000000000E+01               0
GRID*               2004               09.7841255018E+001.5602024593E+01+
*       1.0000000000E+01               0
GRID*               2005               08.9765795813E+001.3804549270E+01+
*       1.0000000000E+01               0
GRID*               2006               01.4290127099E+011.2221247547E+01+
*       1.0000000000E+01               0
GRID*               2007               01.2798062407E+011.3581949373E+01+
*       1.0000000000E+01               0
GRID*               2008               01.1754888154E+011.2046494945E+01+
*       1.0000000000E+01               0
GRID*               2009               01.6186271388E+019.1864948763E+00+
*       1.0000000000E+01               0
GRID*               2010               01.5411290160E+011.0541093017E+01+
*       1.0000000000E+01               0
GRID*               2011               01.3752592498E+019.7251503900E+00+
*       1.0000000000E+01               0
GRID*               2012               01.7512097263E+015.6000063031E+00+
*       1.0000000000E+01               0
GRID*               2013               01.6959043311E+017.2570622179E+00+
*       1.0000000000E+01               0
GRID*               2014               01.5080627678E+016.7134963343E+00+
*       1.0000000000E+01               0
GRID*               2015               01.8300542123E+011.7830938029E+00+
*       1.0000000000E+01               0
GRID*               2016               01.7931574475E+013.5437291718E+00+
*       1.0000000000E+01               0
GRID*               2017               01.6002649278E+013.2958050506E+00+
*       1.0000000000E+01               0
GRID*               2018               01.8450593962E+01-1.908832937E+00+
*       1.0000000000E+01               0
GRID*               2019               01.8423550468E+011.4871991490E-01+
*       1.0000000000E+01               0
GRID*               2020               01.6494625271E+01-9.920420630E-02+
*       1.0000000000E+01               0
GRID*               2021               01.7578737138E+01-5.497407857E+00+
*       1.0000000000E+01               0
GRID*               2022               01.8016297503E+01-3.919075039E+00+
*       1.0000000000E+01               0
GRID*               2023               01.6180073251E+01-3.311910913E+00+
*       1.0000000000E+01               0
GRID*               2024               01.6061514711E+01-9.071902513E+00+
*       1.0000000000E+01               0
GRID*               2025               01.6761226183E+01-7.425014589E+00+
*       1.0000000000E+01               0
GRID*               2026               01.5042801414E+01-6.537131655E+00+
*       1.0000000000E+01               0
GRID*               2027               01.4061767722E+01-1.230190022E+01+
*       1.0000000000E+01               0
GRID*               2028               01.5200377412E+01-1.057283622E+01+
*       1.0000000000E+01               0
GRID*               2029               01.3481952643E+01-9.684953288E+00+
*       1.0000000000E+01               0
GRID*               2030               01.1608902119E+01-1.486932640E+01+
*       1.0000000000E+01               0
GRID*               2031               01.3039831023E+01-1.345748613E+01+
*       1.0000000000E+01               0
GRID*               2032               01.1598878645E+01-1.234147291E+01+
*       1.0000000000E+01               0
GRID*               2033               08.5005430559E+00-1.657098987E+01+
*       1.0000000000E+01               0
GRID*               2034               09.8789120969E+00-1.588948027E+01+
*       1.0000000000E+01               0
GRID*               2035               09.1985729043E+00-1.417856843E+01+
*       1.0000000000E+01               0
GRID*               2036               04.8678564223E+00-1.764094181E+01+
*       1.0000000000E+01               0
GRID*               2037               06.5363705903E+00-1.722036087E+01+
*       1.0000000000E+01               0
GRID*               2038               06.1516896953E+00-1.528065897E+01+
*       1.0000000000E+01               0
GRID*               2039               09.9623222468E-01-1.810668255E+01+
*       1.0000000000E+01               0
GRID*               2040               03.0825779496E+00-1.782833308E+01+
*       1.0000000000E+01               0
GRID*               2041               02.6978970546E+00-1.588863118E+01+
*       1.0000000000E+01               0
GRID*               2042               0-2.823357125E+00-1.791286236E+01+
*       1.0000000000E+01               0
GRID*               2043               0-1.099640487E+00-1.800034967E+01+
*       1.0000000000E+01               0
GRID*               2044               0-8.110980565E-01-1.598853515E+01+
*       1.0000000000E+01               0
GRID*               2045               0-6.627950025E+00-1.705759184E+01+
*       1.0000000000E+01               0
GRID*               2046               0-4.870823818E+00-1.742478320E+01+
*       1.0000000000E+01               0
GRID*               2047               0-4.291940901E+00-1.553385647E+01+
*       1.0000000000E+01               0
GRID*               2048               0-1.013366572E+01-1.562540726E+01+
*       1.0000000000E+01               0
GRID*               2049               0-8.245296725E+00-1.647023782E+01+
*       1.0000000000E+01               0
GRID*               2050               0-7.666413808E+00-1.457931109E+01+
*       1.0000000000E+01               0
GRID*               2051               0-1.305378701E+01-1.361785722E+01+
*       1.0000000000E+01               0
GRID*               2052               0-1.143593838E+01-1.480785305E+01+
*       1.0000000000E+01               0
GRID*               2053               0-1.058603317E+01-1.317440286E+01+
*       1.0000000000E+01               0
GRID*               2054               0-1.523413295E+01-1.081533774E+01+
*       1.0000000000E+01               0
GRID*               2055               0-1.433446471E+01-1.206845519E+01+
*       1.0000000000E+01               0
GRID*               2056               0-1.278797408E+01-1.110373120E+01+
*       1.0000000000E+01               0
GRID*               2057               0-1.689660729E+01-7.399513660E+00+
*       1.0000000000E+01               0
GRID*               2058               0-1.619188765E+01-8.979921680E+00+
*       1.0000000000E+01               0
GRID*               2059               0-1.439236196E+01-8.270205736E+00+
*       1.0000000000E+01               0
GRID*               2060               0-1.804417217E+01-3.689810499E+00+
*       1.0000000000E+01               0
GRID*               2061               0-1.742595758E+01-5.690255918E+00+
*       1.0000000000E+01               0
GRID*               2062               0-1.562643189E+01-4.980539974E+00+
*       1.0000000000E+01               0
GRID*               2063               0-1.831976769E+01-2.075204393E+00+
*       1.0000000000E+01               0
GRID*               2064               0-1.643137769E+01-1.656676127E+00+
*       1.0000000000E+01               0
GRID*               2065               0-1.449430220E+012.6423981764E+00+
*       1.0000000000E+01               0
GRID*               2066               0-1.514078191E+011.5613491258E+00+
*       1.0000000000E+01               0
GRID*               2067               0-1.350388748E+011.0187763374E+00+
*       1.0000000000E+01               0
GRID*               2068               0-1.542867020E+01-5.217136727E-02+
*       1.0000000000E+01               0
GRID*               2069               0-1.339883745E+016.0041538862E+00+
*       1.0000000000E+01               0
GRID*               2070               0-1.394420687E+014.2899315855E+00+
*       1.0000000000E+01               0
GRID*               2071               0-1.230731244E+013.7473587970E+00+
*       1.0000000000E+01               0
GRID*               2072               0-1.222647359E+019.1420740060E+00+
*       1.0000000000E+01               0
GRID*               2073               0-1.294447558E+017.5495449768E+00+
*       1.0000000000E+01               0
GRID*               2074               0-1.130285525E+016.9402832967E+00+
*       1.0000000000E+01               0
GRID*               2075               0-1.100358295E+011.1499304257E+01+
*       1.0000000000E+01               0
GRID*               2076               0-1.191173183E+011.0230141536E+01+
*       1.0000000000E+01               0
GRID*               2077               0-1.053375162E+019.5737419174E+00+
*       1.0000000000E+01               0
GRID*               2078               0-8.589891730E+001.2587615123E+01+
*       1.0000000000E+01               0
GRID*               2079               0-9.689229920E+001.2337288898E+01+
*       1.0000000000E+01               0
GRID*               2080               0-9.119671667E+001.0912135673E+01+
*       1.0000000000E+01               0
GRID*               2081               0-5.396840394E+001.3579974296E+01+
*       1.0000000000E+01               0
GRID*               2082               0-6.962155680E+001.3217341981E+01+
*       1.0000000000E+01               0
GRID*               2083               0-6.455018192E+001.1525094213E+01+
*       1.0000000000E+01               0
GRID*               2084               0-1.975994954E+001.4486458335E+01+
*       1.0000000000E+01               0
GRID*               2085               0-3.654265013E+001.4031642327E+01+
*       1.0000000000E+01               0
GRID*               2086               0-3.211432846E+001.2342542536E+01+
*       1.0000000000E+01               0
GRID*               2087               07.7630683348E-011.5281966188E+01+
*       1.0000000000E+01               0
GRID*               2088               0-8.541075985E-011.5080019951E+01+
*       1.0000000000E+01               0
GRID*               2089               0-4.112754315E-011.3390920161E+01+
*       1.0000000000E+01               0
GRID*               2090               03.4340035448E+001.4211827710E+01+
*       1.0000000000E+01               0
GRID*               2091               02.3779130115E+001.4915972504E+01+
*       1.0000000000E+01               0
GRID*               2092               01.7667024570E+001.3280336983E+01+
*       1.0000000000E+01               0
GRID*               2093               06.7454794084E+001.2963533291E+01+
*       1.0000000000E+01               0
GRID*               2094               05.0575893957E+001.3589336317E+01+
*       1.0000000000E+01               0
GRID*               2095               04.4463788411E+001.1953700795E+01+
*       1.0000000000E+01               0
GRID*               2096               09.8215447973E+001.1652915644E+01+
*       1.0000000000E+01               0
GRID*               2097               08.2659593408E+001.2444223554E+01+
*       1.0000000000E+01               0
GRID*               2098               07.5904446244E+001.0811899665E+01+
*       1.0000000000E+01               0
GRID*               2099               01.2112516770E+011.0325832717E+01+
*       1.0000000000E+01               0
GRID*               2100               01.0889793654E+011.1292579132E+01+
*       1.0000000000E+01               0
GRID*               2101               01.0179173414E+019.9322534156E+00+
*       1.0000000000E+01               0
GRID*               2102               01.3090478997E+017.8568394166E+00+
*       1.0000000000E+01               0
GRID*               2103               01.2887497998E+018.9712345766E+00+
*       1.0000000000E+01               0
GRID*               2104               01.1450403269E+018.4575217441E+00+
*       1.0000000000E+01               0
GRID*               2105               01.3939036897E+014.6162882473E+00+
*       1.0000000000E+01               0
GRID*               2106               01.3643532949E+016.1997835018E+00+
*       1.0000000000E+01               0
GRID*               2107               01.1948888216E+015.7596313296E+00+
*       1.0000000000E+01               0
GRID*               2108               01.4688352141E+011.1608843844E+00+
*       1.0000000000E+01               0
GRID*               2109               01.4308004545E+012.8556528784E+00+
*       1.0000000000E+01               0
GRID*               2110               01.2624739760E+012.4813675811E+00+
*       1.0000000000E+01               0
GRID*               2111               01.5344961888E+01-1.614414840E+00+
*       1.0000000000E+01               0
GRID*               2112               01.5221953543E+011.9959048261E-02+
*       1.0000000000E+01               0
GRID*               2113               01.3538688758E+01-3.543262490E-01+
*       1.0000000000E+01               0
GRID*               2114               01.4168188710E+01-4.214538194E+00+
*       1.0000000000E+01               0
GRID*               2115               01.4907401523E+01-3.192747658E+00+
*       1.0000000000E+01               0
GRID*               2116               01.3333077347E+01-2.517042121E+00+
*       1.0000000000E+01               0
GRID*               2117               01.2785881866E+01-7.442054193E+00+
*       1.0000000000E+01               0
GRID*               2118               01.3485593338E+01-5.795166269E+00+
*       1.0000000000E+01               0
GRID*               2119               01.1911269162E+01-5.119460731E+00+
*       1.0000000000E+01               0
GRID*               2120               01.1340495342E+01-1.041514713E+01+
*       1.0000000000E+01               0
GRID*               2121               01.2201632642E+01-8.914213424E+00+
*       1.0000000000E+01               0
GRID*               2122               01.0644424565E+01-8.172248037E+00+
*       1.0000000000E+01               0
GRID*               2123               09.9012869957E+00-1.259877817E+01+
*       1.0000000000E+01               0
GRID*               2124               01.0923223695E+01-1.144319225E+01+
*       1.0000000000E+01               0
GRID*               2125               09.6429036931E+00-1.067245239E+01+
*       1.0000000000E+01               0
GRID*               2126               07.4299302090E+00-1.341001286E+01+
*       1.0000000000E+01               0
GRID*               2127               08.5229179546E+00-1.328028777E+01+
*       1.0000000000E+01               0
GRID*               2128               08.1326443004E+00-1.183022260E+01+
*       1.0000000000E+01               0
GRID*               2129               04.2152460046E+00-1.399466170E+01+
*       1.0000000000E+01               0
GRID*               2130               05.7614160411E+00-1.383059380E+01+
*       1.0000000000E+01               0
GRID*               2131               05.4934865183E+00-1.212401560E+01+
*       1.0000000000E+01               0
GRID*               2132               07.6749838641E-01-1.432019440E+01+
*       1.0000000000E+01               0
GRID*               2133               02.4299675318E+00-1.418205298E+01+
*       1.0000000000E+01               0
GRID*               2134               02.2848473364E+00-1.242622492E+01+
*       1.0000000000E+01               0
GRID*               2135               0-2.212753150E+00-1.416891265E+01+
*       1.0000000000E+01               0
GRID*               2136               0-9.562182519E-01-1.423270709E+01+
*       1.0000000000E+01               0
GRID*               2137               0-5.609798574E+00-1.349590560E+01+
*       1.0000000000E+01               0
GRID*               2138               0-3.852672367E+00-1.386309697E+01+
*       1.0000000000E+01               0
GRID*               2139               0-3.530610823E+00-1.213096178E+01+
*       1.0000000000E+01               0
GRID*               2140               0-8.748726167E+00-1.258873919E+01+
*       1.0000000000E+01               0
GRID*               2141               0-7.131379466E+00-1.317609321E+01+
*       1.0000000000E+01               0
GRID*               2142               0-6.692110932E+00-1.150533370E+01+
*       1.0000000000E+01               0
GRID*               2143               0-1.112521010E+01-1.153146509E+01+
*       1.0000000000E+01               0
GRID*               2144               0-9.822937434E+00-1.234901930E+01+
*       1.0000000000E+01               0
GRID*               2145               0-9.287903092E+00-1.094580142E+01+
*       1.0000000000E+01               0
GRID*               2146               0-1.233587823E+01-9.213294050E+00+
*       1.0000000000E+01               0
GRID*               2147               0-1.202487834E+01-1.027834764E+01+
*       1.0000000000E+01               0
GRID*               2148               0-1.067311426E+01-9.641027938E+00+
*       1.0000000000E+01               0
GRID*               2149               0-1.347270929E+01-6.109110301E+00+
*       1.0000000000E+01               0
GRID*               2150               0-1.304059788E+01-7.632886030E+00+
*       1.0000000000E+01               0
GRID*               2151               0-1.141622556E+01-7.052198615E+00+
*       1.0000000000E+01               0
GRID*               2152               0-1.452103784E+01-2.758226974E+00+
*       1.0000000000E+01               0
GRID*               2153               0-1.400205957E+01-4.399852559E+00+
*       1.0000000000E+01               0
GRID*               2154               0-1.236731524E+01-3.886797301E+00+
*       1.0000000000E+01               0
GRID*               2155               0-1.515307468E+01-1.666777473E+00+
*       1.0000000000E+01               0
GRID*               2156               0-1.351833035E+01-1.153722215E+00+
*       1.0000000000E+01               0
GRID*               2157               02.1331950056E+00-1.074555557E+01+
*       1.0000000000E+01               0
GRID*               2158               01.5821997185E+00-9.191668355E+00+
*       1.0000000000E+01               0
GRID*               2159               03.7956641510E+00-1.060741415E+01+
*       1.0000000000E+01               0
GRID*               2160               04.1995467031E+00-2.826858517E+00+
*       1.0000000000E+01               0
GRID*               2161               02.2182560801E+00-5.412886967E-01+
*       1.0000000000E+01               0
GRID*               2162               01.9617055404E+00-2.685821992E+00+
*       1.0000000000E+01               0
GRID*               2163               0-1.324441384E-01-2.621906733E+00+
*       1.0000000000E+01               0
GRID*               2164               01.8488464846E+00-4.907476553E+00+
*       1.0000000000E+01               0
GRID*               2165               01.6993543131E+00-6.885153052E+00+
*       1.0000000000E+01               0
GRID*               2166               0-3.624577887E-01-7.150076597E+00+
*       1.0000000000E+01               0
GRID*               2167               03.7935039918E+00-6.949068311E+00+
*       1.0000000000E+01               0
GRID*               2168               06.8937867245E+00-8.761038743E-01+
*       1.0000000000E+01               0
GRID*               2169               06.1866335524E+00-3.057704285E+00+
*       1.0000000000E+01               0
GRID*               2170               08.6243230341E+00-3.251482938E+00+
*       1.0000000000E+01               0
GRID*               2171               05.9300830127E+00-5.202237581E+00+
*       1.0000000000E+01               0
GRID*               2172               09.5729218257E+00-6.066586078E+00+
*       1.0000000000E+01               0
GRID*               2173               01.0255517198E+01-4.485958003E+00+
*       1.0000000000E+01               0
GRID*               2174               01.0962670371E+01-2.304357592E+00+
*       1.0000000000E+01               0
GRID*               2175               08.6127233270E+00-9.317725823E+00+
*       1.0000000000E+01               0
GRID*               2176               09.1969725516E+00-7.845566592E+00+
*       1.0000000000E+01               0
GRID*               2177               07.5412205879E+00-7.212063864E+00+
*       1.0000000000E+01               0
GRID*               2178               05.4046415670E+00-8.958894594E+00+
*       1.0000000000E+01               0
GRID*               2179               05.5541337385E+00-6.981218095E+00+
*       1.0000000000E+01               0
GRID*               2180               0-2.222284921E+00-2.473348988E+00+
*       1.0000000000E+01               0
GRID*               2181               0-2.335143977E+00-4.695003549E+00+
*       1.0000000000E+01               0
GRID*               2182               0-2.260207098E+00-3.137711925E-01+
*       1.0000000000E+01               0
GRID*               2183               0-4.462906937E+00-2.386868008E+00+
*       1.0000000000E+01               0
GRID*               2184               0-2.386820411E+00-6.677649942E+00+
*       1.0000000000E+01               0
GRID*               2185               0-2.503975005E+00-8.984165245E+00+
*       1.0000000000E+01               0
GRID*               2186               0-4.476661193E+00-6.529092197E+00+
*       1.0000000000E+01               0
GRID*               2187               0-4.849433834E+00-1.016844234E+01+
*       1.0000000000E+01               0
GRID*               2188               0-3.209514617E+00-1.047425803E+01+
*       1.0000000000E+01               0
GRID*               2189               0-6.425226929E+00-4.574819461E+00+
*       1.0000000000E+01               0
GRID*               2190               0-6.463149107E+00-2.415241666E+00+
*       1.0000000000E+01               0
GRID*               2191               0-6.945675859E+00-1.731592371E-01+
*       1.0000000000E+01               0
GRID*               2192               0-8.907995851E+00-2.361110690E+00+
*       1.0000000000E+01               0
GRID*               2193               0-1.013690304E+01-5.065808002E+00+
*       1.0000000000E+01               0
GRID*               2194               0-1.065588131E+01-3.424182418E+00+
*       1.0000000000E+01               0
GRID*               2195               0-1.113840806E+01-1.182099989E+00+
*       1.0000000000E+01               0
GRID*               2196               0-8.231707552E+00-6.411125472E+00+
*       1.0000000000E+01               0
GRID*               2197               0-9.943141488E+00-6.873740356E+00+
*       1.0000000000E+01               0
GRID*               2198               0-9.511030078E+00-8.397516085E+00+
*       1.0000000000E+01               0
GRID*               2199               0-6.283141816E+00-8.365398208E+00+
*       1.0000000000E+01               0
GRID*               2200               0-6.231465382E+00-6.382751815E+00+
*       1.0000000000E+01               0
GRID*               2201               02.3905125633E+003.9320195590E+00+
*       1.0000000000E+01               0
GRID*               2202               09.6054826283E-021.8759579341E+00+
*       1.0000000000E+01               0
GRID*               2203               02.2748726544E+001.6558094528E+00+
*       1.0000000000E+01               0
GRID*               2204               04.5127138171E+001.5147729282E+00+
*       1.0000000000E+01               0
GRID*               2205               06.6270617057E+003.6149259113E+00+
*       1.0000000000E+01               0
GRID*               2206               06.5704451314E+001.4178277618E+00+
*       1.0000000000E+01               0
GRID*               2207               09.0081346131E+001.2240491088E+00+
*       1.0000000000E+01               0
GRID*               2208               01.0464592592E+013.8470584100E+00+
*       1.0000000000E+01               0
GRID*               2209               01.0844940188E+012.1522899160E+00+
*       1.0000000000E+01               0
GRID*               2210               01.1168281781E+01-1.416417201E-01+
*       1.0000000000E+01               0
GRID*               2211               03.3832549856E-016.6464674339E+00+
*       1.0000000000E+01               0
GRID*               2212               02.5681318228E+006.0058129631E+00+
*       1.0000000000E+01               0
GRID*               2213               02.6947625861E+008.5001123567E+00+
*       1.0000000000E+01               0
GRID*               2214               04.7469496509E+005.7856644817E+00+
*       1.0000000000E+01               0
GRID*               2215               05.4972668012E+009.5953336438E+00+
*       1.0000000000E+01               0
GRID*               2216               03.8736809503E+001.0217825037E+01+
*       1.0000000000E+01               0
GRID*               2217               01.6438746261E+001.0858479508E+01+
*       1.0000000000E+01               0
GRID*               2218               08.8522086631E+008.7729714479E+00+
*       1.0000000000E+01               0
GRID*               2219               07.0177467336E+009.0760239065E+00+
*       1.0000000000E+01               0
GRID*               2220               06.7590308399E+007.5564054272E+00+
*       1.0000000000E+01               0
GRID*               2221               08.6391428947E+005.3856668568E+00+
*       1.0000000000E+01               0
GRID*               2222               06.5814115805E+005.4826120231E+00+
*       1.0000000000E+01               0
GRID*               2223               0-2.093891032E+001.8777376903E+00+
*       1.0000000000E+01               0
GRID*               2224               0-4.334513048E+001.9642186698E+00+
*       1.0000000000E+01               0
GRID*               2225               0-1.978251123E+004.1539477964E+00+
*       1.0000000000E+01               0
GRID*               2226               0-6.391556908E+002.0762351814E+00+
*       1.0000000000E+01               0
GRID*               2227               0-8.836403652E+002.1303661574E+00+
*       1.0000000000E+01               0
GRID*               2228               0-6.225240841E+004.2677440642E+00+
*       1.0000000000E+01               0
GRID*               2229               0-1.001975091E+014.8873263910E+00+
*       1.0000000000E+01               0
GRID*               2230               0-1.056984623E+013.2397929819E+00+
*       1.0000000000E+01               0
GRID*               2231               0-1.112396518E+019.9039856342E-01+
*       1.0000000000E+01               0
GRID*               2232               0-4.134840029E+006.2368184793E+00+
*       1.0000000000E+01               0
GRID*               2233               0-1.944894171E+006.2350387231E+00+
*       1.0000000000E+01               0
GRID*               2234               0-1.818263408E+008.7293381168E+00+
*       1.0000000000E+01               0
GRID*               2235               0-4.495592992E+001.0102817967E+01+
*       1.0000000000E+01               0
GRID*               2236               0-2.817322932E+001.0557633975E+01+
*       1.0000000000E+01               0
GRID*               2237               0-5.341032624E-011.0969062686E+01+
*       1.0000000000E+01               0
GRID*               2238               0-5.957311881E+008.2022400798E+00+
*       1.0000000000E+01               0
GRID*               2239               0-6.060908278E+009.7401856521E+00+
*       1.0000000000E+01               0
GRID*               2240               0-7.916737081E+009.6245163260E+00+
*       1.0000000000E+01               0
GRID*               2241               0-8.047712692E+006.2331656648E+00+
*       1.0000000000E+01               0
GRID*               2242               0-5.990668832E+006.1211491532E+00+
*       1.0000000000E+01               0
GRID*               2243               01.1701883183E+01-1.282567056E+00+
*       1.0000000000E+01               0
GRID*               2244               0-1.177044490E+01-9.065048719E-02+
*       1.0000000000E+01               0
GRID*               2245               05.8778409282E-011.1562624302E+01+
*       1.0000000000E+01               0
GRID*               2246               0-9.785178899E+006.7407314799E+00+
*       1.0000000000E+01               0
GRID*               2247               0-9.330817030E+008.2861225705E+00+
*       1.0000000000E+01               0
GRID*               2248               0-9.016075270E+009.3741901006E+00+
*       1.0000000000E+01               0
GRID*               2249               01.0418942467E+015.7147445218E+00+
*       1.0000000000E+01               0
GRID*               2250               01.0123438519E+017.2982397764E+00+
*       1.0000000000E+01               0
GRID*               2251               09.9204575199E+008.4126349363E+00+
*       1.0000000000E+01               0
GRID*               2252               05.3418341875E+00-1.044334625E+01+
*       1.0000000000E+01               0
GRID*               2253               07.1024639343E+00-1.047549604E+01+
*       1.0000000000E+01               0
GRID*               2254               08.1954516799E+00-1.034577094E+01+
*       1.0000000000E+01               0
GRID*               2255               0-6.371014726E+00-9.848629949E+00+
*       1.0000000000E+01               0
GRID*               2256               0-8.125818915E+00-9.702289567E+00+
*       1.0000000000E+01               0
GRID*               2257               0-9.200030182E+00-9.462569678E+00+
*       1.0000000000E+01               0
GRID*               2258               09.7752977611E+009.6407349917E+00+
*       2.4747929706E+01               0
GRID*               2259               01.2424535338E+012.8188896496E+00+
*       2.5438860021E+01               0
GRID*               2260               09.5506091247E+007.1114359283E+00+
*       3.2140824877E+01               0
GRID*               2261               05.3486520899E+003.2744187448E+00+
*       2.5746358433E+01               0
GRID*               2262               0-8.641197937E-018.9615895883E+00+
*       3.0339953008E+01               0
GRID*               2263               0-3.352633563E+002.5797575818E+00+
*       2.6155307391E+01               0
GRID*               2264               02.6452050908E+008.3592037304E+00+
*       2.3151929656E+01               0
GRID*               2265               08.4699308252E+00-2.625687853E+00+
*       2.0459288872E+01               0
GRID*               2266               04.8058091743E+00-2.646095151E+00+
*       2.4794087714E+01               0
GRID*               2267               0-1.864282662E+00-5.817741403E-01+
*       2.2880568543E+01               0
GRID*               2268               02.5666103927E+001.3927230086E+00+
*       3.1006915114E+01               0
GRID*               2269               03.4870007649E+001.4723715524E+00+
*       1.8677926161E+01               0
GRID*               2270               01.6432561893E+00-6.626469905E+00+
*       3.0316590590E+01               0
GRID*               2271               02.9723983813E-01-7.877222839E+00+
*       3.7362434168E+01               0
GRID*               2272               02.3917717613E+00-3.403378444E+00+
*       3.6343522694E+01               0
GRID*               2273               0-3.796907305E+00-8.535932782E+00+
*       3.3701848104E+01               0
GRID*               2274               0-3.788656378E+00-1.203443345E+01+
*       2.9379840649E+01               0
GRID*               2275               01.6729359614E+00-9.167281074E+00+
*       2.4835169588E+01               0
GRID*               2276               0-4.777148790E+00-3.920488261E+00+
*       2.8408386718E+01               0
GRID*               2277               0-4.258508911E+002.6519578588E-01+
*       3.6189070364E+01               0
GRID*               2278               0-9.183515893E+00-9.587133046E+00+
*       3.8380790909E+01               0
GRID*               2279               0-6.372820993E+00-4.959198529E+00+
*       3.8112203495E+01               0
GRID*               2280               0-2.370893194E+00-1.157318988E+01+
*       3.8950012802E+01               0
GRID*               2281               0-1.105016211E+01-8.194319698E+00+
*       3.2973086547E+01               0
GRID*               2282               0-1.103604013E+01-2.573437074E+00+
*       3.2502359565E+01               0
GRID*               2283               04.1976542085E+00-9.413316627E+00+
*       4.2541929905E+01               0
GRID*               2284               0-4.999811274E+003.3531630511E+00+
*       4.2687980417E+01               0
GRID*               2285               0-8.016813458E+00-1.643858179E-01+
*       4.1939257951E+01               0
GRID*               2286               0-3.055422956E+00-3.458238982E+00+
*       4.1915745252E+01               0
GRID*               2287               0-1.486114855E+00-7.655038151E+00+
*       4.2413279313E+01               0
GRID*               2288               0-8.098152967E+00-5.557635226E+00+
*       4.2300196089E+01               0
GRID*               2289               0-5.015178375E+00-1.028853283E+01+
*       4.2487315079E+01               0
GRID*               2290               02.5795137974E+00-5.462302027E+00+
*       4.0982634095E+01               0
GRID*               2291               09.1144738260E+00-9.273342374E+00+
*       3.9362646676E+01               0
GRID*               2292               05.8691942078E+00-9.584993431E+00+
*       3.3658958404E+01               0
GRID*               2293               01.5377374806E+00-1.348752028E+01+
*       3.4329495647E+01               0
GRID*               2294               08.0980721958E+003.4866191018E+00+
*       1.9096233784E+01               0
GRID*               2295               07.2377591441E+00-1.857990681E+00+
*       3.1956979720E+01               0
GRID*               2296               05.0721421198E-01-3.187742887E+00+
*       1.8568265812E+01               0
GRID*               2297               05.6211303429E+00-7.255112330E+00+
*       1.8452472927E+01               0
GRID*               2298               08.7675875203E+00-9.236344973E+00+
*       2.3971501749E+01               0
GRID*               2299               01.2831263291E+01-3.237943598E+00+
*       2.5239260567E+01               0
GRID*               2300               01.1425238319E+01-6.195300927E+00+
*       3.0788292474E+01               0
GRID*               2301               0-2.045737343E+015.0495162405E+00+
*       2.3225625187E+01               0
GRID*               2302               0-1.190233884E+011.6700196512E+01+
*       2.2905828774E+01               0
GRID*               2303               05.2580125465E+00-2.425707697E+00+
*       4.0083208838E+01               0
GRID*               2304               06.5524537472E+00-4.875792272E+00+
*       4.2803585910E+01               0
GRID*               2305               06.0707403400E+005.1479708600E+00+
*       4.2315582083E+01               0
GRID*               2306               08.2364099015E+002.1264276339E+00+
*       3.8224211062E+01               0
GRID*               2307               07.7014602416E+007.5972647233E-02+
*       4.2954503329E+01               0
GRID*               2308               01.1107171889E+01-4.632616756E+00+
*       3.8973590395E+01               0
GRID*               2309               0-5.132747476E+001.4061573030E+01+
*       1.2840396885E+01               0
GRID*               2310               0-6.598864003E+001.2722225261E+01+
*       1.9783827163E+01               0
GRID*               2311               0-9.473936540E-011.4588476973E+01+
*       1.7914634425E+01               0
GRID*               2312               0-4.208547391E+001.9629203037E+01+
*       1.6325835220E+01               0
GRID*               2313               0-1.192299022E+011.7160785610E+01+
*       1.7948051954E+01               0
GRID*               2314               0-2.257390363E+002.0803831469E+01+
*       2.2024219789E+01               0
GRID*               2315               08.8754508199E-011.8742318153E+01+
*       1.8434137350E+01               0
GRID*               2316               0-9.628650564E+001.9166596920E+01+
*       1.4051903128E+01               0
GRID*               2317               07.8616572704E+001.0370327209E+01+
*       1.3785246146E+01               0
GRID*               2318               07.0724784913E+001.4550691015E+00+
*       1.4163886067E+01               0
GRID*               2319               01.2864697759E+011.6693023394E+00+
*       1.2872722506E+01               0
GRID*               2320               08.5796499180E+005.4841178839E+00+
*       1.3093746755E+01               0
GRID*               2321               01.3411032548E+016.8202955614E+00+
*       1.8180427711E+01               0
GRID*               2322               02.5432869593E+004.9797315274E+00+
*       1.3832250625E+01               0
GRID*               2323               06.5514992672E+001.1682044694E+01+
*       1.9280855938E+01               0
GRID*               2324               0-1.283186927E+01-4.808523628E+00+
*       3.8960477765E+01               0
GRID*               2325               01.3168200870E+015.6608453366E+00+
*       1.2588571157E+01               0
GRID*               2326               01.1111110349E+011.0720600230E+01+
*       1.2741425127E+01               0
GRID*               2327               01.9827057746E+01-7.593913886E+00+
*       2.1677307368E+01               0
GRID*               2328               01.8158311372E+01-5.863028161E+00+
*       1.4081389687E+01               0
GRID*               2329               01.9637454027E+015.7196595546E-02+
*       1.4803563820E+01               0
GRID*               2330               01.7396480974E+01-1.085923728E+00+
*       1.8275790489E+01               0
GRID*               2331               01.1657887405E+01-1.149923257E+00+
*       1.8178738438E+01               0
GRID*               2332               01.5753456706E+012.8833732728E+00+
*       1.9313927538E+01               0
GRID*               2333               01.7597330973E+01-6.553677546E-01+
*       2.5057525899E+01               0
GRID*               2334               0-1.040481585E+014.9402544432E+00+
*       4.2779711636E+01               0
GRID*               2335               0-6.880329944E+005.9649670259E+00+
*       4.1056701797E+01               0
GRID*               2336               0-9.293778591E+003.9574420730E+00+
*       3.6733407061E+01               0
GRID*               2337               0-1.999848529E+015.9335598991E+00+
*       1.4972096465E+01               0
GRID*               2338               0-1.184766952E+017.0352270913E+00+
*       3.8513766811E+01               0
GRID*               2339               0-1.235791898E+012.5180953753E-01+
*       4.1106824387E+01               0
GRID*               2340               01.5464844744E+011.0341423383E+01+
*       2.5694348126E+01               0
GRID*               2341               01.3661829812E+011.2944210518E+01+
*       1.9641867481E+01               0
GRID*               2342               01.3823316861E+01-1.412479483E+01+
*       2.4090693623E+01               0
GRID*               2343               01.7466812973E+01-1.208261663E+01+
*       2.0853448168E+01               0
GRID*               2344               01.3439276330E+01-1.554477507E+01+
*       1.7523996576E+01               0
GRID*               2345               0-1.531555932E+011.4594116068E+01+
*       1.4374576628E+01               0
GRID*               2346               01.5284228113E+011.4506427075E+01+
*       2.3638001527E+01               0
GRID*               2347               01.8532544508E+019.6359300579E+00+
*       1.8432203205E+01               0
GRID*               2348               0-1.347242514E+007.7176235758E+00+
*       2.0138256549E+01               0
GRID*               2349               0-2.568416830E+005.9403518192E+00+
*       3.6681084318E+01               0
GRID*               2350               0-5.869506985E+006.0119072044E+00+
*       3.0838218351E+01               0
GRID*               2351               0-4.979374969E+002.8212477654E+00+
*       1.8831338171E+01               0
GRID*               2352               0-8.826043087E+004.2027603604E+00+
*       2.5108045641E+01               0
GRID*               2353               0-1.000930516E+01-1.243453720E+00+
*       2.1096753550E+01               0
GRID*               2354               0-5.585492196E+007.7701377123E+00+
*       2.1840159442E+01               0
GRID*               2355               01.7803729291E+001.6571758183E+01+
*       2.5775638764E+01               0
GRID*               2356               06.0286646172E+001.0936674471E+01+
*       3.0797136846E+01               0
GRID*               2357               01.7653703967E-011.0731514939E+01+
*       1.3972859901E+01               0
GRID*               2358               07.3026242016E+00-3.164700802E+00+
*       1.3560221652E+01               0
GRID*               2359               06.9637123871E+00-8.710160906E+00+
*       1.3542051491E+01               0
GRID*               2360               01.2162201887E+01-6.303035274E+00+
*       1.4194849789E+01               0
GRID*               2361               09.8203848150E+00-8.581146072E+00+
*       1.6714223436E+01               0
GRID*               2362               01.0175239119E+01-1.280769095E+01+
*       1.2977297629E+01               0
GRID*               2363               0-8.987428958E+001.0122761648E+01+
*       2.5554305991E+01               0
GRID*               2364               0-1.508297448E+011.0337210397E+01+
*       2.5468168078E+01               0
GRID*               2365               0-1.198171566E+013.9032262580E+00+
*       2.0312554729E+01               0
GRID*               2366               01.4650156308E+01-1.063673390E+01+
*       1.4822941818E+01               0
GRID*               2367               01.2108239964E+01-8.073504271E+00+
*       1.9934036563E+01               0
GRID*               2368               08.8590533444E+00-1.419797117E+01+
*       1.8598688527E+01               0
GRID*               2369               0-1.135789356E+013.9055944280E+00+
*       3.1667108566E+01               0
GRID*               2370               0-1.202690520E+01-6.895781728E-01+
*       2.5816666161E+01               0
GRID*               2371               05.4844449937E+00-1.809648884E+01+
*       1.4414744323E+01               0
GRID*               2372               05.2886161695E+00-1.998068913E+01+
*       2.0149629446E+01               0
GRID*               2373               0-6.569361878E+00-1.199918491E+01+
*       2.5858572613E+01               0
GRID*               2374               0-4.358144123E+00-7.378082793E+00+
*       2.1084192771E+01               0
GRID*               2375               02.8900743320E+003.8181099250E+00+
*       3.6513408554E+01               0
GRID*               2376               06.5329631494E+001.0594826287E+01+
*       3.8948267289E+01               0
GRID*               2377               09.2522682652E-019.1832039837E-01+
*       4.0810657473E+01               0
GRID*               2378               01.1997084149E+019.0886313287E-01+
*       4.0465483515E+01               0
GRID*               2379               01.3316125825E+011.6787391162E+00+
*       3.2311047142E+01               0
GRID*               2380               0-9.773132412E+008.8446342055E-01+
*       1.3128499360E+01               0
GRID*               2381               0-9.053063976E+007.0029989512E+00+
*       1.7778915376E+01               0
GRID*               2382               01.8383607424E+016.0285908622E+00+
*       2.5661468854E+01               0
GRID*               2383               01.5578503790E+01-8.650541580E+00+
*       2.6150565920E+01               0
GRID*               2384               01.5226095232E+011.1225383991E+01+
*       1.4575006586E+01               0
GRID*               2385               01.0283690520E+01-7.525033327E+00+
*       3.4988341012E+01               0
GRID*               2386               01.0543448226E+017.3322995632E+00+
*       3.9788614728E+01               0
GRID*               2387               0-8.213997911E+001.0927650812E+01+
*       3.3129701109E+01               0
GRID*               2388               0-9.844373637E+00-7.189397896E+00+
*       2.6482390309E+01               0
GRID*               2389               0-1.560441610E+01-5.607256183E+00+
*       2.6110385201E+01               0
GRID*               2390               0-5.494393287E+001.0969464929E+01+
*       4.0024302541E+01               0
GRID*               2391               0-5.602085122E-018.9034300289E+00+
*       3.6694992291E+01               0
GRID*               2392               0-3.611290447E+008.2207335494E+00+
*       4.2680788934E+01               0
GRID*               2393               01.8141136253E+007.7066555201E+00+
*       4.2650805805E+01               0
GRID*               2394               01.0765653119E+00-1.276421187E+01+
*       3.8721483267E+01               0
GRID*               2395               09.7565876546E+001.6630530407E+01+
*       1.4567058364E+01               0
GRID*               2396               03.7703927922E+001.3204864677E+01+
*       1.2915501332E+01               0
GRID*               2397               06.2935670070E+002.0239715195E+01+
*       1.8545088060E+01               0
GRID*               2398               04.4389207265E+002.0799494757E+01+
*       2.3121210792E+01               0
GRID*               2399               08.0892679010E+001.5658603542E+01+
*       2.6010224106E+01               0
GRID*               2400               01.0590890912E+011.6597962062E+01+
*       2.2861334890E+01               0
GRID*               2401               02.8509306871E+002.1111813284E+01+
*       1.3752070122E+01               0
GRID*               2402               0-1.062947727E+011.2052231299E+01+
*       1.2530692705E+01               0
GRID*               2403               0-5.068683433E+001.0529441519E+01+
*       1.3748866322E+01               0
GRID*               2404               0-7.999738243E-01-8.062120270E+00+
*       1.7853122801E+01               0
GRID*               2405               03.5915946562E+00-1.303287792E+01+
*       2.0024158662E+01               0
GRID*               2406               0-1.679335865E+00-1.618213846E+01+
*       2.5932289429E+01               0
GRID*               2407               0-1.331258802E+00-1.413801018E+01+
*       2.0675126205E+01               0
GRID*               2408               05.6471731275E+00-1.251417155E+01+
*       2.6711681652E+01               0
GRID*               2409               04.3668508190E+00-1.721093540E+01+
*       2.5198755851E+01               0
GRID*               2410               01.7361776408E+00-7.905804876E+00+
*       1.3238660078E+01               0
GRID*               2411               0-2.867898880E+00-6.384317154E+00+
*       1.3236084466E+01               0
GRID*               2412               0-6.484343569E+00-1.186009726E+01+
*       1.8939927122E+01               0
GRID*               2413               0-9.523307829E+00-1.694905789E+01+
*       1.4710864759E+01               0
GRID*               2414               0-1.082391622E+01-1.319765379E+01+
*       1.8055554333E+01               0
GRID*               2415               0-1.030415528E+01-1.844531495E+01+
*       2.3223670451E+01               0
GRID*               2416               0-5.284234825E+00-1.737596365E+01+
*       1.6524894447E+01               0
GRID*               2417               0-3.560964368E+00-1.165284782E+01+
*       1.2597099057E+01               0
GRID*               2418               0-5.209714865E+00-1.986134401E+01+
*       2.4905172961E+01               0
GRID*               2419               07.1969428149E-01-2.115039291E+01+
*       2.2433418686E+01               0
GRID*               2420               0-7.259316656E-01-1.887199732E+01+
*       1.5415619073E+01               0
GRID*               2421               0-7.399011841E+00-1.139112166E+01+
*       1.2485399226E+01               0
GRID*               2422               02.1238658783E+013.0357086731E+00+
*       2.2368931550E+01               0
GRID*               2423               02.0386701386E+014.3278100997E+00+
*       1.6984667371E+01               0
GRID*               2424               01.4131591165E+01-1.784657690E+00+
*       1.3079847220E+01               0
GRID*               2425               0-2.665188042E+001.3744953153E+01+
*       2.5143656047E+01               0
GRID*               2426               0-8.281665968E+001.7923489966E+01+
*       2.7082924733E+01               0
GRID*               2427               0-7.454874288E+00-2.632821992E+00+
*       1.4704991940E+01               0
GRID*               2428               0-1.256264612E+01-5.172522264E+00+
*       1.4223713214E+01               0
GRID*               2429               0-8.570950176E+00-7.855796582E+00+
*       1.2928253324E+01               0
GRID*               2430               0-1.188487116E+01-1.196606728E+01+
*       1.2512722556E+01               0
GRID*               2431               0-1.226031218E+01-8.807633860E+00+
*       1.9426069715E+01               0
GRID*               2432               0-1.439397767E+011.1845178928E+00+
*       1.4561197373E+01               0
GRID*               2433               0-1.496584488E+01-1.226123355E+00+
*       1.9508202426E+01               0
GRID*               2434               0-1.630707023E+014.4702387262E+00+
*       2.6890093176E+01               0
GRID*               2435               0-1.841731538E+01-1.102174055E+01+
*       1.4148641608E+01               0
GRID*               2436               0-1.703511031E+01-1.230328552E+01+
*       2.2507524457E+01               0
GRID*               2437               0-1.993514464E+01-5.002190668E+00+
*       1.8357979457E+01               0
GRID*               2438               0-5.715407586E+004.7172970691E+00+
*       1.3617245559E+01               0
GRID*               2439               0-1.605936491E+011.0695931095E+01+
*       1.8338865810E+01               0
GRID*               2440               0-1.214000238E+015.4691914486E+00+
*       1.3771537793E+01               0
GRID*               2441               01.0739146802E+01-1.752231213E+01+
*       2.4617963134E+01               0
GRID*               2442               0-1.269774049E+00-4.473104128E-01+
*       1.3788655008E+01               0
GRID*               2443               0-1.949203022E+012.0050324746E+00+
*       1.5019287644E+01               0
GRID*               2444               0-2.062189662E+01-2.345179605E+00+
*       2.4300448168E+01               0
GRID*               2445               0-1.644430822E+01-2.849852143E+00+
*       1.2560978839E+01               0
GRID*               2446               0-8.021875194E-012.0367620259E+01+
*       1.3745447508E+01               0
GRID*               2447               01.7085516317E+015.0663806660E+00+
*       1.4156680145E+01               0
GRID*               2448               01.3829506163E-011.5521975749E+01+
*       1.2896070496E+01               0
GRID*               2449               04.0157708304E-011.1667932369E+01+
*       4.2311465235E+01               0
GRID*               2450               04.6710614078E-01-1.278508189E+01+
*       1.3247268715E+01               0
GRID*               2451               0-1.174392035E+01-1.374654087E+01+
*       2.6240354063E+01               0
GRID*               2452               0-1.354481416E+01-1.531197796E+01+
*       1.5981432122E+01               0
GRID*               2453               04.0060126587E+001.2657705887E+01+
*       3.3517919987E+01               0
GRID*               2454               02.2389134442E+001.3322772744E+01+
*       3.9145387779E+01               0
GRID*               2455               0-8.258792146E-011.4094763871E+01+
*       3.1792326496E+01               0
GRID*               2456               06.8530032540E+008.3841357510E+00+
*       4.3230948727E+01               0
GRID*               2457               04.8065743115E+00-1.335388130E+01+
*       1.3015656976E+01               0
GRID*               2458               01.1099916550E+016.2298123206E+00+
*       2.5093394864E+01               0
GRID*               2459               01.0987572231E+014.9651627889E+00+
*       2.8789842449E+01               0
GRID*               2460               09.6629534429E+008.3760854600E+00+
*       2.8444377291E+01               0
GRID*               2461               07.5619749255E+006.4575768682E+00+
*       2.5247144069E+01               0
GRID*               2462               08.8865937141E+003.0466541972E+00+
*       2.5592609227E+01               0
GRID*               2463               07.4496306073E+005.1929273365E+00+
*       2.8943591655E+01               0
GRID*               2464               09.9800926362E-012.9270881633E+00+
*       2.5950832912E+01               0
GRID*               2465               0-2.108376678E+005.7706735851E+00+
*       2.8247630200E+01               0
GRID*               2466               02.2422661481E+006.1180041665E+00+
*       2.8043155720E+01               0
GRID*               2467               03.9969285903E+005.8168112376E+00+
*       2.4449144044E+01               0
GRID*               2468               0-3.537142359E-015.4694806561E+00+
*       2.4653618523E+01               0
GRID*               2469               08.9054264854E-018.6603966594E+00+
*       2.6745941332E+01               0
GRID*               2470               06.9092914575E+003.2436544576E-01+
*       2.3102823653E+01               0
GRID*               2471               01.0447233082E+019.6600898159E-02+
*       2.2949074447E+01               0
GRID*               2472               08.6151722563E+008.6397249295E-02+
*       2.5116473868E+01               0
GRID*               2473               05.0772306321E+003.1416179690E-01+
*       2.5270223073E+01               0
GRID*               2474               06.6378699997E+00-2.635891502E+00+
*       2.2626688293E+01               0
GRID*               2475               01.7421847140E+001.3463223022E+00+
*       2.4313463488E+01               0
GRID*               2476               01.4707632562E+00-1.613934646E+00+
*       2.3837328129E+01               0
GRID*               2477               03.9576312413E+002.3335708767E+00+
*       2.8376636773E+01               0
GRID*               2478               03.5116386536E-014.0547443415E-01+
*       2.6943741829E+01               0
GRID*               2479               03.6862097835E+00-6.266860712E-01+
*       2.7900501414E+01               0
GRID*               2480               04.4178264274E+002.3733951486E+00+
*       2.2212142297E+01               0
GRID*               2481               05.9784657950E+00-5.766581504E-01+
*       1.9568607517E+01               0
GRID*               2482               04.1464049696E+00-5.868617993E-01+
*       2.1736006937E+01               0
GRID*               2483               09.7024801369E-01-7.251846372E+00+
*       3.3839512379E+01               0
GRID*               2484               01.3445057997E+00-5.640300641E+00+
*       3.6852978431E+01               0
GRID*               2485               02.0175139753E+00-5.014924174E+00+
*       3.3330056642E+01               0
GRID*               2486               0-1.076825558E+00-7.581201343E+00+
*       3.2009219347E+01               0
GRID*               2487               0-1.749833733E+00-8.206577810E+00+
*       3.5532141136E+01               0
GRID*               2488               0-7.025677717E-01-5.969655613E+00+
*       3.5022685399E+01               0
GRID*               2489               01.6580960753E+00-7.896875489E+00+
*       2.7575880089E+01               0
GRID*               2490               0-1.057860208E+00-1.060085726E+01+
*       2.7107505118E+01               0
GRID*               2491               0-1.072700094E+00-9.330451678E+00+
*       2.9848215619E+01               0
GRID*               2492               0-1.566946300E+00-5.273479083E+00+
*       2.9362488654E+01               0
GRID*               2493               0-1.552106414E+00-6.543884667E+00+
*       2.6621778153E+01               0
GRID*               2494               0-4.282902584E+00-7.977460856E+00+
*       2.8894113683E+01               0
GRID*               2495               0-3.792781841E+00-1.028518312E+01+
*       3.1540844376E+01               0
GRID*               2496               0-4.287028047E+00-6.228210522E+00+
*       3.1055117411E+01               0
GRID*               2497               0-1.980634536E+00-3.806013526E+00+
*       3.6775752266E+01               0
GRID*               2498               0-9.333685747E-01-1.569091329E+00+
*       3.6266296529E+01               0
GRID*               2499               0-4.027708108E+00-4.135368498E+00+
*       3.4945459234E+01               0
GRID*               2500               0-5.084864149E+00-6.747565655E+00+
*       3.5907025799E+01               0
GRID*               2501               0-7.778168443E+00-7.273165788E+00+
*       3.8246497202E+01               0
GRID*               2502               0-6.490211599E+00-9.061532914E+00+
*       3.6041319507E+01               0
GRID*               2503               0-3.083900249E+00-1.005456133E+01+
*       3.6325930453E+01               0
GRID*               2504               0-4.371857094E+00-8.266194203E+00+
*       3.8531108149E+01               0
GRID*               2505               0-5.777204543E+00-1.058016146E+01+
*       3.8665401856E+01               0
GRID*               2506               0-3.037790578E+00-6.418210684E+00+
*       3.7737318832E+01               0
GRID*               2507               0-5.315664952E+00-2.347001371E+00+
*       3.7150636929E+01               0
GRID*               2508               0-7.913655452E+00-6.057403980E+00+
*       3.0690736633E+01               0
GRID*               2509               0-7.423534710E+00-8.365126240E+00+
*       3.3337467326E+01               0
GRID*               2510               0-7.416473717E+00-5.554684928E+00+
*       3.3102103834E+01               0
GRID*               2511               0-7.906594460E+00-3.246962668E+00+
*       3.0455373141E+01               0
GRID*               2512               0-1.104310112E+01-5.383878386E+00+
*       3.2737723056E+01               0
GRID*               2513               0-1.985595722E+011.0807474703E+01+
*       1.2499997057E+01               0
GRID*               2514               0-1.862888650E+011.3018981176E+01+
*       1.2499992804E+01               0
GRID*               2515               05.5289474711E+00-8.795486107E+00+
*       4.3770964952E+01               0
GRID*               2516               03.9409720443E+00-8.842920405E+00+
*       4.3770964952E+01               0
GRID*               2517               04.5164847683E+00-7.884256369E+00+
*       4.3770964952E+01               0
GRID*               2518               0-7.419409246E+00-1.011437657E+01+
*       3.1176463598E+01               0
GRID*               2519               0-6.284535902E+002.9759523631E+00+
*       4.3843990209E+01               0
GRID*               2520               0-6.396873267E+001.5237920917E+00+
*       4.3843990209E+01               0
GRID*               2521               0-7.905374360E+00-2.349823428E-01+
*       4.3469628976E+01               0
GRID*               2522               0-7.793036994E+001.2171779285E+00+
*       4.3469628976E+01               0
GRID*               2523               0-6.508312366E+001.5943886166E+00+
*       4.2313619184E+01               0
GRID*               2524               0-3.929467924E+00-6.307118340E+00+
*       4.0262741404E+01               0
GRID*               2525               0-2.270768905E+00-5.556638566E+00+
*       4.2164512283E+01               0
GRID*               2526               0-4.714121975E+00-4.208718755E+00+
*       4.0013974374E+01               0
GRID*               2527               0-7.235486980E+00-5.258416877E+00+
*       4.0206199792E+01               0
GRID*               2528               0-4.792133911E+00-6.606336688E+00+
*       4.2356737701E+01               0
GRID*               2529               0-5.576787962E+00-4.507937104E+00+
*       4.2107970671E+01               0
GRID*               2530               0-8.510089958E+00-8.077955062E+00+
*       4.3650098045E+01               0
GRID*               2531               0-7.427747177E+00-6.939424801E+00+
*       4.3650098045E+01               0
GRID*               2532               0-6.968602662E+00-1.044340386E+01+
*       4.3743657540E+01               0
GRID*               2533               0-6.556665671E+00-7.923084027E+00+
*       4.2393755584E+01               0
GRID*               2534               0-5.886259881E+00-9.304873602E+00+
*       4.3743657540E+01               0
GRID*               2535               0-9.052771421E+00-1.009270397E+01+
*       4.1690395455E+01               0
GRID*               2536               0-1.036592986E+01-8.578001704E+00+
*       4.1690395455E+01               0
GRID*               2537               0-8.640834430E+00-7.572384136E+00+
*       4.0340493499E+01               0
GRID*               2538               0-9.823248399E+00-6.563252794E+00+
*       4.3650098045E+01               0
GRID*               2539               0-6.439582543E+00-6.003417797E+00+
*       4.3650098045E+01               0
GRID*               2540               0-3.133563487E+00-7.052119259E+00+
*       4.3706639657E+01               0
GRID*               2541               0-4.898095247E+00-8.368866598E+00+
*       4.3743657540E+01               0
GRID*               2542               0-3.250646615E+00-8.971785489E+00+
*       4.2450297196E+01               0
GRID*               2543               02.4856427793E+00-4.432840235E+00+
*       3.8663078395E+01               0
GRID*               2544               01.4383768178E+00-6.669762433E+00+
*       3.9172534132E+01               0
GRID*               2545               04.7058568321E+00-8.575282607E+00+
*       3.8362540422E+01               0
GRID*               2546               05.7531227937E+00-6.338360409E+00+
*       3.7853084685E+01               0
GRID*               2547               05.8469938117E+00-7.367822201E+00+
*       4.0172640386E+01               0
GRID*               2548               0-1.379091559E+00-5.667730910E+00+
*       3.9639089710E+01               0
GRID*               2549               0-3.656965933E+00-1.596521598E+00+
*       3.9052407808E+01               0
GRID*               2550               0-1.192688514E+00-3.661933353E+00+
*       3.2375954706E+01               0
GRID*               2551               03.0832170230E+00-8.731108135E+00+
*       3.5510696286E+01               0
GRID*               2552               04.1304829846E+00-6.494185938E+00+
*       3.5001240549E+01               0
GRID*               2553               07.4918340169E+00-9.429167903E+00+
*       3.6510802540E+01               0
GRID*               2554               03.7562251985E+00-8.105731668E+00+
*       3.1987774497E+01               0
GRID*               2555               01.5904968349E+00-1.005699509E+01+
*       3.2323043118E+01               0
GRID*               2556               03.7034658442E+00-1.153625685E+01+
*       3.3994227025E+01               0
GRID*               2557               09.1748865938E-01-1.068237156E+01+
*       3.5845964908E+01               0
GRID*               2558               0-1.036826678E+00-9.725206358E+00+
*       3.8156223485E+01               0
GRID*               2559               0-8.263349156E+00-1.283372747E+01+
*       3.6668654547E+01               0
GRID*               2560               0-5.570044862E+00-1.230812734E+01+
*       3.4329183145E+01               0
GRID*               2561               0-9.196672267E+00-1.213732080E+01+
*       3.3964802366E+01               0
GRID*               2562               0-1.011683900E+01-8.890726372E+00+
*       3.5676938728E+01               0
GRID*               2563               0-4.517828850E+00-1.827646238E+00+
*       3.2298728541E+01               0
GRID*               2564               0-7.647274520E+00-1.154120644E+00+
*       3.4345714964E+01               0
GRID*               2565               06.7233621429E+003.3805189233E+00+
*       2.2421296108E+01               0
GRID*               2566               08.2840015105E+004.3046562427E-01+
*       1.9777761328E+01               0
GRID*               2567               05.7925364803E+002.4794953271E+00+
*       1.8887079972E+01               0
GRID*               2568               09.8311472412E+004.8044948432E-01+
*       2.8697919871E+01               0
GRID*               2569               08.3941841344E+002.6267226237E+00+
*       3.2048902298E+01               0
GRID*               2570               06.2932056170E+007.0821403192E-01+
*       2.8851669077E+01               0
GRID*               2571               06.0586097587E+004.2520794685E+00+
*       3.1573869995E+01               0
GRID*               2572               04.9021847684E+00-2.326338361E-01+
*       3.1481947417E+01               0
GRID*               2573               03.2245326818E+00-4.636282528E+00+
*       2.7555339152E+01               0
GRID*               2574               0-1.105132364E-01-3.604122023E+00+
*       2.6598579567E+01               0
GRID*               2575               03.2393725678E+00-5.906688112E+00+
*       2.4814628651E+01               0
GRID*               2576               0-9.567335029E-02-4.874527607E+00+
*       2.3857869066E+01               0
GRID*               2577               04.4885725186E+00-2.906715370E+00+
*       1.9513777342E+01               0
GRID*               2578               02.6565116931E+00-2.916919019E+00+
*       2.1681176763E+01               0
GRID*               2579               01.9971074884E+00-8.576856672E-01+
*       1.8623095986E+01               0
GRID*               2580               05.2134697586E+00-4.950603741E+00+
*       2.1623280320E+01               0
GRID*               2581               07.0455305840E+00-4.940400092E+00+
*       1.9455880900E+01               0
GRID*               2582               08.6187591728E+00-5.931016413E+00+
*       2.2215395311E+01               0
GRID*               2583               06.7866983473E+00-5.941220062E+00+
*       2.4382794731E+01               0
GRID*               2584               07.1943589316E+00-8.245728651E+00+
*       2.1211987338E+01               0
GRID*               2585               08.8185362327E+00-2.942019374E+00+
*       2.5016674141E+01               0
GRID*               2586               01.0034511218E+01-2.547967139E+00+
*       2.8598120144E+01               0
GRID*               2587               06.0217841592E+00-2.252042916E+00+
*       2.8375533717E+01               0
GRID*               2588               08.1155237468E+00-4.420698039E+00+
*       2.7791190094E+01               0
GRID*               2589               01.2128250805E+01-4.716622262E+00+
*       2.8013776521E+01               0
GRID*               2590               09.3314987317E+00-4.026645804E+00+
*       3.1372636097E+01               0
GRID*               2591               0-2.273961108E+013.6871887224E+00+
*       2.7499995346E+01               0
GRID*               2592               0-2.299610295E+011.1708712092E+00+
*       2.7500000000E+01               0
GRID*               2593               0-2.272868672E+012.5247581202E+00+
*       2.4112812594E+01               0
GRID*               2594               0-2.247219485E+015.0410756335E+00+
*       2.4112807939E+01               0
GRID*               2595               0-2.072478967E+013.6956293294E+00+
*       2.6612812594E+01               0
GRID*               2596               0-1.173937085E+011.5030038839E+01+
*       2.6452914387E+01               0
GRID*               2597               0-1.388195311E+011.5185312698E+01+
*       2.6452914387E+01               0
GRID*               2598               0-1.218397738E+011.6863203015E+01+
*       2.6452914387E+01               0
GRID*               2599               03.8248921539E+00-2.914543070E+00+
*       3.8213365766E+01               0
GRID*               2600               03.9187631719E+00-3.944004862E+00+
*       4.0532921467E+01               0
GRID*               2601               07.1862431863E+00-5.849525035E+00+
*       3.9722927757E+01               0
GRID*               2602               02.2402635343E+00-4.934990444E+00+
*       4.2991317048E+01               0
GRID*               2603               03.5795129089E+00-3.416693279E+00+
*       4.2541604419E+01               0
GRID*               2604               04.2267335093E+00-4.641735566E+00+
*       4.3901792955E+01               0
GRID*               2605               04.5659837723E+00-5.169047149E+00+
*       4.1893110003E+01               0
GRID*               2606               05.9052331469E+00-3.650749984E+00+
*       4.1443397374E+01               0
GRID*               2607               06.7472112240E+00-1.496400313E-01+
*       3.9153709950E+01               0
GRID*               2608               07.1535751208E+003.6371992469E+00+
*       4.0269896572E+01               0
GRID*               2609               05.6643764432E+001.3611315817E+00+
*       4.1199395461E+01               0
GRID*               2610               06.4797363940E+00-1.174867525E+00+
*       4.1518856084E+01               0
GRID*               2611               07.9689350715E+001.1012001405E+00+
*       4.0589357195E+01               0
GRID*               2612               06.8861002908E+002.6119717536E+00+
*       4.2635042706E+01               0
GRID*               2613               08.1825922176E+00-3.529162226E+00+
*       3.9528399617E+01               0
GRID*               2614               09.6717908951E+00-1.253094561E+00+
*       3.8598900728E+01               0
GRID*               2615               09.4043160651E+00-2.278322054E+00+
*       4.0964046862E+01               0
GRID*               2616               04.9845039888E+00-2.396571696E+00+
*       4.2541604419E+01               0
GRID*               2617               05.6317245892E+00-3.621613984E+00+
*       4.3901792955E+01               0
GRID*               2618               06.2062278363E+00-1.145731524E+00+
*       4.3977251664E+01               0
GRID*               2619               07.1269569944E+00-2.399909812E+00+
*       4.2879044620E+01               0
GRID*               2620               0-5.865805739E+001.3391899145E+01+
*       1.6312112024E+01               0
GRID*               2621               0-3.773128828E+001.3655351117E+01+
*       1.8849230794E+01               0
GRID*               2622               0-3.040070565E+001.4325025001E+01+
*       1.5377515655E+01               0
GRID*               2623               0-4.670647433E+001.6845388033E+01+
*       1.4583116052E+01               0
GRID*               2624               0-5.403705697E+001.6175714149E+01+
*       1.8054831191E+01               0
GRID*               2625               0-2.577970523E+001.7108840005E+01+
*       1.7120234823E+01               0
GRID*               2626               0-8.065768803E+001.8394994324E+01+
*       1.7136943587E+01               0
GRID*               2627               0-9.260927109E+001.4941505436E+01+
*       1.8865939559E+01               0
GRID*               2628               0-4.428127183E+001.6763028365E+01+
*       2.0904023476E+01               0
GRID*               2629               0-3.232968877E+002.0216517253E+01+
*       1.9175027504E+01               0
GRID*               2630               0-7.090190289E+001.8982308540E+01+
*       1.9986135871E+01               0
GRID*               2631               0-2.145235406E+01-6.983042592E+00+
*       1.2499988933E+01               0
GRID*               2632               0-2.221041777E+01-4.570327265E+00+
*       1.2499972505E+01               0
GRID*               2633               0-4.954037433E-012.2885857942E+01+
*       2.1012087089E+01               0
GRID*               2634               0-3.021413112E+002.2757786814E+01+
*       2.1012108712E+01               0
GRID*               2635               0-1.448945390E+002.1727030156E+01+
*       1.9217067493E+01               0
GRID*               2636               01.0770639791E+002.1855101284E+01+
*       1.9217045869E+01               0
GRID*               2637               0-6.849226404E-011.9773074811E+01+
*       2.0229178569E+01               0
GRID*               2638               0-1.602392008E+001.7696154221E+01+
*       1.9969427107E+01               0
GRID*               2639               0-2.992428598E-021.6665397563E+01+
*       1.8174385888E+01               0
GRID*               2640               0-1.660501155E+001.9185760595E+01+
*       1.7379986285E+01               0
GRID*               2641               0-5.678296805E+001.9320567407E+01+
*       1.3162917610E+01               0
GRID*               2642               0-6.444481144E+002.1533830029E+01+
*       1.5662918273E+01               0
GRID*               2643               0-7.914230558E+002.1225194398E+01+
*       1.2500000663E+01               0
GRID*               2644               0-8.388348391E+001.9089264348E+01+
*       1.2025951564E+01               0
GRID*               2645               0-6.918598977E+001.9397899979E+01+
*       1.5188869174E+01               0
GRID*               2646               0-9.154532730E+002.1302526970E+01+
*       1.4525952226E+01               0
GRID*               2647               07.6413256976E+001.2483092194E+01+
*       1.1892623073E+01               0
GRID*               2648               08.4862909136E+001.0331458568E+01+
*       1.1892623073E+01               0
GRID*               2649               09.1969111541E+001.1691784284E+01+
*       1.1892623073E+01               0
GRID*               2650               0-6.444352653E+002.1533665525E+01+
*       1.8162920152E+01               0
GRID*               2651               0-1.030157406E+012.0299456812E+01+
*       1.8974028519E+01               0
GRID*               2652               0-9.154404239E+002.1302362466E+01+
*       1.7025954106E+01               0
GRID*               2653               0-1.077582039E+011.8163691265E+01+
*       1.5999977541E+01               0
GRID*               2654               01.0481384978E+012.5779607206E+00+
*       1.5984478145E+01               0
GRID*               2655               09.9685881252E+001.5621857205E+00+
*       1.3518304287E+01               0
GRID*               2656               07.5852753435E+002.4708441016E+00+
*       1.6630059926E+01               0
GRID*               2657               08.3388610569E+004.4853684929E+00+
*       1.6094990269E+01               0
GRID*               2658               01.0722173839E+013.5767101117E+00+
*       1.2983234631E+01               0
GRID*               2659               07.8260642047E+003.4695934927E+00+
*       1.3628816411E+01               0
GRID*               2660               08.2206535942E+007.9272225462E+00+
*       1.3439496451E+01               0
GRID*               2661               07.9798647331E+006.9284731551E+00+
*       1.6440739965E+01               0
GRID*               2662               01.0754552372E+015.1534573316E+00+
*       1.8638330747E+01               0
GRID*               2663               01.0995341233E+016.1522067227E+00+
*       1.5637087233E+01               0
GRID*               2664               01.0636344909E+018.5953113849E+00+
*       1.5982836928E+01               0
GRID*               2665               05.2024721149E+007.6750293680E+00+
*       1.3808748385E+01               0
GRID*               2666               05.3206795776E+004.2331753146E+00+
*       1.6464242204E+01               0
GRID*               2667               07.3247857315E+007.5843318979E+00+
*       1.9188544861E+01               0
GRID*               2668               07.2065782688E+001.1026185951E+01+
*       1.6533051042E+01               0
GRID*               2669               04.5473931133E+008.3308881107E+00+
*       1.6556553281E+01               0
GRID*               2670               0-1.540030694E+01-2.539961335E+00+
*       4.2478201874E+01               0
GRID*               2671               0-1.575843717E+01-4.945483320E-02+
*       4.2478176395E+01               0
GRID*               2672               0-1.333553705E+01-2.453716647E+00+
*       4.1980238882E+01               0
GRID*               2673               0-1.489663917E+01-4.894768316E+00+
*       3.9458440756E+01               0
GRID*               2674               0-1.525476940E+01-2.404261814E+00+
*       3.9458415278E+01               0
GRID*               2675               01.0116517093E+016.4136222341E+00+
*       1.1546873378E+01               0
GRID*               2676               01.0873925394E+015.5724816103E+00+
*       1.2841158956E+01               0
GRID*               2677               01.2410792569E+016.5019859604E+00+
*       1.1294285578E+01               0
GRID*               2678               01.1382247309E+019.0318634069E+00+
*       1.1370712564E+01               0
GRID*               2679               09.8453801333E+008.1023590568E+00+
*       1.2917585941E+01               0
GRID*               2680               01.2139655609E+018.1907227831E+00+
*       1.2664998142E+01               0
GRID*               2681               01.3137865154E+014.2447989504E+00+
*       1.5526575108E+01               0
GRID*               2682               02.2348108429E+01-5.061581316E+00+
*       2.3338656441E+01               0
GRID*               2683               02.1840181329E+01-7.539060325E+00+
*       2.0838656447E+01               0
GRID*               2684               02.1840222761E+01-7.539136822E+00+
*       2.3338644048E+01               0
GRID*               2685               02.2347694185E+01-5.061493078E+00+
*       2.0838655380E+01               0
GRID*               2686               02.1513320998E+01-4.196050215E+00+
*       1.7040696540E+01               0
GRID*               2687               02.1005808142E+01-6.673617462E+00+
*       1.7040697607E+01               0
GRID*               2688               01.8992684559E+01-6.728471023E+00+
*       1.7879348528E+01               0
GRID*               2689               02.2252892325E+01-1.235937837E+00+
*       1.7401783606E+01               0
GRID*               2690               01.8897882699E+01-2.902915782E+00+
*       1.4442476754E+01               0
GRID*               2691               02.1132405799E+01-1.807497999E+00+
*       1.9137896941E+01               0
GRID*               2692               01.8516967500E+01-5.143635662E-01+
*       1.6539677155E+01               0
GRID*               2693               01.7777396173E+01-3.474475944E+00+
*       1.6178590088E+01               0
GRID*               2694               01.5113872132E+01-2.161933663E+00+
*       2.1757525528E+01               0
GRID*               2695               01.4527184189E+01-1.117923493E+00+
*       1.8227264464E+01               0
GRID*               2696               01.2244575348E+01-2.193933427E+00+
*       2.1708999503E+01               0
GRID*               2697               01.4292359999E+01-1.772851623E-01+
*       2.2276594053E+01               0
GRID*               2698               01.6574968840E+018.9872477245E-01+
*       1.8794859014E+01               0
GRID*               2699               01.3705672056E+018.6672500783E-01+
*       1.8746332988E+01               0
GRID*               2700               01.5214297132E+01-1.946655676E+00+
*       2.5148393233E+01               0
GRID*               2701               01.7496905973E+01-8.706457413E-01+
*       2.1666658194E+01               0
GRID*               2702               01.6675393840E+011.1140027591E+00+
*       2.2185726718E+01               0
GRID*               2703               02.1132820043E+01-1.807586237E+00+
*       2.1637898002E+01               0
GRID*               2704               01.8611769360E+01-4.339918807E+00+
*       1.9976548929E+01               0
GRID*               2705               02.1233245043E+01-1.592308250E+00+
*       2.5028765706E+01               0
GRID*               2706               01.8712194359E+01-4.124640820E+00+
*       2.3367416633E+01               0
GRID*               2707               0-6.283651525E+004.0974490426E+00+
*       4.3843990209E+01               0
GRID*               2708               0-8.987038192E+003.7694980591E+00+
*       4.3889855818E+01               0
GRID*               2709               0-8.986153815E+004.8909947387E+00+
*       4.3889855818E+01               0
GRID*               2710               0-7.702313564E+004.1467087472E+00+
*       4.2733846027E+01               0
GRID*               2711               0-9.210814656E+002.3879343126E+00+
*       4.2359484794E+01               0
GRID*               2712               0-8.642572899E+005.4526107345E+00+
*       4.1918206717E+01               0
GRID*               2713               0-7.448571701E+002.9002906040E+00+
*       4.1497979874E+01               0
GRID*               2714               0-8.655296025E+001.8965281275E+00+
*       3.9336332506E+01               0
GRID*               2715               0-9.849297223E+004.4488482581E+00+
*       3.9756559348E+01               0
GRID*               2716               0-8.087054268E+004.9612045494E+00+
*       3.8895054429E+01               0
GRID*               2717               0-1.836949215E+018.8453483714E+00+
*       1.2486048232E+01               0
GRID*               2718               0-2.025787965E+011.0107192704E+01+
*       1.4986041036E+01               0
GRID*               2719               0-2.148495037E+017.8956862305E+00+
*       1.4986045289E+01               0
GRID*               2720               0-1.333256370E+018.5319733283E+00+
*       4.2478177456E+01               0
GRID*               2721               0-1.201862680E+011.0000410233E+01+
*       4.2478177456E+01               0
GRID*               2722               0-1.110019632E+016.2241739184E+00+
*       4.3889855818E+01               0
GRID*               2723               0-1.263718323E+017.2480538531E+00+
*       4.1368033274E+01               0
GRID*               2724               0-9.786259424E+007.6926108234E+00+
*       4.3889855818E+01               0
GRID*               2725               0-1.437627600E+016.2436623242E+00+
*       4.2478174287E+01               0
GRID*               2726               0-1.368089554E+014.9597428489E+00+
*       4.1368030105E+01               0
GRID*               2727               0-9.869810464E+005.4348142242E+00+
*       4.3889855818E+01               0
GRID*               2728               0-8.107567508E+005.9471705155E+00+
*       4.3028350899E+01               0
GRID*               2729               0-7.223910860E+005.4033510300E+00+
*       4.3028350899E+01               0
GRID*               2730               0-1.112624269E+015.9877407672E+00+
*       4.0646739224E+01               0
GRID*               2731               0-9.363999734E+006.5000970586E+00+
*       3.9785234304E+01               0
GRID*               2732               0-1.057072406E+015.4963345821E+00+
*       3.7623586936E+01               0
GRID*               2733               0-1.440232237E+016.0072291730E+00+
*       3.9235057693E+01               0
GRID*               2734               0-1.465744710E+012.6155203961E+00+
*       4.0531586480E+01               0
GRID*               2735               0-1.210279425E+013.6435183144E+00+
*       3.9810295599E+01               0
GRID*               2736               0-1.138136742E+012.5960319904E+00+
*       4.1943268012E+01               0
GRID*               2737               01.2620071253E+019.9910791875E+00+
*       2.5221138916E+01               0
GRID*               2738               01.4437938646E+018.5808594723E+00+
*       2.1937387918E+01               0
GRID*               2739               01.1593165155E+018.2305152765E+00+
*       2.1464178708E+01               0
GRID*               2740               01.1718563787E+011.1292472755E+01+
*       2.2194898593E+01               0
GRID*               2741               01.4563337278E+011.1642816950E+01+
*       2.2668107803E+01               0
GRID*               2742               01.3536431180E+019.8822530395E+00+
*       1.8911147596E+01               0
GRID*               2743               01.6396032274E+01-1.520466410E+01+
*       2.2045327818E+01               0
GRID*               2744               01.5645064917E+01-1.310370573E+01+
*       2.2472070896E+01               0
GRID*               2745               01.8217780330E+01-1.418357500E+01+
*       2.0426705090E+01               0
GRID*               2746               01.6204012009E+01-1.591465422E+01+
*       1.8761979294E+01               0
GRID*               2747               01.3631296596E+01-1.483478495E+01+
*       2.0807345100E+01               0
GRID*               2748               01.5453044652E+01-1.381369585E+01+
*       1.9188722372E+01               0
GRID*               2749               0-1.142636944E+012.0191355373E+01+
*       1.4525944616E+01               0
GRID*               2750               0-1.257353927E+011.9188449718E+01+
*       1.6474019029E+01               0
GRID*               2751               0-1.426982382E+011.7905114947E+01+
*       1.4687281366E+01               0
GRID*               2752               0-1.247210494E+011.6880356494E+01+
*       1.4213239878E+01               0
GRID*               2753               0-1.361927477E+011.5877450839E+01+
*       1.6161314291E+01               0
GRID*               2754               0-3.156007938E+00-1.301562122E+01+
*       3.4329173663E+01               0
GRID*               2755               0-3.151882474E+00-1.476487155E+01+
*       3.2168169936E+01               0
GRID*               2756               0-5.565919399E+00-1.405737767E+01+
*       3.2168179417E+01               0
GRID*               2757               01.2261071448E+018.7704478955E+00+
*       1.5460926419E+01               0
GRID*               2758               09.4863838095E+001.0545463719E+01+
*       1.3263335637E+01               0
GRID*               2759               01.0761743541E+011.1657268863E+01+
*       1.6713556813E+01               0
GRID*               2760               01.2386470081E+011.1832405374E+01+
*       1.6191646304E+01               0
GRID*               2761               01.4473028963E+011.3725318796E+01+
*       2.1639934504E+01               0
GRID*               2762               01.5374536429E+011.2423925229E+01+
*       2.4666174826E+01               0
GRID*               2763               01.6998694626E+019.9886767205E+00+
*       2.2063275665E+01               0
GRID*               2764               01.6097187160E+011.1290070288E+01+
*       1.9037035343E+01               0
GRID*               2765               01.6908386311E+011.2071178566E+01+
*       2.1035102366E+01               0
GRID*               2766               01.8571522572E+011.3319340586E+01+
*       2.1818975266E+01               0
GRID*               2767               01.7126664835E+011.5395279700E+01+
*       2.1819004076E+01               0
GRID*               2768               01.8750823032E+011.2960031192E+01+
*       1.9216104915E+01               0
GRID*               2769               02.0195680769E+011.0884092078E+01+
*       1.9216076105E+01               0
GRID*               2770               0-1.105681154E+008.3396065820E+00+
*       2.5239104779E+01               0
GRID*               2771               06.4898128828E-018.0384136531E+00+
*       2.1645093102E+01               0
GRID*               2772               0-2.349938038E+005.1486905788E+00+
*       2.3146781970E+01               0
GRID*               2773               08.5124529949E-015.1771562985E+00+
*       3.0673434061E+01               0
GRID*               2774               0-9.032186898E-043.6665374139E+00+
*       3.3843999716E+01               0
GRID*               2775               0-1.716268312E+007.4509707038E+00+
*       3.3510518663E+01               0
GRID*               2776               0-3.366813389E+007.4867483964E+00+
*       3.0589085680E+01               0
GRID*               2777               0-1.651448296E+003.7023151065E+00+
*       3.0922566732E+01               0
GRID*               2778               0-4.218961908E+005.9761295118E+00+
*       3.3759651334E+01               0
GRID*               2779               0-6.089338325E+003.3912589711E+00+
*       2.5631676516E+01               0
GRID*               2780               0-6.902709028E+003.5120040629E+00+
*       2.1969691906E+01               0
GRID*               2781               0-4.166004266E+002.7005026736E+00+
*       2.2493322781E+01               0
GRID*               2782               0-6.680969363E+006.6815193095E-01+
*       2.3626030471E+01               0
GRID*               2783               0-9.417674125E+001.4796533203E+00+
*       2.3102399596E+01               0
GRID*               2784               0-7.494340066E+007.8889702274E-01+
*       1.9964045861E+01               0
GRID*               2785               0-4.064891176E+00-6.703653398E-01+
*       2.7281847055E+01               0
GRID*               2786               0-6.801595938E+001.4113604950E-01+
*       2.6758216179E+01               0
GRID*               2787               0-7.393226976E+00-2.581970991E+00+
*       2.4752570134E+01               0
GRID*               2788               0-2.608458112E+009.9899172072E-01+
*       2.4517937967E+01               0
GRID*               2789               0-3.930115850E-011.9862402952E+00+
*       2.8581111253E+01               0
GRID*               2790               0-3.163308742E+005.2694356706E+00+
*       1.9484797360E+01               0
GRID*               2791               0-4.469062879E+005.1749476470E+00+
*       2.3997733417E+01               0
GRID*               2792               0-3.466367355E+007.7438806440E+00+
*       2.0989207996E+01               0
GRID*               2793               0-5.282433582E+005.2956927388E+00+
*       2.0335748807E+01               0
GRID*               2794               04.5983521790E+001.0020624212E+01+
*       2.1216392797E+01               0
GRID*               2795               02.8020528066E+001.3135260833E+01+
*       1.8597745182E+01               0
GRID*               2796               08.4890571841E-011.1473840352E+01+
*       2.0533282040E+01               0
GRID*               2797               02.2127890100E+001.2465480957E+01+
*       2.4463784210E+01               0
GRID*               2798               04.1659360982E+001.4126901438E+01+
*       2.2528247351E+01               0
GRID*               2799               04.1648963759E-011.5580117578E+01+
*       2.1845136595E+01               0
GRID*               2800               07.7896368709E+009.0240551997E+00+
*       3.1468980861E+01               0
GRID*               2801               05.6886583536E+007.1055466080E+00+
*       2.8271747639E+01               0
GRID*               2802               04.2976375050E+006.1646987399E+00+
*       3.0902025980E+01               0
GRID*               2803               02.5942460250E+006.6694676289E+00+
*       1.8492090140E+01               0
GRID*               2804               05.9802222255E-016.3486775516E+00+
*       1.6985253587E+01               0
GRID*               2805               01.4108710652E+009.5453593347E+00+
*       1.8562394778E+01               0
GRID*               2806               01.3599119995E+007.8556232332E+00+
*       1.3902555263E+01               0
GRID*               2807               0-5.853527373E-019.2245692574E+00+
*       1.7055558225E+01               0
GRID*               2808               03.3640181534E+001.1206779816E+01+
*       1.6626857920E+01               0
GRID*               2809               03.9046121441E-013.8887147950E+00+
*       2.3016249100E+01               0
GRID*               2810               0-1.605762588E+003.5679247177E+00+
*       2.1509412546E+01               0
GRID*               2811               01.0698791253E+004.5949975641E+00+
*       1.9408091355E+01               0
GRID*               2812               08.1135905146E-014.4529870601E-01+
*       2.0779247352E+01               0
GRID*               2813               0-3.421828815E+001.1197368125E+00+
*       2.0855953357E+01               0
GRID*               2814               0-7.461871020E-012.1468096589E+00+
*       1.8754632166E+01               0
GRID*               2815               03.0151438621E+003.2260515399E+00+
*       1.6255088393E+01               0
GRID*               2816               03.0661029278E+004.9157876414E+00+
*       2.0914927908E+01               0
GRID*               2817               07.1331682943E+00-5.937430854E+00+
*       1.3551136572E+01               0
GRID*               2818               09.5629571370E+00-7.506598090E+00+
*       1.3868450640E+01               0
GRID*               2819               09.7324130442E+00-4.733868038E+00+
*       1.3877535720E+01               0
GRID*               2820               08.5615045083E+00-5.872923437E+00+
*       1.5137222544E+01               0
GRID*               2821               08.3920486011E+00-8.645653489E+00+
*       1.5128137464E+01               0
GRID*               2822               01.0991293351E+01-7.442090673E+00+
*       1.5454536613E+01               0
GRID*               2823               08.5694757532E+00-1.075892593E+01+
*       1.3259674560E+01               0
GRID*               2824               01.1168720503E+01-9.555363111E+00+
*       1.3586073709E+01               0
GRID*               2825               09.9978119671E+00-1.069441851E+01+
*       1.4845760533E+01               0
GRID*               2826               0-1.195450878E+017.2699853786E+00+
*       2.5288106860E+01               0
GRID*               2827               0-1.203520172E+011.0229986022E+01+
*       2.5511237035E+01               0
GRID*               2828               0-8.906736022E+007.1627610040E+00+
*       2.5331175816E+01               0
GRID*               2829               0-1.040387937E+014.0529933092E+00+
*       2.2710300185E+01               0
GRID*               2830               0-1.353234507E+017.1202183274E+00+
*       2.2890361403E+01               0
GRID*               2831               0-1.048457231E+017.0129939528E+00+
*       2.2933430360E+01               0
GRID*               2832               01.2235270562E+01-9.608939984E+00+
*       1.5768582627E+01               0
GRID*               2833               01.3406179098E+01-8.469884585E+00+
*       1.4508895803E+01               0
GRID*               2834               01.2135220926E+01-7.188269772E+00+
*       1.7064443176E+01               0
GRID*               2835               01.0964312390E+01-8.327325171E+00+
*       1.8324130000E+01               0
GRID*               2836               01.3379198136E+01-9.355119084E+00+
*       1.7378489191E+01               0
GRID*               2837               06.2924213650E+00-7.982636618E+00+
*       1.5997262209E+01               0
GRID*               2838               07.7207575790E+00-7.918129201E+00+
*       1.7583348182E+01               0
GRID*               2839               07.2400918436E+00-1.072654175E+01+
*       1.8525580727E+01               0
GRID*               2840               07.9113828657E+00-1.145406604E+01+
*       1.6070370009E+01               0
GRID*               2841               09.3397190797E+00-1.138955862E+01+
*       1.7656455982E+01               0
GRID*               2842               09.2939861677E+00-8.908745522E+00+
*       2.0342862593E+01               0
GRID*               2843               09.1451578201E+00-5.603416962E+00+
*       1.8586756154E+01               0
GRID*               2844               01.0289085395E+01-5.349596062E+00+
*       2.0196662718E+01               0
GRID*               2845               01.0437913742E+01-8.654924622E+00+
*       2.1952769156E+01               0
GRID*               2846               02.1049332910E+00-2.616873448E+00+
*       3.0661752852E+01               0
GRID*               2847               02.4791910770E+00-1.005327718E+00+
*       3.3675218904E+01               0
GRID*               2848               0-1.105269199E+00-1.263882626E+00+
*       2.9707650916E+01               0
GRID*               2849               0-8.067521175E+00-7.446916706E-03+
*       3.0037747642E+01               0
GRID*               2850               0-1.119696684E+016.6607867692E-01+
*       3.2084734066E+01               0
GRID*               2851               0-7.808201236E+002.0853951069E+00+
*       3.3928089465E+01               0
GRID*               2852               0-8.402026996E+00-2.305033217E+00+
*       2.7112526439E+01               0
GRID*               2853               0-1.153147267E+01-1.631507623E+00+
*       2.9159512863E+01               0
GRID*               2854               0-1.169239938E+011.6080081276E+00+
*       2.8741887364E+01               0
GRID*               2855               05.8741023273E+00-2.114487057E+01+
*       1.4707372619E+01               0
GRID*               2856               03.3752635433E+00-2.153232419E+01+
*       1.4707367483E+01               0
GRID*               2857               05.7761879152E+00-2.208697072E+01+
*       1.7574815181E+01               0
GRID*               2858               05.3865305816E+00-1.903858899E+01+
*       1.7282186884E+01               0
GRID*               2859               03.2773491312E+00-2.247442433E+01+
*       1.7574810045E+01               0
GRID*               2860               0-8.459492590E-018.2895939726E-01+
*       3.3597992739E+01               0
GRID*               2861               0-3.413462870E+003.1027738025E+00+
*       3.6435077341E+01               0
GRID*               2862               0-5.064007948E+003.1385514952E+00+
*       3.3513644357E+01               0
GRID*               2863               0-1.009196832E+014.0541773942E+00+
*       2.8387577104E+01               0
GRID*               2864               0-1.042647414E+011.7565910938E+00+
*       2.5462355901E+01               0
GRID*               2865               0-2.448212958E+00-1.058323299E+01+
*       2.5346871100E+01               0
GRID*               2866               0-5.673255334E+00-7.959836586E+00+
*       2.7133479665E+01               0
GRID*               2867               0-1.342604081E+00-8.272681933E+00+
*       2.2959681179E+01               0
GRID*               2868               0-5.463753000E+00-9.688633851E+00+
*       2.3471382692E+01               0
GRID*               2869               0-4.567646456E+00-5.649285527E+00+
*       2.4746289745E+01               0
GRID*               2870               05.5632421167E+002.9722687794E+00+
*       3.7368809808E+01               0
GRID*               2871               04.4804073360E+004.4830403925E+00+
*       3.9414495318E+01               0
GRID*               2872               06.3018517447E+007.8713985734E+00+
*       4.0631924686E+01               0
GRID*               2873               07.3846865255E+006.3606269603E+00+
*       3.8586239175E+01               0
GRID*               2874               04.7115187407E+007.2064681059E+00+
*       3.7730837922E+01               0
GRID*               2875               04.0740434392E+006.9620111422E-01+
*       3.8298308696E+01               0
GRID*               2876               02.6409230466E+002.0736574044E-01+
*       3.6428465624E+01               0
GRID*               2877               01.6584992939E+00-1.242529023E+00+
*       3.8577090083E+01               0
GRID*               2878               03.0916196865E+00-7.536936491E-01+
*       4.0446933156E+01               0
GRID*               2879               01.9076505792E+002.3682151617E+00+
*       3.8662033013E+01               0
GRID*               2880               01.0116747025E+011.5176453834E+00+
*       3.9344847289E+01               0
GRID*               2881               01.1552128019E+01-1.861876812E+00+
*       3.9719536955E+01               0
GRID*               2882               01.0776267863E+011.9025833751E+00+
*       3.5267629102E+01               0
GRID*               2883               01.2656604987E+011.2938011246E+00+
*       3.6388265329E+01               0
GRID*               2884               01.2211648857E+01-1.476938820E+00+
*       3.5642318769E+01               0
GRID*               2885               03.4979835833E+003.0331456292E+00+
*       4.1563119778E+01               0
GRID*               2886               0-7.376253691E+001.8528555930E+00+
*       1.5979918765E+01               0
GRID*               2887               0-1.087742403E+012.3938448393E+00+
*       1.6720527044E+01               0
GRID*               2888               0-8.480545313E+003.3622370117E+00+
*       1.9571946450E+01               0
GRID*               2889               0-7.016219472E+004.9121233583E+00+
*       1.8305126773E+01               0
GRID*               2890               0-9.413098194E+003.9437311859E+00+
*       1.5453707368E+01               0
GRID*               2891               0-1.051738982E+015.4531126046E+00+
*       1.9045735052E+01               0
GRID*               2892               01.5496897675E+018.3936955812E-01+
*       3.1155523571E+01               0
GRID*               2893               01.5138722938E+013.3295854886E+00+
*       3.3633797147E+01               0
GRID*               2894               01.5138860453E+013.3295563282E+00+
*       3.1155523571E+01               0
GRID*               2895               01.4582244627E+014.8518344171E+00+
*       1.8747177625E+01               0
GRID*               2896               01.7143000607E+016.2596516654E+00+
*       1.8873065372E+01               0
GRID*               2897               01.5971788528E+018.2281128096E+00+
*       1.8306315458E+01               0
GRID*               2898               01.5897319986E+016.4244432118E+00+
*       2.1920948282E+01               0
GRID*               2899               01.7068532065E+014.4559820675E+00+
*       2.2487698196E+01               0
GRID*               2900               01.8458075966E+017.8322604600E+00+
*       2.2046836029E+01               0
GRID*               2901               01.3187644060E+01-8.472317174E+00+
*       4.2478177450E+01               0
GRID*               2902               01.1952087453E+01-1.000937860E+01+
*       4.2478177450E+01               0
GRID*               2903               01.0309988411E+01-8.331245566E+00+
*       4.2181323338E+01               0
GRID*               2904               01.1992129476E+01-9.414413983E+00+
*       3.9659500788E+01               0
GRID*               2905               09.0744318037E+00-9.868306992E+00+
*       4.2181323338E+01               0
GRID*               2906               02.0195663923E+011.0884122506E+01+
*       2.1716089844E+01               0
GRID*               2907               02.1193047192E+018.5598768338E+00+
*       1.9216082797E+01               0
GRID*               2908               02.0121195381E+019.0804529085E+00+
*       2.5330722669E+01               0
GRID*               2909               02.1118578650E+016.7562072359E+00+
*       2.2830715621E+01               0
GRID*               2910               01.7126690014E+011.5395249336E+01+
*       2.4318991804E+01               0
GRID*               2911               02.0509963348E+01-1.029275921E+01+
*       2.7499989023E+01               0
GRID*               2912               01.9494232464E+01-8.023320316E+00+
*       2.5838653684E+01               0
GRID*               2913               02.0842788629E+01-9.863352779E+00+
*       2.3338642707E+01               0
GRID*               2914               01.8718511652E+01-1.039166663E+01+
*       2.5575271983E+01               0
GRID*               2915               01.7369955486E+01-8.551634162E+00+
*       2.8075282960E+01               0
GRID*               2916               01.7702780768E+01-8.122227733E+00+
*       2.3913936644E+01               0
GRID*               2917               02.0195347690E+011.0883974013E+01+
*       1.6716095398E+01               0
GRID*               2918               01.7097598394E+011.3754758159E+01+
*       1.7287506605E+01               0
GRID*               2919               01.8542123051E+011.1678700980E+01+
*       1.4787497089E+01               0
GRID*               2920               01.6879319870E+011.0430657025E+01+
*       1.6503604895E+01               0
GRID*               2921               01.8571505726E+011.3319371015E+01+
*       2.4318989005E+01               0
GRID*               2922               08.7496197855E+001.7416803265E+00+
*       4.3977251664E+01               0
GRID*               2923               07.5753771670E+001.5989016376E-01+
*       4.3977251664E+01               0
GRID*               2924               07.3798551007E+001.4112823238E+00+
*       4.3977251664E+01               0
GRID*               2925               06.2203417283E+005.4647729266E+00+
*       3.4327116715E+01               0
GRID*               2926               08.8935095131E+004.6189317811E+00+
*       3.5182517969E+01               0
GRID*               2927               08.0417861370E+008.8531311075E+00+
*       3.5544546083E+01               0
GRID*               2928               01.0110822857E+01-6.952979565E+00+
*       3.9168118536E+01               0
GRID*               2929               09.6990821729E+00-8.399187851E+00+
*       3.7175493844E+01               0
GRID*               2930               07.7708515331E+00-4.975370512E+00+
*       3.7535774925E+01               0
GRID*               2931               01.0695431204E+01-6.078825041E+00+
*       3.6980965704E+01               0
GRID*               2932               06.2102514259E+008.9999693611E+00+
*       2.3949929681E+01               0
GRID*               2933               07.9019811892E+001.0288704731E+01+
*       2.7772533276E+01               0
GRID*               2934               04.3369348540E+009.6479391008E+00+
*       2.6974533251E+01               0
GRID*               2935               02.7283423623E+002.6054164668E+00+
*       3.3760161834E+01               0
GRID*               2936               05.0639167380E+009.8005962202E-01+
*       3.4235194137E+01               0
GRID*               2937               01.2627899315E+01-2.095269740E-01+
*       2.5339060294E+01               0
GRID*               2938               01.1058677281E+011.0345279194E+01+
*       3.9872494332E+01               0
GRID*               2939               01.1059796001E+011.0346202383E+01+
*       3.7372574933E+01               0
GRID*               2940               01.2707343669E+018.4448976586E+00+
*       3.7372576939E+01               0
GRID*               2941               01.0276942484E+01-8.962578234E-02+
*       3.2134013431E+01               0
GRID*               2942               09.1724655164E+00-3.245303718E+00+
*       3.5465285058E+01               0
GRID*               2943               08.7607248320E+00-4.691512004E+00+
*       3.3472660366E+01               0
GRID*               2944               01.1799908172E+01-2.923147105E+00+
*       3.3649694077E+01               0
GRID*               2945               08.6472162636E+00-7.890147179E+00+
*       3.2223625439E+01               0
GRID*               2946               06.5534766760E+00-5.721492056E+00+
*       3.2807969062E+01               0
GRID*               2947               08.0764423638E+00-8.555013379E+00+
*       3.4323649708E+01               0
GRID*               2948               01.0854464420E+01-6.860167127E+00+
*       3.2888316743E+01               0
GRID*               2949               0-1.101810518E+01-9.665159464E-01+
*       2.3456709856E+01               0
GRID*               2950               0-1.435685483E+01-1.286718537E+00+
*       3.3729432697E+01               0
GRID*               2951               0-1.016490936E+016.9200249941E-01+
*       3.4617883313E+01               0
GRID*               2952               0-1.348572406E+011.9787210365E+00+
*       3.5844956445E+01               0
GRID*               2953               0-1.501779425E+011.2590476876E-01+
*       3.8031665109E+01               0
GRID*               2954               0-1.169697955E+01-1.160813768E+00+
*       3.6804591976E+01               0
GRID*               2955               0-1.082584879E+012.1046258053E+00+
*       3.8920115724E+01               0
GRID*               2956               0-1.192941062E+019.8400124740E+00+
*       2.7777152996E+01               0
GRID*               2957               0-1.028191590E+011.1741321407E+01+
*       2.7777152996E+01               0
GRID*               2958               0-1.154269509E+011.0242457056E+01+
*       3.1564850555E+01               0
GRID*               2959               0-8.600713434E+001.0525206230E+01+
*       2.9342003550E+01               0
GRID*               2960               0-9.895200382E+001.2143765989E+01+
*       3.1564850555E+01               0
GRID*               2961               04.7642227274E+004.8618599889E+00+
*       4.3657791041E+01               0
GRID*               2962               06.5644951499E+003.9472814302E+00+
*       4.3657791041E+01               0
GRID*               2963               05.1785330102E+003.0675438636E+00+
*       4.3657791041E+01               0
GRID*               2964               0-1.044020688E+01-4.881417485E+00+
*       2.9492374937E+01               0
GRID*               2965               0-1.044726788E+01-7.691858797E+00+
*       2.9727738428E+01               0
GRID*               2966               0-1.332728911E+01-6.900787940E+00+
*       2.9541735874E+01               0
GRID*               2967               0-1.332022812E+01-4.090346629E+00+
*       2.9306372383E+01               0
GRID*               2968               0-1.272439487E+01-6.398327040E+00+
*       2.6296387755E+01               0
GRID*               2969               0-1.093563942E+01-3.939488034E+00+
*       2.6149528235E+01               0
GRID*               2970               0-1.381566065E+01-3.148417178E+00+
*       2.5963525681E+01               0
GRID*               2971               0-1.399881761E+01-3.776905307E+00+
*       3.1251179782E+01               0
GRID*               2972               0-1.400587860E+01-6.587346619E+00+
*       3.1486543274E+01               0
GRID*               2973               0-1.628300559E+01-5.293814862E+00+
*       2.8055192600E+01               0
GRID*               2974               0-1.435685483E+01-1.286718537E+00+
*       3.1251179782E+01               0
GRID*               2975               0-1.451778154E+011.9527972140E+00+
*       3.3311807198E+01               0
GRID*               2976               0-1.451778154E+011.9527972140E+00+
*       3.0833554283E+01               0
GRID*               2977               0-1.485228736E+01-3.447890864E-01+
*       2.7908333081E+01               0
GRID*               2978               0-5.936793912E+00-9.126139301E-01+
*       2.1988661047E+01               0
GRID*               2979               0-7.428467971E+008.0673344260E+00+
*       2.8196262171E+01               0
GRID*               2980               0-1.017266126E+017.0141780378E+00+
*       2.8610707279E+01               0
GRID*               2981               0-8.613700273E+004.9587508162E+00+
*       3.1252663459E+01               0
GRID*               2982               0-7.041752448E+008.4697790081E+00+
*       3.1983959730E+01               0
GRID*               2983               0-9.785945736E+007.4166226199E+00+
*       3.2398404838E+01               0
GRID*               2984               0-3.805571237E+001.4224766838E+00+
*       3.1172188878E+01               0
GRID*               2985               0-7.347775036E+005.1073337824E+00+
*       2.7973131996E+01               0
GRID*               2986               0-4.611070274E+004.2958323931E+00+
*       2.8496762871E+01               0
GRID*               2987               0-7.205767641E+005.9864490364E+00+
*       2.3474102542E+01               0
GRID*               2988               0-5.727499590E+006.8910224584E+00+
*       2.6339188897E+01               0
GRID*               2989               0-6.842172894E-012.0416528554E+00+
*       3.6351239459E+01               0
GRID*               2990               04.4593694746E+007.3773921981E+00+
*       3.3655272700E+01               0
GRID*               2991               0-7.310761213E+00-5.554943079E+00+
*       2.7445388513E+01               0
GRID*               2992               0-5.944375082E-01-7.766130495E+00+
*       3.9887856741E+01               0
GRID*               2993               0-1.928504024E+00-9.614114015E+00+
*       4.0681646058E+01               0
GRID*               2994               0-5.693999684E+00-7.623865678E+00+
*       4.0299759287E+01               0
GRID*               2995               0-3.693035784E+00-1.093086135E+01+
*       4.0718663941E+01               0
GRID*               2996               0-7.099347134E+00-9.937832937E+00+
*       4.0434052994E+01               0
GRID*               2997               0-8.704430561E+00-3.766317801E+00+
*       3.5307281530E+01               0
GRID*               2998               0-1.564312671E+007.4218909240E+00+
*       3.6688038304E+01               0
GRID*               2999               0-3.027300899E+009.9364474790E+00+
*       3.8359647416E+01               0
GRID*               3000               0-4.031405058E+008.4549083742E+00+
*       3.8352693429E+01               0
GRID*               3001               0-3.089853639E+007.0805426843E+00+
*       3.9680936626E+01               0
GRID*               3002               0-2.085749480E+008.5620817891E+00+
*       3.9687890613E+01               0
GRID*               3003               0-4.552841867E+009.5950992393E+00+
*       4.1352545737E+01               0
GRID*               3004               0-4.539058852E+009.9446202001E+00+
*       3.1734827059E+01               0
GRID*               3005               0-5.391207371E+008.4340013155E+00+
*       3.4905392714E+01               0
GRID*               3006               0-2.037292224E+002.1357417247E+00+
*       4.1749318945E+01               0
GRID*               3007               0-8.215950018E-013.4293361088E+00+
*       3.8745870896E+01               0
GRID*               3008               0-3.784114052E+004.6467574352E+00+
*       3.9684532368E+01               0
GRID*               3009               0-4.305550861E+005.7869483002E+00+
*       4.2684384676E+01               0
GRID*               3010               0-1.343031810E+004.5695269739E+00+
*       4.1745723204E+01               0
GRID*               3011               01.6082875095E-014.8792308721E+00+
*       3.6597246436E+01               0
GRID*               3012               0-3.771516024E-016.8235036696E+00+
*       3.9665945061E+01               0
GRID*               3013               01.3696702259E+004.3124879592E+00+
*       4.1730731639E+01               0
GRID*               3014               02.3520939786E+005.7623827225E+00+
*       3.9582107179E+01               0
GRID*               3015               01.0129772691E+006.3898497566E+00+
*       3.3426680781E+01               0
GRID*               3016               0-7.121641530E-018.9325098086E+00+
*       3.3517472649E+01               0
GRID*               3017               01.1649329099E+006.3607699769E+00+
*       3.6604200422E+01               0
GRID*               3018               0-1.666641042E+005.9175809213E-01+
*       3.8499863918E+01               0
GRID*               3019               0-1.934936928E+00-1.115708268E+01+
*       4.1975006401E+01               0
GRID*               3020               0-1.492547759E+00-9.198006821E+00+
*       4.3706639657E+01               0
GRID*               3021               0-2.112076756E-01-1.175259368E+01+
*       4.1860741634E+01               0
GRID*               3022               0-6.471639410E-01-1.216870087E+01+
*       3.8835748035E+01               0
GRID*               3023               0-2.047747713E-01-1.020962501E+01+
*       4.0567381290E+01               0
GRID*               3024               0-4.886855452E-01-1.549141496E+01+
*       3.4642997435E+01               0
GRID*               3025               0-4.165778566E-01-1.253035508E+01+
*       3.6639754224E+01               0
GRID*               3026               0-2.443000882E+00-1.453424976E+01+
*       3.6953256012E+01               0
GRID*               3027               0-7.192716295E-01-1.512976076E+01+
*       3.6838991245E+01               0
GRID*               3028               01.3071513963E+00-1.312586607E+01+
*       3.6525489457E+01               0
GRID*               3029               0-4.090607918E+00-1.514255414E+01+
*       4.2478175066E+01               0
GRID*               3030               0-6.503262532E+00-1.443259648E+01+
*       4.2478172922E+01               0
GRID*               3031               0-5.340766021E+00-1.153988102E+01+
*       4.3743657540E+01               0
GRID*               3032               0-3.765020271E+00-1.389120595E+01+
*       4.1221832605E+01               0
GRID*               3033               0-6.177674886E+00-1.318124829E+01+
*       4.1221830462E+01               0
GRID*               3034               06.8690257503E-01-1.032071735E+01+
*       3.8041958718E+01               0
GRID*               3035               0-2.203994459E+00-1.564780113E+01+
*       4.2478175066E+01               0
GRID*               3036               0-3.454152563E+00-1.204512800E+01+
*       4.3743657540E+01               0
GRID*               3037               01.0106664540E+011.2313127606E+01+
*       1.9461361709E+01               0
GRID*               3038               08.8091224625E+001.3500428808E+01+
*       1.4176152255E+01               0
GRID*               3039               08.1540434609E+001.4156287551E+01+
*       1.6923957151E+01               0
GRID*               3040               01.1709208734E+011.4787370462E+01+
*       1.7104462923E+01               0
GRID*               3041               06.7634902234E+001.4917697542E+01+
*       1.3741279848E+01               0
GRID*               3042               05.1609460297E+001.2443454685E+01+
*       1.6098178635E+01               0
GRID*               3043               06.4225331371E+001.5960879945E+01+
*       1.8912971999E+01               0
GRID*               3044               08.0250773308E+001.8435122801E+01+
*       1.6556073212E+01               0
GRID*               3045               05.0319798996E+001.6722289936E+01+
*       1.5730294696E+01               0
GRID*               3046               03.7195221746E+001.5212181423E+01+
*       1.8857496644E+01               0
GRID*               3047               03.5905560445E+001.9491016674E+01+
*       1.8489612705E+01               0
GRID*               3048               02.6632329042E+001.9770906455E+01+
*       2.0777674071E+01               0
GRID*               3049               05.4952099968E+001.6240769725E+01+
*       2.1201033365E+01               0
GRID*               3050               05.3662438668E+002.0519604976E+01+
*       2.0833149426E+01               0
GRID*               3051               06.2640943137E+001.8229049149E+01+
*       2.4565717449E+01               0
GRID*               3052               07.3203835841E+001.3670324118E+01+
*       2.2645540022E+01               0
GRID*               3053               08.5711950898E+001.4140003378E+01+
*       2.1071095414E+01               0
GRID*               3054               07.5149058195E+001.8698728409E+01+
*       2.2991272841E+01               0
GRID*               3055               09.3400794067E+001.6128282802E+01+
*       2.4435779498E+01               0
GRID*               3056               06.2800487567E+002.2220788394E+01+
*       1.9272525440E+01               0
GRID*               3057               08.6517198379E+002.1342408853E+01+
*       1.9272534864E+01               0
GRID*               3058               05.3527256165E+002.2500678175E+01+
*       2.1560586806E+01               0
GRID*               3059               07.7243966977E+002.1622298634E+01+
*       2.1560596230E+01               0
GRID*               3060               08.0115531293E+002.0416259498E+01+
*       1.4783494634E+01               0
GRID*               3061               06.2800428055E+002.2220851893E+01+
*       1.6772509482E+01               0
GRID*               3062               04.5587246455E+002.2656900937E+01+
*       1.4376000513E+01               0
GRID*               3063               06.3037591708E+001.8871171845E+01+
*       1.4159564243E+01               0
GRID*               3064               04.5722488470E+002.0675764240E+01+
*       1.6148579091E+01               0
GRID*               3065               0-9.324905375E+001.1607346599E+01+
*       1.1265346352E+01               0
GRID*               3066               0-9.221308978E+001.0069401026E+01+
*       1.1265346352E+01               0
GRID*               3067               0-6.544508455E+001.0845951709E+01+
*       1.1874433161E+01               0
GRID*               3068               0-7.849080353E+001.1290836409E+01+
*       1.3139779513E+01               0
GRID*               3069               0-6.440912058E+009.3080061364E+00+
*       1.1874433161E+01               0
GRID*               3070               01.8661814041E+011.1236869169E+01+
*       2.5347162305E+01               0
GRID*               3071               01.6743810098E+011.1295630663E+01+
*       2.7847174063E+01               0
GRID*               3072               01.9940779394E+011.2191076449E+01+
*       2.7499988242E+01               0
GRID*               3073               01.6653501782E+011.3378132509E+01+
*       2.6819000763E+01               0
GRID*               3074               01.0383230162E+011.9537816459E+01+
*       1.7283520016E+01               0
GRID*               3075               01.2528272444E+011.8197997588E+01+
*       1.7283531335E+01               0
GRID*               3076               01.0800381791E+011.9521532287E+01+
*       2.1430658279E+01               0
GRID*               3077               01.0173739284E+011.6614246235E+01+
*       1.8714196627E+01               0
GRID*               3078               01.2945424073E+011.8181713416E+01+
*       2.1430669598E+01               0
GRID*               3079               04.3648106854E-01-8.614700672E+00+
*       2.1344146194E+01               0
GRID*               3080               02.4105782593E+00-7.658616300E+00+
*       1.8152797864E+01               0
GRID*               3081               03.6470331521E+00-8.211196702E+00+
*       2.1643821257E+01               0
GRID*               3082               02.6322653088E+00-1.110007950E+01+
*       2.2429664125E+01               0
GRID*               3083               01.3958104159E+00-1.054749909E+01+
*       1.8938640731E+01               0
GRID*               3084               04.6063624995E+00-1.014399512E+01+
*       1.9238315794E+01               0
GRID*               3085               0-3.199951857E-03-1.267470977E+01+
*       2.5383729508E+01               0
GRID*               3086               0-4.124348872E+00-1.409066169E+01+
*       2.5895431021E+01               0
GRID*               3087               01.7083857950E-01-1.165264563E+01+
*       2.2755147896E+01               0
GRID*               3088               0-1.505297334E+00-1.516007432E+01+
*       2.3303707817E+01               0
GRID*               3089               0-3.950310340E+00-1.306859754E+01+
*       2.3266849409E+01               0
GRID*               3090               0-8.711491554E+00-6.576759113E+00+
*       3.5542645021E+01               0
GRID*               3091               05.2202617409E+00-9.201813023E+00+
*       2.4403335668E+01               0
GRID*               3092               06.1795910883E+00-1.113461145E+01+
*       2.1997830205E+01               0
GRID*               3093               0-1.037991559E+01-1.147412936E+01+
*       3.9168584107E+01               0
GRID*               3094               0-1.202732052E+01-9.572406136E+00+
*       3.6668665009E+01               0
GRID*               3095               0-1.202727188E+01-9.572486688E+00+
*       3.9168602866E+01               0
GRID*               3096               02.0943651465E+00-1.333250767E+01+
*       2.7417584794E+01               0
GRID*               3097               03.6600545444E+00-1.084072631E+01+
*       2.5773425620E+01               0
GRID*               3098               04.0814837296E+00-1.500595291E+01+
*       2.8355840826E+01               0
GRID*               3099               03.4413225753E+00-1.735433483E+01+
*       2.7599377925E+01               0
GRID*               3100               03.0198933902E+00-1.318910824E+01+
*       2.5016962719E+01               0
GRID*               3101               05.0070119732E+00-1.486255348E+01+
*       2.5955218752E+01               0
GRID*               3102               03.6786539919E+00-7.580458603E+00+
*       1.5845566503E+01               0
GRID*               3103               02.6638861485E+00-1.046934140E+01+
*       1.6631409370E+01               0
GRID*               3104               04.6810190827E-01-7.983962573E+00+
*       1.5545891440E+01               0
GRID*               3105               0-3.613021501E+00-6.881199973E+00+
*       1.7160138618E+01               0
GRID*               3106               0-1.833936352E+00-7.223218712E+00+
*       1.5544603633E+01               0
GRID*               3107               0-2.579058973E+00-7.720101532E+00+
*       1.9468657786E+01               0
GRID*               3108               0-5.421243846E+00-9.619090026E+00+
*       2.0012059947E+01               0
GRID*               3109               0-4.676121224E+00-9.122207206E+00+
*       1.6088005794E+01               0
GRID*               3110               0-3.642158696E+00-9.961108765E+00+
*       1.8396524962E+01               0
GRID*               3111               0-1.017361203E+01-1.507335584E+01+
*       1.6383209546E+01               0
GRID*               3112               0-1.056403575E+01-1.582148437E+01+
*       2.0639612392E+01               0
GRID*               3113               0-9.913731553E+00-1.769718642E+01+
*       1.8967267605E+01               0
GRID*               3114               0-7.403771327E+00-1.716251077E+01+
*       1.5617879603E+01               0
GRID*               3115               0-8.054075523E+00-1.528680872E+01+
*       1.7290224390E+01               0
GRID*               3116               0-7.794195051E+00-1.791063930E+01+
*       1.9874282449E+01               0
GRID*               3117               0-1.523790419E+01-7.582259742E+00+
*       2.8055192600E+01               0
GRID*               3118               0-1.714337983E+01-7.707094469E+00+
*       2.8055192600E+01               0
GRID*               3119               06.2828262882E-01-8.681198388E+00+
*       1.1619330039E+01               0
GRID*               3120               0-5.658606194E-01-7.145061015E+00+
*       1.3237372272E+01               0
GRID*               3121               0-1.673755631E+00-7.920454527E+00+
*       1.1618042233E+01               0
GRID*               3122               0-2.020288375E+00-1.055471986E+01+
*       1.1298549529E+01               0
GRID*               3123               0-9.123933634E-01-9.779326347E+00+
*       1.2917879568E+01               0
GRID*               3124               0-3.214431624E+00-9.018582486E+00+
*       1.2916591761E+01               0
GRID*               3125               01.0900750867E+00-6.177511980E+00+
*       2.1701717700E+01               0
GRID*               3126               03.0641722775E+00-5.221427609E+00+
*       1.8510369369E+01               0
GRID*               3127               0-1.463798062E-01-5.624931579E+00+
*       1.8210694306E+01               0
GRID*               3128               0-1.925464955E+00-5.282912840E+00+
*       1.9826229291E+01               0
GRID*               3129               0-1.180342334E+00-4.786030020E+00+
*       1.5902175139E+01               0
GRID*               3130               04.4405076667E+00-4.242230293E+00+
*       3.1136785155E+01               0
GRID*               3131               06.5342472543E+00-6.410885416E+00+
*       3.0552441532E+01               0
GRID*               3132               01.0675850307E+011.1500308079E+01+
*       2.7373964853E+01               0
GRID*               3133               01.0563505988E+011.0235658547E+01+
*       3.1070412438E+01               0
GRID*               3134               08.8025337346E+001.2148277819E+01+
*       3.0398568423E+01               0
GRID*               3135               0-8.131099173E+00-1.333611932E+01+
*       4.2478172922E+01               0
GRID*               3136               01.2323345019E+019.5989991461E+00+
*       2.7373964853E+01               0
GRID*               3137               01.3647963807E+016.1880764751E+00+
*       2.7719430011E+01               0
GRID*               3138               01.2211000700E+018.3343496144E+00+
*       3.1070412438E+01               0
GRID*               3139               01.2370682072E+01-2.258280905E+00+
*       3.1549669808E+01               0
GRID*               3140               01.3073694558E+01-7.796022406E-01+
*       2.8775153855E+01               0
GRID*               3141               01.3256102103E+016.0459047343E+00+
*       3.1070412438E+01               0
GRID*               3142               01.4693065210E+013.8996315949E+00+
*       2.7719430011E+01               0
GRID*               3143               01.1433367475E+014.3950875223E+00+
*       3.2225936009E+01               0
GRID*               3144               01.2870330581E+012.2488143829E+00+
*       2.8874953582E+01               0
GRID*               3145               02.5822724118E+009.9491320298E+00+
*       3.0568544927E+01               0
GRID*               3146               07.7370845228E+001.3421847647E-01+
*       3.5090595391E+01               0
GRID*               3147               0-8.394249423E+00-1.515270610E+01+
*       2.1081798786E+01               0
GRID*               3148               0-5.884289197E+00-1.461803045E+01+
*       1.7732410785E+01               0
GRID*               3149               0-5.847029217E+00-1.586072063E+01+
*       2.1922550042E+01               0
GRID*               3150               0-7.756935071E+00-1.915332948E+01+
*       2.4064421706E+01               0
GRID*               3151               0-5.246974845E+00-1.861865383E+01+
*       2.0715033704E+01               0
GRID*               3152               0-4.535126104E+00-2.104380483E+01+
*       1.8262427914E+01               0
GRID*               3153               0-2.282270272E+00-1.926317828E+01+
*       1.9479156567E+01               0
GRID*               3154               0-1.533161551E+00-2.293101946E+01+
*       2.1216690033E+01               0
GRID*               3155               0-2.255974525E+00-2.179182167E+01+
*       1.7707790227E+01               0
GRID*               3156               0-3.005083245E+00-1.812398049E+01+
*       1.5970256760E+01               0
GRID*               3157               0-3.118692060E-03-2.001119512E+01+
*       1.8924518880E+01               0
GRID*               3158               0-1.154274069E+011.0242382894E+01+
*       3.4043121550E+01               0
GRID*               3159               0-2.255872684E+00-2.179107811E+01+
*       1.5207792855E+01               0
GRID*               3160               0-4.704341079E+00-2.115787475E+01+
*       1.5207785590E+01               0
GRID*               3161               0-8.654129895E+00-1.252887552E+01+
*       1.8497740727E+01               0
GRID*               3162               0-6.941677705E+00-1.162560946E+01+
*       1.5712663174E+01               0
GRID*               3163               0-6.341623333E+00-1.438354265E+01+
*       1.4505146837E+01               0
GRID*               3164               0-9.111464032E+00-1.229438773E+01+
*       1.5270476780E+01               0
GRID*               3165               0-4.198067190E+00-1.865032026E+01+
*       1.3262447224E+01               0
GRID*               3166               0-6.983492658E+00-2.040985791E+01+
*       1.5762423277E+01               0
GRID*               3167               0-5.897325024E+00-2.168421453E+01+
*       1.2499976053E+01               0
GRID*               3168               0-1.918915611E+00-1.939833710E+01+
*       1.2707809536E+01               0
GRID*               3169               0-3.307746814E+00-1.575698691E+01+
*       1.8600010326E+01               0
GRID*               3170               0-3.907801185E+00-1.299905372E+01+
*       1.9807526663E+01               0
GRID*               3171               0-2.446111585E+00-1.289542900E+01+
*       1.6636112631E+01               0
GRID*               3172               0-4.422599596E+00-1.451440573E+01+
*       1.4560996752E+01               0
GRID*               3173               0-5.022653968E+00-1.175647254E+01+
*       1.5768513090E+01               0
GRID*               3174               0-8.365070385E+00-1.794878823E+01+
*       1.2355432380E+01               0
GRID*               3175               0-9.103029161E+00-2.019640503E+01+
*       1.4855408433E+01               0
GRID*               3176               0-7.944791717E+00-2.119613537E+01+
*       1.2499976053E+01               0
GRID*               3177               0-6.245533883E+00-1.816224111E+01+
*       1.3262447224E+01               0
GRID*               3178               0-3.047889531E+00-1.377694783E+01+
*       1.1298549529E+01               0
GRID*               3179               0-3.909524760E+00-1.663850574E+01+
*       1.3262447224E+01               0
GRID*               3180               0-1.630373180E+00-1.738652258E+01+
*       1.2707809536E+01               0
GRID*               3181               0-2.143448017E+00-1.526242257E+01+
*       1.4006359065E+01               0
GRID*               3182               0-7.786187469E+00-1.605786150E+01+
*       1.2355432380E+01               0
GRID*               3183               0-5.666650966E+00-1.627131437E+01+
*       1.3262447224E+01               0
GRID*               3184               0-6.724039474E+00-1.327889338E+01+
*       1.1242699613E+01               0
GRID*               3185               0-8.461159835E+00-1.417008978E+01+
*       1.3598131993E+01               0
GRID*               3186               01.8496057745E+012.9595409730E+00+
*       2.0841429544E+01               0
GRID*               3187               01.9317569879E+019.7489247259E-01+
*       2.0322361020E+01               0
GRID*               3188               01.8891591180E+011.6209431859E+00+
*       1.7630228930E+01               0
GRID*               3189               01.8070079046E+013.6055916863E+00+
*       1.8149297454E+01               0
GRID*               3190               02.0812680085E+013.6817593864E+00+
*       1.9676799460E+01               0
GRID*               3191               01.5160256629E+01-6.083031717E+00+
*       1.4138119738E+01               0
GRID*               3192               01.4779341430E+01-3.694479501E+00+
*       1.6235320139E+01               0
GRID*               3193               01.6144951268E+01-3.823842925E+00+
*       1.3580618454E+01               0
GRID*               3194               01.3146896526E+01-4.043846482E+00+
*       1.3637348504E+01               0
GRID*               3195               01.5764036069E+01-1.435290709E+00+
*       1.5677818855E+01               0
GRID*               3196               01.6884522596E+01-8.637305474E-01+
*       1.3941705520E+01               0
GRID*               3197               01.2469751628E+01-5.655723934E+00+
*       2.2586648565E+01               0
GRID*               3198               01.1883063685E+01-4.611713764E+00+
*       1.9056387501E+01               0
GRID*               3199               01.4752360469E+01-4.579713999E+00+
*       1.9104913526E+01               0
GRID*               3200               01.4131200489E+00-1.744679231E+00+
*       4.2905328737E+01               0
GRID*               3201               02.8181111288E+00-7.245576488E-01+
*       4.2905328737E+01               0
GRID*               3202               01.2261292582E+012.5968954113E-01+
*       1.5525730472E+01               0
GRID*               3203               01.5130589366E+012.9168930575E-01+
*       1.5574256498E+01               0
GRID*               3204               01.4309077233E+012.2763378061E+00+
*       1.6093325022E+01               0
GRID*               3205               02.1632394524E+01-6.793768431E+00+
*       1.2499999137E+01               0
GRID*               3206               02.2066690983E+01-4.783526330E+00+
*       1.2499999137E+01               0
GRID*               3207               01.9220932840E+01-3.973557970E+00+
*       1.2040694844E+01               0
GRID*               3208               01.8786636381E+01-5.983800072E+00+
*       1.2040694844E+01               0
GRID*               3209               02.1004069515E+01-6.672996520E+00+
*       1.4540693981E+01               0
GRID*               3210               09.3651829480E+001.5257292216E-01+
*       1.6171312253E+01               0
GRID*               3211               07.1875513464E+00-8.548158501E-01+
*       1.3862053860E+01               0
GRID*               3212               01.0083660980E+01-7.476992311E-01+
*       1.3216472079E+01               0
GRID*               3213               09.4802558032E+00-2.157312029E+00+
*       1.5869480045E+01               0
GRID*               3214               01.1910044646E+01-3.726479265E+00+
*       1.6186794114E+01               0
GRID*               3215               01.2894739285E+01-1.467290474E+00+
*       1.5629292829E+01               0
GRID*               3216               01.0717107683E+01-2.474679246E+00+
*       1.3320034436E+01               0
GRID*               3217               01.0316066356E+01-4.464361563E+00+
*       1.7327069330E+01               0
GRID*               3218               01.0063909115E+01-1.887805555E+00+
*       1.9319013655E+01               0
GRID*               3219               0-8.527868845E+001.5611179320E+01+
*       1.5394224419E+01               0
GRID*               3220               0-7.881112374E+001.3056902164E+01+
*       1.2685544795E+01               0
GRID*               3221               0-8.614170637E+001.2387228280E+01+
*       1.6157259934E+01               0
GRID*               3222               0-1.127623374E+011.4606508455E+01+
*       1.5239372329E+01               0
GRID*               3223               0-4.632026022E+001.3233589207E+01+
*       2.2463741605E+01               0
GRID*               3224               0-2.461289202E+001.7274392311E+01+
*       2.3583937918E+01               0
GRID*               3225               0-7.440264985E+001.5322857613E+01+
*       2.3433375948E+01               0
GRID*               3226               0-5.473427005E+001.5834221560E+01+
*       2.6113290390E+01               0
GRID*               3227               0-5.269528165E+001.9363660718E+01+
*       2.4553572261E+01               0
GRID*               3228               08.1832879085E+001.3432028044E+01+
*       4.2478173145E+01               0
GRID*               3229               01.0299393838E+011.2072990371E+01+
*       4.2478186968E+01               0
GRID*               3230               0-1.147318084E+001.1153050274E+01+
*       1.9026445487E+01               0
GRID*               3231               0-3.973053259E+001.0219924418E+01+
*       1.9961041856E+01               0
GRID*               3232               0-5.833773718E+001.1625833390E+01+
*       1.6766346743E+01               0
GRID*               3233               0-3.008038544E+001.2558959246E+01+
*       1.5831750374E+01               0
GRID*               3234               0-3.207962974E+009.1235325474E+00+
*       1.6943561436E+01               0
GRID*               3235               0-7.940171694E+00-3.618007555E+00+
*       1.2352495970E+01               0
GRID*               3236               0-1.000876021E+01-3.902672128E+00+
*       1.4464352577E+01               0
GRID*               3237               0-1.049405761E+01-4.887857691E+00+
*       1.2111856607E+01               0
GRID*               3238               0-8.498209638E+00-6.229494850E+00+
*       1.1464126662E+01               0
GRID*               3239               0-8.012912232E+00-5.244309287E+00+
*       1.3816622632E+01               0
GRID*               3240               0-1.056679815E+01-6.514159423E+00+
*       1.3575983269E+01               0
GRID*               3241               0-5.939929523E+00-3.589633898E+00+
*       1.2352495970E+01               0
GRID*               3242               0-6.497967468E+00-6.201121193E+00+
*       1.1464126662E+01               0
GRID*               3243               0-1.220549155E+01-5.350472575E+00+
*       1.2111856607E+01               0
GRID*               3244               0-1.177338014E+01-6.874248304E+00+
*       1.2111856607E+01               0
GRID*               3245               0-9.777532164E+00-8.215885463E+00+
*       1.1464126662E+01               0
GRID*               3246               0-1.020964357E+01-6.692109734E+00+
*       1.1464126662E+01               0
GRID*               3247               0-9.466532268E+00-9.280939057E+00+
*       1.1464126662E+01               0
GRID*               3248               0-1.112349276E+01-1.133607441E+01+
*       1.1256361278E+01               0
GRID*               3249               0-1.022791067E+01-9.910931931E+00+
*       1.2720487940E+01               0
GRID*               3250               0-1.143449266E+01-1.027102081E+01+
*       1.1256361278E+01               0
GRID*               3251               0-7.682529615E+00-1.269715731E+01+
*       2.9689920324E+01               0
GRID*               3252               0-1.131328248E+01-1.077710043E+01+
*       3.1486543274E+01               0
GRID*               3253               01.2554544962E+012.9227192072E+00+
*       1.1436361253E+01               0
GRID*               3254               01.0774745390E+012.5936415422E+00+
*       1.1436361253E+01               0
GRID*               3255               01.2934892558E+011.2279507129E+00+
*       1.1436361253E+01               0
GRID*               3256               0-9.857593236E+00-5.720227926E+00+
*       1.7065530827E+01               0
GRID*               3257               0-1.241147915E+01-6.990078062E+00+
*       1.6824891464E+01               0
GRID*               3258               0-1.041563118E+01-8.331715221E+00+
*       1.6177161520E+01               0
GRID*               3259               0-1.128597564E+01-3.207987992E+00+
*       1.7660233382E+01               0
GRID*               3260               0-8.732089725E+00-1.938137856E+00+
*       1.7900872745E+01               0
GRID*               3261               0-1.113480867E+01-5.025543790E+00+
*       2.0261411633E+01               0
GRID*               3262               0-8.880563100E+00-1.104860160E+01+
*       1.1242699613E+01               0
GRID*               3263               0-7.984981009E+00-9.623459122E+00+
*       1.2706826275E+01               0
GRID*               3264               0-9.641941501E+00-1.167859447E+01+
*       1.2499060891E+01               0
GRID*               3265               0-7.806351833E+00-1.128832149E+01+
*       1.1242699613E+01               0
GRID*               3266               0-5.963674734E+00-9.951430126E+00+
*       1.1242699613E+01               0
GRID*               3267               0-7.718478923E+00-9.805089744E+00+
*       1.1242699613E+01               0
GRID*               3268               02.8078075670E+00-8.678551445E+00+
*       4.3770964952E+01               0
GRID*               3269               03.7074145627E+00-5.908749069E+00+
*       4.2991317048E+01               0
GRID*               3270               03.3885840030E+00-7.437809327E+00+
*       4.1762282000E+01               0
GRID*               3271               01.9987373614E+00-6.703044145E+00+
*       4.2991317048E+01               0
GRID*               3272               0-1.099551041E+011.3298862691E+00+
*       2.0704654140E+01               0
GRID*               3273               0-9.891218787E+00-1.794951497E-01+
*       1.7112626455E+01               0
GRID*               3274               0-4.659578475E+00-1.607298066E+00+
*       1.8792780242E+01               0
GRID*               3275               0-6.217124628E+009.4212886733E-02+
*       1.6768165056E+01               0
GRID*               3276               0-1.318784666E+012.5438720754E+00+
*       1.7436876051E+01               0
GRID*               3277               0-1.220164141E+01-2.946791352E-02+
*       1.7828975462E+01               0
GRID*               3278               0-1.248757502E+01-1.234788537E+00+
*       2.0302477988E+01               0
GRID*               3279               0-1.347378027E+011.3385514516E+00+
*       1.9910378578E+01               0
GRID*               3280               0-1.467991127E+01-2.080273095E-02+
*       1.7034699900E+01               0
GRID*               3281               0-1.184871768E+016.8800118305E+00+
*       2.7554022821E+01               0
GRID*               3282               0-1.311464292E+016.7314288643E+00+
*       3.0833554283E+01               0
GRID*               3283               0-1.558923125E+017.0137510134E+00+
*       2.8445046588E+01               0
GRID*               3284               0-1.256655666E+014.3364995433E+00+
*       2.5999069409E+01               0
GRID*               3285               0-1.383248189E+014.1879165771E+00+
*       2.9278600871E+01               0
GRID*               3286               01.5627298938E+011.0286017181E-01+
*       4.2478176395E+01               0
GRID*               3287               0-1.154211420E+01-1.100264383E+01+
*       1.8740812024E+01               0
GRID*               3288               0-1.533881378E+01-9.914687207E+00+
*       1.6787355661E+01               0
GRID*               3289               0-1.462061580E+01-1.210969717E+01+
*       1.6102097970E+01               0
GRID*               3290               0-1.392951326E+01-1.275046966E+01+
*       2.0281539395E+01               0
GRID*               3291               0-1.464771124E+01-1.055545969E+01+
*       2.0966797086E+01               0
GRID*               3292               0-1.772621284E+01-1.166251304E+01+
*       1.8328083032E+01               0
GRID*               3293               0-1.654283831E+011.5895150279E+01+
*       2.7499986308E+01               0
GRID*               3294               0-1.484486258E+011.7573040596E+01+
*       2.7499986308E+01               0
GRID*               3295               01.4032137535E+01-4.805715428E+00+
*       3.9464969480E+01               0
GRID*               3296               01.4033778979E+01-4.806044797E+00+
*       3.6965045987E+01               0
GRID*               3297               01.2989388151E+01-7.094776962E+00+
*       3.6965066180E+01               0
GRID*               3298               0-9.697433199E+00-1.052672519E+01+
*       1.5491903829E+01               0
GRID*               3299               0-1.135439369E+01-1.258186053E+01+
*       1.5284138444E+01               0
GRID*               3300               0-1.207259167E+01-1.038685057E+01+
*       1.5969396135E+01               0
GRID*               3301               0-1.280686063E+01-3.425354951E+00+
*       2.3603569376E+01               0
GRID*               3302               0-1.528513049E+01-3.416689769E+00+
*       2.2809293813E+01               0
GRID*               3303               0-1.349637504E+01-9.578507638E-01+
*       2.2662434294E+01               0
GRID*               3304               0-1.361307853E+01-5.016878608E+00+
*       1.9467136071E+01               0
GRID*               3305               0-1.393236414E+01-7.207445022E+00+
*       2.2768227458E+01               0
GRID*               3306               0-1.776978037E+01-5.304723426E+00+
*       2.2234182329E+01               0
GRID*               3307               0-1.745049476E+01-3.114157012E+00+
*       1.8933090942E+01               0
GRID*               3308               0-1.609772841E+01-6.904912264E+00+
*       1.8892024586E+01               0
GRID*               3309               0-1.569502235E+017.4037245615E+00+
*       2.6179130627E+01               0
GRID*               3310               0-1.414439294E+014.1867324921E+00+
*       2.3601323952E+01               0
GRID*               3311               0-7.286460577E+008.9464496799E+00+
*       2.3697232717E+01               0
GRID*               3312               0-8.783603927E+005.8366819852E+00+
*       2.1076357086E+01               0
GRID*               3313               0-7.319278086E+007.3865683317E+00+
*       1.9809537409E+01               0
GRID*               3314               0-9.020246467E+008.5628802993E+00+
*       2.1666610683E+01               0
GRID*               3315               0-1.129584912E+00-1.101172653E+01+
*       3.4015671875E+01               0
GRID*               3316               0-9.926839400E+00-4.216425808E+00+
*       2.3789571930E+01               0
GRID*               3317               0-1.105234291E+01-7.998515878E+00+
*       2.2954230012E+01               0
GRID*               3318               0-1.208355504E+011.0344906567E+00+
*       1.3844848366E+01               0
GRID*               3319               0-5.906509205E+00-5.005452393E+00+
*       1.7894592355E+01               0
GRID*               3320               0-7.183724643E+00-4.310768257E+00+
*       2.1090473161E+01               0
GRID*               3321               0-8.309228153E+00-8.092858327E+00+
*       2.0255131243E+01               0
GRID*               3322               0-1.200431043E+011.6068240426E+00+
*       2.3064610445E+01               0
GRID*               3323               0-7.060873704E+008.7662202351E+00+
*       1.5763890849E+01               0
GRID*               3324               0-5.327087814E+009.1497896157E+00+
*       1.7794512882E+01               0
GRID*               3325               0-5.650449891E+006.2437173907E+00+
*       1.7728702501E+01               0
GRID*               3326               0-7.384235781E+005.8601480101E+00+
*       1.5698080467E+01               0
GRID*               3327               0-5.392045509E+007.6233692941E+00+
*       1.3683055941E+01               0
GRID*               3328               0-1.621954455E+014.4763712492E+00+
*       2.1769089958E+01               0
GRID*               3329               0-1.599010048E+014.9183930786E+00+
*       1.7642325597E+01               0
GRID*               3330               0-2.022792936E+015.4915380698E+00+
*       1.9098860826E+01               0
GRID*               3331               0-1.825836917E+017.8727236677E+00+
*       2.0782245498E+01               0
GRID*               3332               0-1.402054028E+017.2995786765E+00+
*       1.9325710269E+01               0
GRID*               3333               0-1.802892510E+018.3147454971E+00+
*       1.6655481137E+01               0
GRID*               3334               0-1.255621444E+018.8494650231E+00+
*       1.8058890593E+01               0
GRID*               3335               0-1.206085902E+014.6862088533E+00+
*       1.7042046261E+01               0
GRID*               3336               0-1.409968364E+018.0825612718E+00+
*       1.6055201801E+01               0
GRID*               3337               0-1.059653318E+016.2360951999E+00+
*       1.5775226584E+01               0
GRID*               3338               0-1.777017396E+017.6933633186E+00+
*       2.4346896633E+01               0
GRID*               3339               0-1.838222183E+014.7598774833E+00+
*       2.5057859182E+01               0
GRID*               3340               0-8.436758577E+00-1.522224993E+01+
*       2.4541121532E+01               0
GRID*               3341               0-6.526852723E+00-1.192964108E+01+
*       2.2399249867E+01               0
GRID*               3342               0-5.889538372E+00-1.593026446E+01+
*       2.5381872787E+01               0
GRID*               3343               0-5.161386584E+00-4.508569573E+00+
*       1.3970538203E+01               0
GRID*               3344               0-6.464547149E+00-7.616939688E+00+
*       1.7006223048E+01               0
GRID*               3345               0-5.719424528E+00-7.120056868E+00+
*       1.3082168895E+01               0
GRID*               3346               0-5.133455360E+00-8.887719408E+00+
*       1.2860741846E+01               0
GRID*               3347               0-3.698118254E+00-7.448027872E+00+
*       1.1618042233E+01               0
GRID*               3348               0-6.549643902E+00-8.183767586E+00+
*       1.1464126662E+01               0
GRID*               3349               0-1.065616313E+00-1.110006522E+01+
*       1.9264124503E+01               0
GRID*               3350               0-2.844701463E+00-1.075804649E+01+
*       2.0879659488E+01               0
GRID*               3351               01.2224051187E+01-1.899405562E+01+
*       1.8761999413E+01               0
GRID*               3352               09.3639462499E+00-1.776273210E+01+
*       1.8836813011E+01               0
GRID*               3353               08.1487211061E+00-2.121201265E+01+
*       2.0074815848E+01               0
GRID*               3354               01.0873986422E+01-1.998282414E+01+
*       2.2308982692E+01               0
GRID*               3355               01.2089211566E+01-1.653354360E+01+
*       2.1070979855E+01               0
GRID*               3356               08.0138814858E+00-1.875150063E+01+
*       2.2383796290E+01               0
GRID*               3357               01.9786786835E+00-1.705934965E+01+
*       2.0412377825E+01               0
GRID*               3358               01.1301679269E+00-1.358544405E+01+
*       2.0349642433E+01               0
GRID*               3359               04.4401054128E+00-1.650678352E+01+
*       2.0086894054E+01               0
GRID*               3360               02.2813422519E+00-1.942634323E+01+
*       1.7782624259E+01               0
GRID*               3361               0-1.028595234E+00-1.650500375E+01+
*       1.8045372639E+01               0
GRID*               3362               01.4328314953E+00-1.595243762E+01+
*       1.7719888867E+01               0
GRID*               3363               04.5380198249E+00-1.556468338E+01+
*       1.7219451492E+01               0
GRID*               3364               02.3792566641E+00-1.848424308E+01+
*       1.4915181698E+01               0
GRID*               3365               01.1149164837E+01-1.487137312E+01+
*       1.8061342552E+01               0
GRID*               3366               07.0738347569E+00-1.708933015E+01+
*       1.9374158987E+01               0
GRID*               3367               09.7991000733E+00-1.586014165E+01+
*       2.1608325831E+01               0
GRID*               3368               09.9283084516E-01-2.305915469E+01+
*       2.1216689034E+01               0
GRID*               3369               03.0041552255E+00-2.056554102E+01+
*       2.1291524066E+01               0
GRID*               3370               03.2772917892E+00-2.247430280E+01+
*       2.0074794414E+01               0
GRID*               3371               02.7001787162E-01-2.191995689E+01+
*       1.7707789228E+01               0
GRID*               3372               01.1729639802E+00-2.255275109E+01+
*       1.2499995322E+01               0
GRID*               3373               03.6718027642E+00-2.216529747E+01+
*       1.2500000458E+01               0
GRID*               3374               03.2821454306E+00-1.911691575E+01+
*       1.2207372161E+01               0
GRID*               3375               04.8277334942E+00-1.859581226E+01+
*       2.2674192648E+01               0
GRID*               3376               03.9792227376E+00-1.512190666E+01+
*       2.2611457256E+01               0
GRID*               3377               01.5177960083E+00-1.567447279E+01+
*       2.2936941028E+01               0
GRID*               3378               06.2253240003E+00-1.361542454E+01+
*       1.9311423594E+01               0
GRID*               3379               06.6129520817E+00-1.570445328E+01+
*       2.1898722189E+01               0
GRID*               3380               07.1717491690E+00-1.614723001E+01+
*       1.6506716425E+01               0
GRID*               3381               05.3164531085E+00-2.070646202E+01+
*       2.5099366826E+01               0
GRID*               3382               05.7773357837E+00-2.209133888E+01+
*       2.2574803624E+01               0
GRID*               3383               03.4928748397E+00-2.267619077E+01+
*       2.3716698244E+01               0
GRID*               3384               02.5432725502E+00-1.918066415E+01+
*       2.3816087269E+01               0
GRID*               3385               0-3.320715726E+00-2.251131201E+00+
*       2.5644477631E+01               0
GRID*               3386               0-1.218044005E+003.9004896464E+00+
*       1.6331794398E+01               0
GRID*               3387               01.1086133578E+005.1253056979E-01+
*       1.6233290584E+01               0
GRID*               3388               0-3.124574509E+001.1869686763E+00+
*       1.6309996590E+01               0
GRID*               3389               06.3675645507E-012.2662105573E+00+
*       1.3810452816E+01               0
GRID*               3390               07.8862775134E+00-2.895194327E+00+
*       1.7009755262E+01               0
GRID*               3391               03.9049192068E+00-3.176221844E+00+
*       1.6064243732E+01               0
GRID*               3392               05.3948124832E+00-8.461646247E-01+
*       1.6119073906E+01               0
GRID*               3393               03.0164250762E+00-1.806005607E+00+
*       1.3674438330E+01               0
GRID*               3394               0-3.812799186E-01-1.817526650E+00+
*       1.6178460410E+01               0
GRID*               3395               0-1.997470183E+013.5272743575E+00+
*       1.9122456416E+01               0
GRID*               3396               0-1.722893755E+013.8945455991E-01+
*       1.7263745035E+01               0
GRID*               3397               0-1.771160916E+011.9116964429E+00+
*       2.1366913807E+01               0
GRID*               3398               0-2.053963503E+011.3521683178E+00+
*       2.3763036678E+01               0
GRID*               3399               0-2.005696342E+01-1.700735652E-01+
*       1.9659867906E+01               0
GRID*               3400               0-1.779387075E+01-1.785651480E+00+
*       2.1904325297E+01               0
GRID*               3401               0-1.624889538E+01-5.087356466E+00+
*       1.6290846336E+01               0
GRID*               3402               0-1.376424550E+01-3.199322809E+00+
*       1.6865957820E+01               0
GRID*               3403               0-1.450347717E+01-4.011187203E+00+
*       1.3392346026E+01               0
GRID*               3404               0-1.818972643E+01-3.926021406E+00+
*       1.5459479148E+01               0
GRID*               3405               0-1.570507655E+01-2.037987749E+00+
*       1.6034590632E+01               0
GRID*               3406               0-1.811315636E+01-3.976217894E+00+
*       2.5205416684E+01               0
GRID*               3407               0-2.027852063E+01-3.673685137E+00+
*       2.1329213813E+01               0
GRID*               3408               0-1.971358743E+01-1.498579097E+00+
*       1.6688633551E+01               0
GRID*               3409               01.4093682468E+015.6181174352E+00+
*       3.3633793146E+01               0
GRID*               3410               01.1929787025E+014.5055193397E+00+
*       3.6049830935E+01               0
GRID*               3411               01.3752384139E+016.1563657121E+00+
*       3.7372580940E+01               0
GRID*               3412               01.4193416700E+01-5.587837233E+00+
*       3.0394146237E+01               0
GRID*               3413               01.4192812194E+01-5.587386882E+00+
*       3.2872397026E+01               0
GRID*               3414               01.5138860453E+01-1.650817212E+00+
*       3.1155523571E+01               0
GRID*               3415               01.5138255947E+01-1.650366861E+00+
*       3.3633774360E+01               0
GRID*               3416               01.4896429186E+01-4.109158569E+00+
*       2.7619630284E+01               0
GRID*               3417               01.4837376837E+014.5442999329E-01+
*       3.7710994673E+01               0
GRID*               3418               01.4479202100E+012.9446474969E+00+
*       3.7711015334E+01               0
GRID*               3419               01.5496897675E+018.3936798498E-01+
*       3.3633776486E+01               0
GRID*               3420               01.5048413131E+01-1.788323748E+01+
*       2.7499989785E+01               0
GRID*               3421               01.9407982343E+002.0710641028E+01+
*       1.1876035061E+01               0
GRID*               3422               02.0585681869E+002.3039863208E+01+
*       1.1876035061E+01               0
GRID*               3423               02.3200908372E-012.2667766696E+01+
*       1.1872723754E+01               0
GRID*               3424               01.1423913112E-012.0338544516E+01+
*       1.1872723754E+01               0
GRID*               3425               01.0243715839E+002.0739716771E+01+
*       1.3748758815E+01               0
GRID*               3426               01.4975107038E+013.3678415027E+00+
*       1.3514701326E+01               0
GRID*               3427               01.5248274433E+015.9433381137E+00+
*       1.6168553928E+01               0
GRID*               3428               01.6419486512E+013.9748769694E+00+
*       1.6735303842E+01               0
GRID*               3429               01.1925764451E+013.1849961873E+00+
*       1.9205080661E+01               0
GRID*               3430               01.0261303767E+013.1527543757E+00+
*       2.2267546903E+01               0
GRID*               3431               01.2917783943E+014.8195926055E+00+
*       2.1809643866E+01               0
GRID*               3432               01.4088996022E+012.8511314612E+00+
*       2.2376393780E+01               0
GRID*               3433               08.9366849785E+006.5636770468E+00+
*       2.1922081745E+01               0
GRID*               3434               08.1633985142E+001.0661389843E+01+
*       2.2014392822E+01               0
GRID*               3435               09.9812659077E+009.2511701277E+00+
*       1.8730641824E+01               0
GRID*               3436               05.3716386433E+005.9229114161E+00+
*       2.1124081720E+01               0
GRID*               3437               05.5614684387E+005.2319247057E+00+
*       1.3462998690E+01               0
GRID*               3438               0-3.854283071E-011.2659995956E+01+
*       1.5943747163E+01               0
GRID*               3439               01.8217587727E+01-1.418342685E+01+
*       1.7926701262E+01               0
GRID*               3440               01.6203819406E+01-1.591450607E+01+
*       1.6261975466E+01               0
GRID*               3441               01.6058484641E+01-1.135967526E+01+
*       1.7838194993E+01               0
GRID*               3442               01.4044716319E+01-1.309075448E+01+
*       1.6173469197E+01               0
GRID*               3443               01.4787526468E+01-1.007806045E+01+
*       2.0393742366E+01               0
GRID*               3444               01.2773758147E+01-1.180913967E+01+
*       1.8729016570E+01               0
GRID*               3445               01.2223928219E+01-1.899378643E+01+
*       1.6261998762E+01               0
GRID*               3446               08.2466355183E+00-2.026991250E+01+
*       1.7207373287E+01               0
GRID*               3447               09.4618606621E+00-1.682063196E+01+
*       1.5969370450E+01               0
GRID*               3448               08.2465125510E+00-2.026964331E+01+
*       1.4707372635E+01               0
GRID*               3449               01.5804612387E+01-1.626291552E+01+
*       1.2499977178E+01               0
GRID*               3450               01.7235541291E+01-1.485107526E+01+
*       1.2499977178E+01               0
GRID*               3451               01.4470998216E+01-1.448134426E+01+
*       1.3761998288E+01               0
GRID*               3452               01.3040069311E+01-1.589318452E+01+
*       1.3761998288E+01               0
GRID*               3453               01.1310079289E+01-1.691333839E+01+
*       1.3761998288E+01               0
GRID*               3454               01.1807257725E+01-1.417623301E+01+
*       1.5250647103E+01               0
GRID*               3455               09.6780606838E+00-1.554479633E+01+
*       1.1488648814E+01               0
GRID*               3456               07.3326636211E+00-1.818919528E+01+
*       1.2207372161E+01               0
GRID*               3457               07.8298420565E+00-1.545208990E+01+
*       1.3696020976E+01               0
GRID*               3458               01.0094731178E+01-2.036234975E+01+
*       1.2500000474E+01               0
GRID*               3459               01.5967648855E+01-7.833709079E+00+
*       2.0805671965E+01               0
GRID*               3460               01.5133275668E+01-6.968266216E+00+
*       1.7007713125E+01               0
GRID*               3461               01.9818802629E+01-1.104589932E+01+
*       1.2499994519E+01               0
GRID*               3462               02.0007988575E+01-8.997520679E+00+
*       1.4540689362E+01               0
GRID*               3463               01.7969125426E+01-7.911406804E+00+
*       1.2040694844E+01               0
GRID*               3464               01.6215047894E+01-1.029825967E+01+
*       1.2411470909E+01               0
GRID*               3465               01.8253911044E+01-1.138437355E+01+
*       1.4911465428E+01               0
GRID*               3466               01.6404233840E+01-8.249881029E+00+
*       1.4452165753E+01               0
GRID*               3467               0-2.082004530E+018.9661671453E+00+
*       1.2499997057E+01               0
GRID*               3468               01.7238607027E+01-9.115323891E+00+
*       1.8250124593E+01               0
GRID*               3469               02.2575875905E+01-2.306547839E+00+
*       1.2500000630E+01               0
GRID*               3470               0-1.191266453E+011.6930491061E+01+
*       2.0426940364E+01               0
GRID*               3471               0-9.250601424E+001.4711210886E+01+
*       2.1344827969E+01               0
GRID*               3472               0-1.398085188E+011.3698063803E+01+
*       2.0622347292E+01               0
GRID*               3473               0-1.399117756E+011.3928358353E+01+
*       1.8143458882E+01               0
GRID*               3474               0-1.132911445E+011.1709078178E+01+
*       1.9061346486E+01               0
GRID*               3475               0-1.334442109E+011.1374081197E+01+
*       1.5434779257E+01               0
GRID*               3476               0-9.841270624E+009.5276151252E+00+
*       1.5154804040E+01               0
GRID*               3477               0-1.138473983E+018.7607113739E+00+
*       1.3151115249E+01               0
GRID*               3478               0-2.148615929E+017.8963509212E+00+
*       1.7486041290E+01               0
GRID*               3479               0-1.951659910E+011.0277536519E+01+
*       1.9169425962E+01               0
GRID*               3480               0-1.828831945E+011.2488378301E+01+
*       1.6669425709E+01               0
GRID*               3481               0-2.171559272E+017.4543512776E+00+
*       2.4112803528E+01               0
GRID*               3482               0-2.171560336E+017.4543290919E+00+
*       2.1612805651E+01               0
GRID*               3483               0-1.951658845E+011.0277558705E+01+
*       2.1669423839E+01               0
GRID*               3484               0-1.902839324E+011.0098198356E+01+
*       2.5234074973E+01               0
GRID*               3485               0-1.557116969E+011.0516570746E+01+
*       2.1903516944E+01               0
GRID*               3486               0-1.780096317E+011.2309545259E+01+
*       2.5234070839E+01               0
GRID*               3487               0-1.828915838E+011.2488905608E+01+
*       2.1669419705E+01               0
GRID*               3488               0-1.626979498E+011.6357029841E+01+
*       1.7187270118E+01               0
GRID*               3489               0-1.457351043E+011.7640364612E+01+
*       1.8974007781E+01               0
GRID*               3490               0-1.664169778E+011.4407937354E+01+
*       1.9169414709E+01               0
GRID*               3491               0-1.568746211E+011.2645023582E+01+
*       1.6356721219E+01               0
GRID*               3492               0-1.765702231E+011.0263837984E+01+
*       1.4673336546E+01               0
GRID*               3493               0-1.791641666E+011.4437470788E+01+
*       1.4687281118E+01               0
GRID*               3494               01.9384508502E+01-1.238063302E+01+
*       2.7499989023E+01               0
GRID*               3495               01.7939673287E+01-1.445644663E+01+
*       2.7499985587E+01               0
GRID*               3496               09.8779798003E+001.1683479223E+00+
*       1.8637486111E+01               0
GRID*               3497               01.3016449315E+013.6650738380E+00+
*       1.2730646831E+01               0
GRID*               3498               01.3289616709E+016.2405704490E+00+
*       1.5384499434E+01               0
GRID*               3499               02.2120125631E+015.9058168547E+00+
*       1.8492314880E+01               0
GRID*               3500               01.9385154405E+015.1782004809E+00+
*       2.1323068112E+01               0
GRID*               3501               01.9459622947E+016.9818700788E+00+
*       1.7708435288E+01               0
GRID*               3502               0-6.785342250E-01-1.884758514E+00+
*       2.0724417178E+01               0
GRID*               3503               01.7279463027E+012.1625028928E+00+
*       2.7528762949E+01               0
GRID*               3504               01.5010933156E+011.0817609475E+00+
*       2.5248192960E+01               0
GRID*               3505               01.7672601252E+015.5044822012E+00+
*       2.7830734427E+01               0
GRID*               3506               01.7990469199E+012.6866115538E+00+
*       2.5359497376E+01               0
GRID*               3507               01.5404071381E+014.4237402559E+00+
*       2.5550164438E+01               0
GRID*               3508               02.2311541713E+015.6943849756E+00+
*       2.7499985562E+01               0
GRID*               3509               01.9576590198E+014.9667015725E+00+
*       2.7830734427E+01               0
GRID*               3510               02.1118558939E+016.7562742653E+00+
*       2.5330719989E+01               0
GRID*               3511               02.2546084619E+015.2598331707E+00+
*       2.3684451337E+01               0
GRID*               3512               02.1004115878E+013.4702604779E+00+
*       2.6184465775E+01               0
GRID*               3513               01.9811133104E+014.5321497677E+00+
*       2.4015200202E+01               0
GRID*               3514               0-1.791721524E+011.4438055605E+01+
*       1.7187267288E+01               0
GRID*               3515               0-1.828911803E+011.2488963118E+01+
*       1.9169411878E+01               0
GRID*               3516               02.0623105564E+011.0257380211E+01+
*       2.7499988242E+01               0
GRID*               3517               01.7426136267E+019.3619344252E+00+
*       2.7847174063E+01               0
GRID*               3518               01.8885517607E+017.2055181647E+00+
*       2.7830734427E+01               0
GRID*               3519               01.6924226084E+018.1850071227E+00+
*       2.5677908490E+01               0
GRID*               3520               01.3944690041E+016.5801565164E+00+
*       2.5566604074E+01               0
GRID*               3521               01.5168118510E+019.9493433419E+00+
*       2.7847174063E+01               0
GRID*               3522               01.6627499850E+017.7929270814E+00+
*       2.7830734427E+01               0
GRID*               3523               0-6.783128736E-011.1764436742E+01+
*       1.1986429951E+01               0
GRID*               3524               0-2.478105218E+001.2396543984E+01+
*       1.3406628393E+01               0
GRID*               3525               0-3.332955131E+001.3429465787E+01+
*       1.1420198442E+01               0
GRID*               3526               0-3.300923110E+001.1663400032E+01+
*       1.1874433161E+01               0
GRID*               3527               0-2.446073197E+001.0630478229E+01+
*       1.3860863112E+01               0
GRID*               3528               0-5.100715454E+001.2295507274E+01+
*       1.3294631604E+01               0
GRID*               3529               03.7339279348E+006.4195947066E+00+
*       1.1916125312E+01               0
GRID*               3530               06.3931130904E+009.1148925472E+00+
*       1.1892623073E+01               0
GRID*               3531               02.5505529750E+009.2954864124E+00+
*       1.1986429951E+01               0
GRID*               3532               04.0190971550E+001.0550921074E+01+
*       1.3879053024E+01               0
GRID*               3533               04.4357448169E-011.2357998358E+01+
*       1.1986429951E+01               0
GRID*               3534               01.9734649160E+001.1968189808E+01+
*       1.3444180617E+01               0
GRID*               3535               02.2405023580E+001.3594673227E+01+
*       1.1457750666E+01               0
GRID*               3536               04.2445349267E-011.4753228763E+01+
*       1.1448035248E+01               0
GRID*               3537               01.5741605065E-011.3126745344E+01+
*       1.3434465199E+01               0
GRID*               3538               01.9543439269E+001.4363420213E+01+
*       1.2905785914E+01               0
GRID*               3539               01.4996650147E+001.1653853564E+01+
*       1.1986429951E+01               0
GRID*               3540               03.2965928910E+001.2890528433E+01+
*       1.1457750666E+01               0
GRID*               3541               04.3474808513E+001.0532161281E+01+
*       1.1457750666E+01               0
GRID*               3542               0-7.790980591E-016.6488204667E+00+
*       1.1916125312E+01               0
GRID*               3543               01.3774908473E+004.5659497838E+00+
*       1.1916125312E+01               0
GRID*               3544               01.5041216106E+007.0602491775E+00+
*       1.1916125312E+01               0
GRID*               3545               0-1.962473019E+009.5247121725E+00+
*       1.1986429951E+01               0
GRID*               3546               03.2074665082E-019.9361408833E+00+
*       1.1986429951E+01               0
GRID*               3547               0-1.400583194E+01-6.587506021E+00+
*       3.3964812937E+01               0
GRID*               3548               0-1.296064363E+01-8.875999461E+00+
*       3.3964812828E+01               0
GRID*               3549               0-1.586060313E+004.8485142982E+00+
*       1.3724748092E+01               0
GRID*               3550               0-3.531325050E+006.2174603224E+00+
*       1.6877751054E+01               0
GRID*               3551               0-2.769435273E+007.7244060041E+00+
*       1.3795052730E+01               0
GRID*               3552               01.4114995691E+001.3896670825E+01+
*       1.5415067879E+01               0
GRID*               3553               0-9.991475494E-031.1052078442E+01+
*       2.4147792851E+01               0
GRID*               3554               0-4.424075563E-011.5158355668E+01+
*       2.5459647405E+01               0
GRID*               3555               0-1.806290848E+001.4166715063E+01+
*       2.1529145236E+01               0
GRID*               3556               0-4.045492962E-011.5055226361E+01+
*       1.5405352461E+01               0
GRID*               3557               0-2.035126165E+001.7575589393E+01+
*       1.4610952858E+01               0
GRID*               3558               05.1292007181E-011.7132146951E+01+
*       1.5665103923E+01               0
GRID*               3559               02.1507397479E+01-7.968543251E+00+
*       2.7499990365E+01               0
GRID*               3560               0-2.505367455E+001.9998411648E+01+
*       1.5035641364E+01               0
GRID*               3561               04.2678781318E-021.9554969206E+01+
*       1.6089792429E+01               0
GRID*               3562               0-3.319462289E-011.7944798004E+01+
*       1.3320759002E+01               0
GRID*               3563               0-7.194817226E+00-2.561792173E+00+
*       4.0025730723E+01               0
GRID*               3564               0-6.137661185E+005.0404983970E-02+
*       3.9064164157E+01               0
GRID*               3565               0-6.776143751E+002.1113189294E+00+
*       3.6461238712E+01               0
GRID*               3566               0-7.833299792E+00-5.008782278E-01+
*       3.7422805278E+01               0
GRID*               3567               0-8.195148996E+00-1.375643797E+00+
*       4.3469628976E+01               0
GRID*               3568               0-7.299404733E+00-2.165528908E+00+
*       4.3469628976E+01               0
GRID*               3569               0-7.340074487E+00-4.862153611E+00+
*       4.3650098045E+01               0
GRID*               3570               0-8.235818750E+00-4.072268501E+00+
*       4.3650098045E+01               0
GRID*               3571               0-8.057483213E+00-2.861010522E+00+
*       4.2119727020E+01               0
GRID*               3572               0-1.037974981E+01-1.147369114E+01+
*       3.6668663009E+01               0
GRID*               3573               0-1.131307293E+01-1.077728447E+01+
*       3.3964810829E+01               0
GRID*               3574               0-4.857037807E+00-1.382675589E+01+
*       3.6953265494E+01               0
GRID*               3575               0-5.179009128E+00-1.201680918E+01+
*       2.7619206631E+01               0
GRID*               3576               0-8.809761996E+00-1.009675230E+01+
*       2.9415829580E+01               0
GRID*               3577               0-9.365369987E+00-2.353694496E+00+
*       3.9609513941E+01               0
GRID*               3578               0-5.566110983E+00-1.405729977E+01+
*       2.9689920324E+01               0
GRID*               3579               0-6.956463733E+00-1.403967550E+01+
*       2.7929286306E+01               0
GRID*               3580               0-9.072882365E+00-1.267953304E+01+
*       2.7929286306E+01               0
GRID*               3581               0-3.057822604E-01-1.764420154E+01+
*       2.1554272445E+01               0
GRID*               3582               08.8133204323E+00-1.171715807E+01+
*       2.1285095138E+01               0
GRID*               3583               07.2073803239E+00-1.087525826E+01+
*       2.5341591700E+01               0
GRID*               3584               04.6193838918E+00-1.277352474E+01+
*       2.3367920157E+01               0
GRID*               3585               07.2531132359E+00-1.335607136E+01+
*       2.2655185090E+01               0
GRID*               3586               0-2.287184739E+002.2912667441E+01+
*       2.7499991178E+01               0
GRID*               3587               0-4.603425044E+002.2561712364E+01+
*       2.7499991178E+01               0
GRID*               3588               0-3.021383992E+002.2757790680E+01+
*       2.3512101073E+01               0
GRID*               3589               0-1.523191110E+002.0958708230E+01+
*       2.6012109894E+01               0
GRID*               3590               0-3.839431415E+002.0607753153E+01+
*       2.6012109894E+01               0
GRID*               3591               02.3873915506E-012.3040737505E+01+
*       2.7499987492E+01               0
GRID*               3592               0-4.954600981E-012.2885860743E+01+
*       2.3512097386E+01               0
GRID*               3593               0-2.386592347E+001.9150782867E+01+
*       2.6012109894E+01               0
GRID*               3594               0-2.385087169E-011.8687794826E+01+
*       2.3899929276E+01               0
GRID*               3595               0-3.677107013E-011.7034746224E+01+
*       2.7887819382E+01               0
GRID*               3596               0-2.590491187E+001.5621343709E+01+
*       2.7571828023E+01               0
GRID*               3597               0-1.256321808E+011.8958152597E+01+
*       2.3952911155E+01               0
GRID*               3598               0-1.029189435E+012.0071067893E+01+
*       2.3952914938E+01               0
GRID*               3599               0-1.075288164E+011.9569799324E+01+
*       2.6041459134E+01               0
GRID*               3600               0-1.009200241E+011.7311843239E+01+
*       2.4994376754E+01               0
GRID*               3601               0-8.481557917E+002.0682714620E+01+
*       2.6041462918E+01               0
GRID*               3602               0-7.051461166E+002.1926807056E+01+
*       2.7500000551E+01               0
GRID*               3603               0-9.058835802E+002.1543569286E+01+
*       2.7500000551E+01               0
GRID*               3604               0-6.851569217E+001.9167582402E+01+
*       2.8541462367E+01               0
GRID*               3605               0-8.858943853E+001.8784344631E+01+
*       2.8541462367E+01               0
GRID*               3606               0-1.133015952E+012.0430653989E+01+
*       2.7499996768E+01               0
GRID*               3607               0-3.996991626E+002.2170472598E+01+
*       1.8162916428E+01               0
GRID*               3608               0-5.468774139E+002.2120979741E+01+
*       2.1012112436E+01               0
GRID*               3609               01.3339590056E+001.7657038168E+01+
*       2.2104888057E+01               0
GRID*               3610               01.0907651818E+002.0801663113E+01+
*       2.2572715290E+01               0
GRID*               3611               03.1096468278E+001.8685626470E+01+
*       2.4448424778E+01               0
GRID*               3612               08.5119438637E+00-9.177284087E+00+
*       1.1771025746E+01               0
GRID*               3613               08.0946722166E+00-1.020532921E+01+
*       1.1771025746E+01               0
GRID*               3614               01.0117707230E+01-1.122604911E+01+
*       1.1488648814E+01               0
GRID*               3615               09.7004355826E+00-1.225409423E+01+
*       1.1488648814E+01               0
GRID*               3616               05.2776535216E+00-1.087151941E+01+
*       1.6783105077E+01               0
GRID*               3617               09.0961930883E+00-7.705124856E+00+
*       1.1771025746E+01               0
GRID*               3618               01.1695437838E+01-6.501562040E+00+
*       1.2097424894E+01               0
GRID*               3619               01.1111188614E+01-7.973721271E+00+
*       1.2097424894E+01               0
GRID*               3620               07.4404411246E+00-7.071622127E+00+
*       1.1771025746E+01               0
GRID*               3621               01.0039685874E+01-5.868059311E+00+
*       1.2097424894E+01               0
GRID*               3622               01.1629830573E+01-1.206296057E+01+
*       1.7119110006E+01               0
GRID*               3623               01.2412697714E+01-1.172221242E+01+
*       1.3900119724E+01               0
GRID*               3624               06.4618772722E+00-5.209906566E+00+
*       1.6006347289E+01               0
GRID*               3625               05.3038621037E+00-8.818452858E+00+
*       1.1771025746E+01               0
GRID*               3626               05.4533542753E+00-6.840776359E+00+
*       1.1771025746E+01               0
GRID*               3627               02.6900947305E+00-8.416274843E+00+
*       1.1619330039E+01               0
GRID*               3628               04.3499450140E+00-8.307982891E+00+
*       1.3390355785E+01               0
GRID*               3629               02.8395869021E+00-6.438598344E+00+
*       1.1619330039E+01               0
GRID*               3630               07.6098970318E+00-4.298892075E+00+
*       1.1780110826E+01               0
GRID*               3631               05.6228101825E+00-4.068046307E+00+
*       1.1780110826E+01               0
GRID*               3632               08.5887908897E+001.5613193793E+01+
*       1.2283529182E+01               0
GRID*               3633               01.0144376346E+011.4821885883E+01+
*       1.2283529182E+01               0
GRID*               3634               01.2965778413E+01-1.109914955E+01+
*       2.2012365093E+01               0
GRID*               3635               01.1295452191E+01-1.168056990E+01+
*       2.4031097686E+01               0
GRID*               3636               01.0483646654E+01-1.113573772E+01+
*       1.9266362545E+01               0
GRID*               3637               01.1341185103E+01-1.416138300E+01+
*       2.1344691075E+01               0
GRID*               3638               09.5171462318E+00-1.350283106E+01+
*       1.5787993078E+01               0
GRID*               3639               0-2.246757232E+01-2.501095334E+00+
*       1.9178989729E+01               0
GRID*               3640               0-2.246757232E+01-2.501095334E+00+
*       1.6678989729E+01               0
GRID*               3641               0-2.224601511E+011.0025162373E+00+
*       1.7509643822E+01               0
GRID*               3642               0-2.224601511E+011.0025162373E+00+
*       1.5009643822E+01               0
GRID*               3643               0-2.281094831E+01-1.172589802E+00+
*       2.4650224084E+01               0
GRID*               3644               0-2.080705126E+01-1.718593278E-03+
*       2.7150224084E+01               0
GRID*               3645               0-2.299792159E+01-1.171375949E+00+
*       2.7500000000E+01               0
GRID*               3646               0-2.080886990E+01-2.343965752E+00+
*       2.7150224084E+01               0
GRID*               3647               0-5.880416740E+002.1745393424E+01+
*       1.2500000663E+01               0
GRID*               3648               0-1.830012964E+01-3.975004041E+00+
*       2.8055192600E+01               0
GRID*               3649               0-1.821887855E+01-6.008917645E+00+
*       2.8055192600E+01               0
GRID*               3650               0-2.072761881E+01-4.377879356E+00+
*       2.7150224084E+01               0
GRID*               3651               0-2.274204951E+01-3.687577167E+00+
*       2.7499987131E+01               0
GRID*               3652               0-2.266079842E+01-5.721490771E+00+
*       2.7499987131E+01               0
GRID*               3653               0-2.255507623E+01-3.688791020E+00+
*       2.4650211215E+01               0
GRID*               3654               0-2.145457858E+01-7.430452013E+00+
*       2.1678975968E+01               0
GRID*               3655               0-2.145460834E+01-7.430381817E+00+
*       1.9178969800E+01               0
GRID*               3656               0-2.221170798E+01-5.017255250E+00+
*       1.9178972234E+01               0
GRID*               3657               0-2.179795457E+01-6.101946481E+00+
*       2.4650210324E+01               0
GRID*               3658               0-2.255508397E+01-3.688749718E+00+
*       2.2150206590E+01               0
GRID*               3659               0-1.928921431E+01-7.732984770E+00+
*       2.5555178840E+01               0
GRID*               3660               02.0279516612E+01-5.752542567E+00+
*       2.5838653684E+01               0
GRID*               3661               01.8394326413E+01-6.287143713E+00+
*       2.5838653684E+01               0
GRID*               3662               01.7279463027E+01-2.817870647E+00+
*       2.7528762949E+01               0
GRID*               3663               01.9164653226E+01-2.283269501E+00+
*       2.7528762949E+01               0
GRID*               3664               02.3053908948E+012.5322996370E-01+
*       2.3684468532E+01               0
GRID*               3665               01.9417994878E+011.1901704593E+00+
*       2.3713228724E+01               0
GRID*               3666               01.6329160518E+01-5.415928742E+00+
*       2.3458283968E+01               0
GRID*               3667               01.4204883540E+01-5.944242589E+00+
*       2.5694913244E+01               0
GRID*               3668               01.3843371877E+01-8.362022925E+00+
*       2.3042301242E+01               0
GRID*               3669               01.9662666243E+01-1.210770415E+01+
*       2.2926713107E+01               0
GRID*               3670               01.7188655232E+01-1.235554550E+01+
*       2.5426724084E+01               0
GRID*               3671               01.6522658381E+01-1.036657911E+01+
*       2.3502007044E+01               0
GRID*               3672               01.6244500641E+01-1.063950797E+01+
*       2.8075282960E+01               0
GRID*               3673               02.0842788162E+01-9.863353628E+00+
*       2.0838627906E+01               0
GRID*               3674               01.8646935359E+01-9.838265260E+00+
*       2.1265377768E+01               0
GRID*               3675               01.9662665775E+01-1.210770500E+01+
*       2.0426698307E+01               0
GRID*               3676               0-7.025089450E+006.9999743697E+00+
*       4.3028350899E+01               0
GRID*               3677               0-6.187361615E+008.4672159775E+00+
*       4.0540502169E+01               0
GRID*               3678               0-6.332121121E+009.5022233214E+00+
*       4.2512151270E+01               0
GRID*               3679               0-5.390569702E+008.1278576315E+00+
*       4.3840394467E+01               0
GRID*               3680               0-5.245810196E+007.0928502876E+00+
*       4.1868745366E+01               0
GRID*               3681               06.9009008770E+001.6238996819E+01+
*       1.2283529182E+01               0
GRID*               3682               07.4256082210E+001.8134048561E+01+
*       1.2283529182E+01               0
GRID*               3683               03.9727797373E+002.0374689999E+01+
*       1.1876035061E+01               0
GRID*               3684               03.4480723932E+001.8479638258E+01+
*       1.1876035061E+01               0
GRID*               3685               02.0035983001E-012.7841128830E+00+
*       4.2905328737E+01               0
GRID*               3686               0-2.762159220E+004.0015342094E+00+
*       4.3843990209E+01               0
GRID*               3687               0-2.067898807E+006.4353194585E+00+
*       4.3840394467E+01               0
GRID*               3688               0-5.265883492E+004.5934699034E+00+
*       4.3843990209E+01               0
GRID*               3689               0-5.940070609E+004.6590650385E+00+
*       4.1872341107E+01               0
GRID*               3690               0-6.206142827E+005.8993718907E+00+
*       4.3028350899E+01               0
GRID*               3691               0-4.571623078E+007.0272551525E+00+
*       4.3840394467E+01               0
GRID*               3692               02.7210642091E-018.3406428697E+00+
*       4.3825402902E+01               0
GRID*               3693               0-8.985884110E-017.9636945347E+00+
*       4.2665797369E+01               0
GRID*               3694               0-2.440595615E+008.5976818843E+00+
*       4.3840394467E+01               0
GRID*               3695               0-4.341618502E-011.0321281294E+01+
*       4.3655732618E+01               0
GRID*               3696               01.1078453542E+009.6872939447E+00+
*       4.2481135520E+01               0
GRID*               3697               0-1.604856682E+009.9443329593E+00+
*       4.2496127085E+01               0
GRID*               3698               06.2695255655E-018.3050427745E+00+
*       3.9672899048E+01               0
GRID*               3699               0-4.724373387E+005.9526594225E+00+
*       3.8868893058E+01               0
GRID*               3700               08.1489361326E+00-2.121247635E+01+
*       2.2574816493E+01               0
GRID*               3701               07.6880534574E+00-1.982759949E+01+
*       2.5099379695E+01               0
GRID*               3702               0-4.497788747E+00-2.228650802E+01+
*       2.4952572313E+01               0
GRID*               3703               0-2.998899790E+00-2.048980460E+01+
*       2.7452586481E+01               0
GRID*               3704               0-2.286973672E+00-2.291496861E+01+
*       2.7499985833E+01               0
GRID*               3705               0-1.533084174E+00-2.293103247E+01+
*       2.3716695176E+01               0
GRID*               3706               0-2.245010292E+00-2.050586846E+01+
*       2.3669295824E+01               0
GRID*               3707               0-3.419521636E-02-2.113432905E+01+
*       2.6216709343E+01               0
GRID*               3708               02.0293503985E+00-1.290897990E+01+
*       1.6635713688E+01               0
GRID*               3709               0-1.294127624E-01-1.582853961E+01+
*       1.4331443894E+01               0
GRID*               3710               0-4.320763308E-01-1.346154603E+01+
*       1.6961197460E+01               0
GRID*               3711               0-4.497866124E+00-2.228649501E+01+
*       2.2452567171E+01               0
GRID*               3712               0-3.224805995E+008.3658636503E+00+
*       2.6090056225E+01               0
GRID*               3713               0-1.764653918E+001.1353271371E+01+
*       2.7741804527E+01               0
GRID*               3714               0-2.006215278E+001.0731288364E+01+
*       2.2640956298E+01               0
GRID*               3715               0-4.125340119E+001.0757545433E+01+
*       2.3491907744E+01               0
GRID*               3716               05.8160250313E+001.1787595943E+01+
*       1.3350373739E+01               0
GRID*               3717               08.9322828311E+001.2649669267E+01+
*       2.5379076906E+01               0
GRID*               3718               05.3672364959E+001.2008903636E+01+
*       2.4581076881E+01               0
GRID*               3719               08.2162072753E+00-3.843104463E+00+
*       4.3901792955E+01               0
GRID*               3720               07.6264682444E+00-5.288833792E+00+
*       4.3901792955E+01               0
GRID*               3721               06.9033938125E+00-3.493698581E+00+
*       4.3901792955E+01               0
GRID*               3722               0-7.825963989E+009.8626121059E+00+
*       1.8781371269E+01               0
GRID*               3723               0-8.604342906E+007.9993164839E+00+
*       1.3760202058E+01               0
GRID*               3724               0-6.092178099E+001.0246181486E+01+
*       2.0811993303E+01               0
GRID*               3725               0-5.347391277E+003.7692724172E+00+
*       1.6224291865E+01               0
GRID*               3726               03.9078034458E+001.4526163954E+01+
*       1.1457750666E+01               0
GRID*               3727               04.9201787422E+001.2268037039E+01+
*       1.1457750666E+01               0
GRID*               3728               0-3.111213392E+00-3.979928467E+00+
*       2.1982380657E+01               0
GRID*               3729               01.8464662152E+001.8845631942E+01+
*       1.1876035061E+01               0
GRID*               3730               0-3.473830038E+00-2.910282439E+00+
*       1.6636628876E+01               0
GRID*               3731               0-2.236080378E+00-1.832475607E-01+
*       1.8699801991E+01               0
GRID*               3732               0-4.362324168E+00-1.540066202E+00+
*       1.4246823474E+01               0
GRID*               3733               02.2800567296E+01-3.220209997E+00+
*       2.7500002757E+01               0
GRID*               3734               02.2292681627E+01-5.697765503E+00+
*       2.7499990365E+01               0
GRID*               3735               01.1095504352E+012.0074666076E+01+
*       2.7499994005E+01               0
GRID*               3736               08.9721112201E+002.1185388159E+01+
*       2.7499994005E+01               0
GRID*               3737               0-1.044488390E+011.3411479080E+01+
*       2.4230067383E+01               0
GRID*               3738               0-7.793146480E+001.1422493454E+01+
*       2.2669066577E+01               0
GRID*               3739               0-8.634547463E+001.4023125807E+01+
*       2.6318615362E+01               0
GRID*               3740               0-7.744269999E+002.8008802448E+00+
*       1.3372872459E+01               0
GRID*               3741               0-1.095656740E+013.1768274346E+00+
*       1.3450018576E+01               0
GRID*               3742               0-8.927704983E+005.0932442588E+00+
*       1.3694391676E+01               0
GRID*               3743               0-1.416698771E+011.8903302767E+00+
*       2.6353379669E+01               0
GRID*               3744               04.5585782395E+002.2656881850E+01+
*       1.1876035061E+01               0
GRID*               3745               0-1.347831190E+01-1.994002185E+00+
*       1.4392455294E+01               0
GRID*               3746               0-7.101258880E+00-7.283740345E+00+
*       2.3783291540E+01               0
GRID*               3747               02.0636313584E+01-9.118292590E+00+
*       1.2499994519E+01               0
GRID*               3748               0-9.372327876E+00-1.033386556E+01+
*       1.9182998418E+01               0
GRID*               3749               0-8.164358603E+00-9.524747577E+00+
*       2.2711158715E+01               0
GRID*               3750               0-1.079414699E+01-1.046796938E+01+
*       2.6361372186E+01               0
GRID*               3751               0-1.200211626E+01-1.127708736E+01+
*       2.2833211889E+01               0
GRID*               3752               0-9.114131957E+00-1.280331906E+01+
*       2.2590140592E+01               0
GRID*               3753               01.3959228802E+011.7924869475E+01+
*       1.2500000688E+01               0
GRID*               3754               01.2168015012E+011.8978198280E+01+
*       1.2500000688E+01               0
GRID*               3755               09.3963368102E+001.7410669116E+01+
*       1.2283529182E+01               0
GRID*               3756               01.1187550599E+011.6357340311E+01+
*       1.2283529182E+01               0
GRID*               3757               01.2528265857E+011.8198059571E+01+
*       1.4783529870E+01               0
GRID*               3758               01.0650597058E+01-2.931815725E+00+
*       2.2849274720E+01               0
GRID*               3759               01.2041211372E+018.3448319619E-01+
*       2.1808799230E+01               0
GRID*               3760               07.7712046582E+00-5.853093759E-01+
*       1.7311587470E+01               0
GRID*               3761               02.2546104330E+015.2597661414E+00+
*       2.1184446969E+01               0
GRID*               3762               06.5744901548E+004.5979944808E+00+
*       1.1546873378E+01               0
GRID*               3763               06.7521094142E+006.6717878849E+00+
*       1.1546873378E+01               0
GRID*               3764               03.5563086754E+004.3458013025E+00+
*       1.1916125312E+01               0
GRID*               3765               03.4996921011E+002.1487031531E+00+
*       1.1916125312E+01               0
GRID*               3766               01.2618509383E+002.2897396777E+00+
*       1.1916125312E+01               0
GRID*               3767               01.5931615968E+00-5.648178170E-01+
*       1.1894327504E+01               0
GRID*               3768               0-6.446795659E-01-4.237812924E-01+
*       1.1894327504E+01               0
GRID*               3769               0-1.877718310E+01-1.329236596E+01+
*       2.3753752662E+01               0
GRID*               3770               0-1.877717022E+01-1.329238588E+01+
*       2.1253748665E+01               0
GRID*               3771               0-2.000459118E+01-1.108092924E+01+
*       2.1253742300E+01               0
GRID*               3772               0-2.221170901E+01-5.017253216E+00+
*       1.6678962234E+01               0
GRID*               3773               0-2.072215411E+01-1.424926071E+00+
*       1.3780489419E+01               0
GRID*               3774               0-2.046629080E+01-3.941083953E+00+
*       1.3780461925E+01               0
GRID*               3775               0-5.108118350E+002.2450034280E+00+
*       1.1808622779E+01               0
GRID*               3776               0-7.136980763E+003.2858660375E-01+
*       1.1564249680E+01               0
GRID*               3777               0-2.885301582E+00-3.373003129E-01+
*       1.1894327504E+01               0
GRID*               3778               0-3.492590818E+002.1349933282E+00+
*       1.3702950283E+01               0
GRID*               3779               0-5.521453231E+002.1857650388E-01+
*       1.3458577184E+01               0
GRID*               3780               0-1.128391828E+01-1.347209733E+01+
*       2.2147954198E+01               0
GRID*               3781               0-1.438951533E+01-1.302491319E+01+
*       2.4373939260E+01               0
GRID*               3782               0-1.343974197E+01-9.746341709E+00+
*       2.4494957383E+01               0
GRID*               3783               0-2.145364530E+01-7.429968544E+00+
*       1.6678978662E+01               0
GRID*               3784               0-1.917623001E+01-8.011965611E+00+
*       1.6253310533E+01               0
GRID*               3785               0-2.069473067E+01-1.043974349E+01+
*       1.4574309737E+01               0
GRID*               3786               0-1.970822709E+01-6.353799281E+00+
*       1.3780478353E+01               0
GRID*               3787               0-1.743081180E+01-6.935796348E+00+
*       1.3354810223E+01               0
GRID*               3788               0-1.515109327E+01-1.149390392E+01+
*       1.3330682082E+01               0
GRID*               3789               0-1.631976320E+01-8.955270852E+00+
*       2.4308954829E+01               0
GRID*               3790               0-2.000456142E+01-1.108099944E+01+
*       2.3753748468E+01               0
GRID*               3791               0-1.848512747E+01-8.652738095E+00+
*       2.0432751957E+01               0
GRID*               3792               08.7907105225E+00-1.367222003E+00+
*       4.3977251664E+01               0
GRID*               3793               01.0493566346E+01-3.721516705E+00+
*       4.1986795198E+01               0
GRID*               3794               08.8298128180E+00-4.754204514E+00+
*       4.0888588153E+01               0
GRID*               3795               0-2.069569371E+01-1.044015676E+01+
*       1.7074300875E+01               0
GRID*               3796               0-1.218436519E+01-1.425481587E+01+
*       1.7018493227E+01               0
GRID*               3797               0-1.528996223E+01-1.380763174E+01+
*       1.9244478289E+01               0
GRID*               3798               0-1.598106477E+01-1.316685925E+01+
*       1.5065036865E+01               0
GRID*               3799               0-8.479938394E+00-5.703819312E+00+
*       4.3650098045E+01               0
GRID*               3800               0-1.116788927E+01-2.144029422E+00+
*       1.3676106287E+01               0
GRID*               3801               01.0799425406E+01-6.237144285E+00+
*       2.4605381158E+01               0
GRID*               3802               07.3183908641E+00-9.410669202E+00+
*       2.8815230076E+01               0
GRID*               3803               05.2054218548E+00-7.931407439E+00+
*       2.7144046169E+01               0
GRID*               3804               01.0096412920E+01-7.715822950E+00+
*       2.7379897111E+01               0
GRID*               3805               01.1216959264E+00-5.546773882E+00+
*       1.5903462945E+01               0
GRID*               3806               04.5194009212E+00-5.535252839E+00+
*       1.3399440865E+01               0
GRID*               3807               09.7352449944E+00-1.331948319E+01+
*       2.5401187638E+01               0
GRID*               3808               01.2281231832E+01-1.582355348E+01+
*       2.4354328379E+01               0
GRID*               3809               08.1931599648E+00-1.501824184E+01+
*       2.5664822393E+01               0
GRID*               3810               0-2.082817804E+01-9.832823057E+00+
*       2.7499986240E+01               0
GRID*               3811               0-5.479988104E+00-1.152198474E+01+
*       1.2541249142E+01               0
GRID*               3812               0-8.206867757E+00-9.594291403E+00+
*       2.6170481461E+01               0
GRID*               3813               03.6452146584E+00-9.570320728E+00+
*       2.8514136121E+01               0
GRID*               3814               01.0874201449E+01-1.998328785E+01+
*       2.4808983337E+01               0
GRID*               3815               07.5529988106E+00-1.736662376E+01+
*       2.4908359493E+01               0
GRID*               3816               05.7759324662E+00-2.208656585E+01+
*       2.0074818070E+01               0
GRID*               3817               05.8552082036E+00-1.664555074E+01+
*       2.7599377925E+01               0
GRID*               3818               06.4953693578E+00-1.429716882E+01+
*       2.8355840826E+01               0
GRID*               3819               09.0413561952E+00-1.680123910E+01+
*       2.7308981567E+01               0
GRID*               3820               01.6396082972E+01-1.520460687E+01+
*       2.4545332398E+01               0
GRID*               3821               01.4562952039E+01-1.694711580E+01+
*       2.2045332127E+01               0
GRID*               3822               01.4562970455E+01-1.694710254E+01+
*       2.4545336596E+01               0
GRID*               3823               01.6881525647E+01-1.614074182E+01+
*       2.7499985587E+01               0
GRID*               3824               01.4308759537E+01-1.506092978E+01+
*       2.7045346812E+01               0
GRID*               3825               01.4370931773E+01-1.765710592E+01+
*       1.8761983603E+01               0
GRID*               3826               01.3020867009E+01-1.864587445E+01+
*       2.2308966882E+01               0
GRID*               3827               0-1.644959664E+01-1.298824585E+01+
*       2.6253762228E+01               0
GRID*               3828               0-1.595325129E+01-1.093027441E+01+
*       2.6253762228E+01               0
GRID*               3829               0-1.330765631E+01-1.165190208E+01+
*       2.8120177031E+01               0
GRID*               3830               0-1.380400166E+01-1.370987353E+01+
*       2.8120177031E+01               0
GRID*               3831               01.0948191283E+01-1.772698019E+01+
*       2.7308981567E+01               0
GRID*               3832               08.8379283714E+00-1.874415223E+01+
*       2.7308981567E+01               0
GRID*               3833               01.2699859857E+01-1.374233800E+01+
*       2.7045346812E+01               0
GRID*               3834               01.1157774827E+01-1.544109665E+01+
*       2.7308981567E+01               0
GRID*               3835               01.2766674508E+01-1.675968843E+01+
*       2.7308981567E+01               0
GRID*               3836               05.2797396281E+001.4637203269E+00+
*       1.6420906114E+01               0
GRID*               3837               04.8078827253E+003.2174003145E+00+
*       1.3998068346E+01               0
GRID*               3838               01.2173045655E+01-8.943443276E+00+
*       2.5061033834E+01               0
GRID*               3839               01.4700910326E+01-1.138766821E+01+
*       2.5120629772E+01               0
GRID*               3840               01.1500820586E+01-9.777591046E+00+
*       3.0394146237E+01               0
GRID*               3841               01.3148315298E+01-7.876282114E+00+
*       3.0394146237E+01               0
GRID*               3842               01.5224948033E+01-9.103902440E+00+
*       2.8075282960E+01               0
GRID*               3843               01.3577453321E+01-1.100521137E+01+
*       2.8075282960E+01               0
GRID*               3844               01.3501871055E+01-7.422921253E+00+
*       2.8469429197E+01               0
GRID*               3845               02.3289689371E+001.5973591415E+01+
*       1.5674819341E+01               0
GRID*               3846               04.3573672128E+001.8248712835E+01+
*       2.7887819382E+01               0
GRID*               3847               02.5109211335E+001.9063924964E+01+
*       2.7887819382E+01               0
GRID*               3848               05.6866411115E+002.0362581122E+01+
*       2.6560605396E+01               0
GRID*               3849               03.8401950322E+002.1177793251E+01+
*       2.6560605396E+01               0
GRID*               3850               07.7243908351E+002.1622301793E+01+
*       2.4060599401E+01               0
GRID*               3851               09.5495644223E+001.9051856186E+01+
*       2.5505106058E+01               0
GRID*               3852               07.5118146987E+001.7792135515E+01+
*       2.8005112053E+01               0
GRID*               3853               02.2539697522E+002.3261990881E+01+
*       2.7499987492E+01               0
GRID*               3854               01.5234215479E+002.0769824100E+01+
*       2.5387806874E+01               0
GRID*               3855               02.8526954465E+002.2883692387E+01+
*       2.4060592888E+01               0
GRID*               3856               02.8527518013E+002.2883689586E+01+
*       2.1560582590E+01               0
GRID*               3857               0-7.355263562E+003.2426760049E+00+
*       2.8911207979E+01               0
GRID*               3858               0-4.387103212E+009.9155404203E+00+
*       3.4912346700E+01               0
GRID*               3859               0-4.925774376E+009.5421756179E+00+
*       2.7947129500E+01               0
GRID*               3860               0-5.826308500E+001.1933857400E+01+
*       2.5348981019E+01               0
GRID*               3861               0-5.439592976E+001.2336301982E+01+
*       2.9136678578E+01               0
GRID*               3862               0-5.931097711E+004.9488969461E+00+
*       3.6707245689E+01               0
GRID*               3863               0-8.753888251E+007.4425464424E+00+
*       3.4931554085E+01               0
GRID*               3864               0-7.394085939E+007.4634535011E+00+
*       3.8378854801E+01               0
GRID*               3865               0-6.854195599E+001.0948557870E+01+
*       3.6577001825E+01               0
GRID*               3866               01.5709464325E+001.0809647737E+01+
*       3.1928936498E+01               0
GRID*               3867               01.7229020733E+001.0780567958E+01+
*       3.5106456139E+01               0
GRID*               3868               03.4480434953E+008.2379079058E+00+
*       3.5015664270E+01               0
GRID*               3869               0-7.931571459E-021.0285681199E+01+
*       3.9503228763E+01               0
GRID*               3870               0-1.627739921E+001.2146118837E+01+
*       3.9584845160E+01               0
GRID*               3871               08.3935246600E-011.1113101386E+01+
*       3.7920190035E+01               0
GRID*               3872               0-3.160136251E+001.2532114400E+01+
*       3.5908314519E+01               0
GRID*               3873               07.0651711480E-011.3708768308E+01+
*       3.5468857138E+01               0
GRID*               3874               0-6.930438634E-011.1499096950E+01+
*       3.4243659394E+01               0
GRID*               3875               01.3202452636E+001.2495352557E+01+
*       4.0728426507E+01               0
GRID*               3876               02.0265135348E+001.0514714132E+01+
*       4.0898096792E+01               0
GRID*               3877               0-8.449995042E-011.1528176730E+01+
*       3.1066139752E+01               0
GRID*               3878               0-4.519938563E+001.2511207342E+01+
*       3.2461013803E+01               0
GRID*               3879               0-1.137339944E+01-1.908201654E+01+
*       1.7355432954E+01               0
GRID*               3880               0-1.137331329E+01-1.908188589E+01+
*       1.4855432632E+01               0
GRID*               3881               0-1.338415260E+01-1.826347657E+01+
*       1.7990716636E+01               0
GRID*               3882               0-1.153406099E+01-1.613051792E+01+
*       1.5346148441E+01               0
GRID*               3883               0-1.338406645E+01-1.826334593E+01+
*       1.5490716313E+01               0
GRID*               3884               0-1.366963279E+01-1.537430024E+01+
*       2.2865597454E+01               0
GRID*               3885               0-1.192448472E+01-1.687864645E+01+
*       1.9602551287E+01               0
GRID*               3886               0-1.946827276E+01-1.265161340E+01+
*       1.7074307240E+01               0
GRID*               3887               0-1.703202215E+01-1.479673210E+01+
*       1.7990702498E+01               0
GRID*               3888               0-1.210344484E+01-1.923678567E+01+
*       1.2500000252E+01               0
GRID*               3889               0-1.025343938E+01-1.710395767E+01+
*       1.2355432380E+01               0
GRID*               3890               0-1.226419254E+01-1.628541770E+01+
*       1.2990716061E+01               0
GRID*               3891               0-1.630004520E+01-3.060567187E+00+
*       1.1280489419E+01               0
GRID*               3892               0-1.466530087E+01-2.547511930E+00+
*       1.1280489419E+01               0
GRID*               3893               0-1.529733770E+01-1.456062428E+00+
*       1.1280489419E+01               0
GRID*               3894               0-1.070408950E+01-1.445756259E+01+
*       1.3611793657E+01               0
GRID*               3895               0-1.143422105E+01-1.461246236E+01+
*       1.1256361278E+01               0
GRID*               3896               0-1.271484266E+01-1.363902262E+01+
*       1.4247077339E+01               0
GRID*               3897               0-1.305206968E+01-1.342246654E+01+
*       1.1256361278E+01               0
GRID*               3898               0-1.433274737E+01-1.187306450E+01+
*       1.1256361278E+01               0
GRID*               3899               0-1.631829178E+01-1.295030317E+01+
*       1.2074320804E+01               0
GRID*               3900               0-1.759896948E+01-1.140090114E+01+
*       1.2074320804E+01               0
GRID*               3901               0-1.388204117E+01-1.509542188E+01+
*       1.2990716061E+01               0
GRID*               3902               02.1193212320E+018.5599260374E+00+
*       1.6716072471E+01               0
GRID*               3903               02.2120290758E+015.9058660583E+00+
*       1.5992304554E+01               0
GRID*               3904               0-1.188658850E+01-1.216145797E+01+
*       1.1256361278E+01               0
GRID*               3905               0-1.278625674E+01-1.090834052E+01+
*       1.1256361278E+01               0
GRID*               3906               01.9933460673E+011.0441072598E+00+
*       1.2401781910E+01               0
GRID*               3907               02.2254594691E+011.2931714622E+00+
*       1.4901765090E+01               0
GRID*               3908               02.2550601338E+012.2800821265E+00+
*       1.2499983180E+01               0
GRID*               3909               02.0308084353E+013.1794140119E+00+
*       1.3492333685E+01               0
GRID*               3910               02.0012077706E+012.1925033476E+00+
*       1.5894115595E+01               0
GRID*               3911               02.2629218371E+013.4284782143E+00+
*       1.5992316866E+01               0
GRID*               3912               01.6251075893E+018.6324946750E-01+
*       1.3838143163E+01               0
GRID*               3913               01.7240998645E+011.9902284690E+00+
*       1.6216235317E+01               0
GRID*               3914               01.8361485172E+012.5617886308E+00+
*       1.4480121983E+01               0
GRID*               3915               02.1134107775E+017.2162080528E-01+
*       1.9137882922E+01               0
GRID*               3916               02.3055196680E+012.7824370058E+00+
*       2.1184453452E+01               0
GRID*               3917               02.2629217981E+013.4284877191E+00+
*       1.8492321362E+01               0
GRID*               3918               0-1.712966422E+01-1.521133722E+01+
*       2.3753752744E+01               0
GRID*               3919               0-3.444525365E+00-1.802174124E+01+
*       2.5418731195E+01               0
GRID*               3920               0-1.233710290E+00-1.865020183E+01+
*       2.7966144714E+01               0
GRID*               3921               0-4.798207918E-01-1.866626569E+01+
*       2.4182854057E+01               0
GRID*               3922               0-2.097565098E+00-1.683993636E+01+
*       2.7966144714E+01               0
GRID*               3923               0-3.862754598E+00-1.867953914E+01+
*       2.7452586481E+01               0
GRID*               3924               0-4.511450727E+00-1.613115227E+01+
*       2.7966144714E+01               0
GRID*               3925               0-6.276640227E+00-1.797075505E+01+
*       2.7452586481E+01               0
GRID*               3926               0-8.823860433E+00-1.726274052E+01+
*       2.6611835226E+01               0
GRID*               3927               0-9.493443219E+00-2.094453748E+01+
*       2.1611818852E+01               0
GRID*               3928               0-9.493413512E+00-2.094454969E+01+
*       2.4111823497E+01               0
GRID*               3929               0-6.946193306E+00-2.165256423E+01+
*       2.4952574752E+01               0
GRID*               3930               0-6.946223013E+00-2.165255201E+01+
*       2.2452570107E+01               0
GRID*               3931               0-9.870406985E+00-1.904609771E+01+
*       2.6611835226E+01               0
GRID*               3932               0-7.323186779E+00-1.975411224E+01+
*       2.7452586481E+01               0
GRID*               3933               0-9.059665220E+00-2.154533245E+01+
*       2.7499988271E+01               0
GRID*               3934               0-1.538160732E+01-1.671250331E+01+
*       1.7990719156E+01               0
GRID*               3935               0-1.538184824E+01-1.671292679E+01+
*       1.5490716414E+01               0
GRID*               3936               0-1.703103332E+01-1.479620726E+01+
*       1.5490712295E+01               0
GRID*               3937               0-6.077721462E-011.1340080456E+01+
*       4.3655732618E+01               0
GRID*               3938               09.1149345004E-011.1228956042E+01+
*       4.3655732618E+01               0
GRID*               3939               0-1.003083372E+018.9814389515E+00+
*       3.5821733960E+01               0
GRID*               3940               0-8.671031405E+009.0023460102E+00+
*       3.9269034676E+01               0
GRID*               3941               0-1.335957650E+018.2961710334E+00+
*       3.6735154402E+01               0
GRID*               3942               0-1.208263103E+016.7572785243E+00+
*       3.5844974526E+01               0
GRID*               3943               0-1.312705142E+014.4685616282E+00+
*       3.5844954321E+01               0
GRID*               3944               0-1.440399689E+016.0074541374E+00+
*       3.6735134196E+01               0
GRID*               3945               0-1.171014294E+011.0194668746E+01+
*       3.9235079380E+01               0
GRID*               3946               0-1.171211870E+011.0197480056E+01+
*       3.6735151163E+01               0
GRID*               3947               0-8.533504824E+001.2161787665E+01+
*       3.9990347245E+01               0
GRID*               3948               0-8.535480581E+001.2164598975E+01+
*       3.7490419028E+01               0
GRID*               3949               04.8147654527E+00-2.630684562E+00+
*       3.4150251207E+01               0
GRID*               3950               06.3377311406E+00-5.464205885E+00+
*       3.5665931853E+01               0
GRID*               3951               01.0047028675E+017.2218677457E+00+
*       3.5964719802E+01               0
GRID*               3952               09.3899290637E+004.7293635985E+00+
*       3.9006412895E+01               0
GRID*               3953               01.3622038294E+01-6.252253082E+00+
*       3.4972421295E+01               0
GRID*               3954               0-2.190251941E+018.1341100479E+00+
*       2.7499990934E+01               0
GRID*               3955               01.1993039119E+01-9.415139771E+00+
*       3.7159594320E+01               0
GRID*               3956               01.2988478507E+01-7.094051174E+00+
*       3.9464972648E+01               0
GRID*               3957               01.2577647466E+01-8.540985247E+00+
*       3.4972441488E+01               0
GRID*               3958               06.2478858453E+00-2.141849189E+00+
*       3.6020094279E+01               0
GRID*               3959               08.7227985299E+00-1.147243730E+01+
*       3.1829479202E+01               0
GRID*               3960               01.0930046686E+01-1.044245725E+01+
*       3.2494170506E+01               0
GRID*               3961               01.4478735109E+01-2.035304853E+00+
*       3.7710992547E+01               0
GRID*               3962               01.2210924118E+018.3344658412E+00+
*       3.3548682014E+01               0
GRID*               3963               0-1.946728393E+01-1.265108856E+01+
*       1.4574317038E+01               0
GRID*               3964               0-1.235788296E+01-8.373330598E+00+
*       2.8241195154E+01               0
GRID*               3965               0-1.563645755E+011.6220576858E+00+
*       2.3199147801E+01               0
GRID*               3966               0-1.846448342E+011.0625295606E+00+
*       2.5595270672E+01               0
GRID*               3967               01.0563376450E+011.0235770566E+01+
*       3.3548680008E+01               0
GRID*               3968               0-1.102403781E+01-1.609592791E+01+
*       2.4732012257E+01               0
GRID*               3969               0-1.654415055E+01-1.589629755E+01+
*       2.7499990516E+01               0
GRID*               3970               0-1.448406924E+01-1.593296489E+01+
*       2.5620167547E+01               0
GRID*               3971               0-1.376418670E+01-1.828235193E+01+
*       2.4111825741E+01               0
GRID*               3972               01.2577541398E+01-8.541148314E+00+
*       3.2494170506E+01               0
GRID*               3973               0-4.585083255E+009.4236754626E+00+
*       1.1874433161E+01               0
GRID*               3974               01.0171995186E+01-1.129811307E+01+
*       2.6985750874E+01               0
GRID*               3975               08.6117879897E+00-1.293702636E+01+
*       2.8355840826E+01               0
GRID*               3976               05.7581836677E+00-1.104958249E+01+
*       3.0185320028E+01               0
GRID*               3977               02.0267659061E+00-1.549262727E+01+
*       3.2164747823E+01               0
GRID*               3978               02.0268398608E+00-1.549261683E+01+
*       3.4643012062E+01               0
GRID*               3979               04.4407889106E+00-1.478377967E+01+
*       3.4643018686E+01               0
GRID*               3980               06.6065172742E+00-1.283251625E+01+
*       3.4307750064E+01               0
GRID*               3981               04.1924942697E+00-1.354136385E+01+
*       3.1829479202E+01               0
GRID*               3982               02.0795252605E+00-1.206210209E+01+
*       3.0158295295E+01               0
GRID*               3983               07.7789222447E+001.0691274101E+01+
*       4.1974133645E+01               0
GRID*               3984               09.0534347427E+001.1976542556E+01+
*       3.9452320612E+01               0
GRID*               3985               09.7841647829E+009.0600107396E+00+
*       4.2394307364E+01               0
GRID*               3986               08.5382056877E+008.9635629250E+00+
*       3.9368441009E+01               0
GRID*               3987               03.9424269827E+006.4273131900E+00+
*       4.2483193944E+01               0
GRID*               3988               04.1735383874E+009.1507409034E+00+
*       4.0799536547E+01               0
GRID*               3989               0-1.296077720E+01-8.875791499E+00+
*       3.1486543274E+01               0
GRID*               3990               06.6851265845E+001.3507350212E+01+
*       3.2876827140E+01               0
GRID*               3991               08.8024041965E+001.2148389837E+01+
*       3.2876835992E+01               0
GRID*               3992               06.9372758506E+001.3336426120E+01+
*       3.6952392362E+01               0
GRID*               3993               06.2808138833E+001.0765750379E+01+
*       3.4872702067E+01               0
GRID*               3994               09.0545534626E+001.1977465745E+01+
*       3.6952401214E+01               0
GRID*               3995               05.0173386380E+001.1797190179E+01+
*       3.2157528416E+01               0
GRID*               3996               05.2694879041E+001.1626266087E+01+
*       3.6233093638E+01               0
GRID*               3997               08.3070942830E+006.2401352116E+00+
*       4.1052098405E+01               0
GRID*               3998               0-1.100769258E+01-7.197828337E+00+
*       3.8670634337E+01               0
GRID*               3999               0-9.602345134E+00-4.883861078E+00+
*       3.8536340630E+01               0
GRID*               4000               0-1.194101569E+01-6.501421663E+00+
*       3.5966782156E+01               0
GRID*               4001               0-1.385149721E+01-7.183101426E+00+
*       3.6958508436E+01               0
GRID*               4002               0-1.489668552E+01-4.894607986E+00+
*       3.6958508546E+01               0
GRID*               4003               05.5956934585E+001.3900360928E+01+
*       1.1457750666E+01               0
GRID*               4004               0-5.536118207E+00-1.811312400E+00+
*       4.1927501602E+01               0
GRID*               4005               0-1.465912162E+012.6157453605E+00+
*       3.8031662984E+01               0
GRID*               4006               0-1.050768626E+018.7400971474E+00+
*       4.1756883406E+01               0
GRID*               4007               0-1.335861007E+018.2955401771E+00+
*       3.9235060861E+01               0
GRID*               4008               0-1.032583608E+013.9315182505E+00+
*       3.4200257813E+01               0
GRID*               4009               0-3.318255973E-01-3.430808713E+00+
*       3.9129633973E+01               0
GRID*               4010               0-1.065098065E+00-1.269959292E+00+
*       4.1363201363E+01               0
GRID*               4011               01.3430315483E+011.3933154121E+01+
*       2.6819000763E+01               0
GRID*               4012               01.3232687937E+011.6105325199E+01+
*       2.6819000763E+01               0
GRID*               4013               01.5139832227E+011.4674276044E+01+
*       2.6819000763E+01               0
GRID*               4014               0-2.180469096E+00-9.857484044E+00+
*       1.5225110929E+01               0
GRID*               4015               0-1.415910891E+014.4426378057E+00+
*       3.3311805074E+01               0
GRID*               4016               0-7.581642788E+004.9846746387E+00+
*       3.3785812706E+01               0
GRID*               4017               0-1.193395470E+01-3.690980351E+00+
*       3.5731418665E+01               0
GRID*               4018               0-1.259489413E+01-2.278357045E+00+
*       4.0033651076E+01               0
GRID*               4019               0-1.311468852E+016.7313547018E+00+
*       3.3311825279E+01               0
GRID*               4020               0-5.569419427E+003.1150814059E+00+
*       3.8622886080E+01               0
GRID*               4021               0-2.265912154E+015.7208344037E+00+
*       2.7499995346E+01               0
GRID*               4022               0-2.064430012E+015.7292750107E+00+
*       2.6612812594E+01               0
GRID*               4023               0-1.712675539E+01-1.520815709E+01+
*       2.1253765323E+01               0
GRID*               4024               01.7809030413E+017.3511553619E+00+
*       1.6294441675E+01               0
GRID*               4025               01.8736108851E+014.6970953829E+00+
*       1.5570673758E+01               0
GRID*               4026               02.0842361762E+01-9.862963542E+00+
*       1.8338648202E+01               0
GRID*               4027               01.9662239376E+01-1.210731492E+01+
*       1.7926718603E+01               0
GRID*               4028               07.0016844710E+00-1.033505430E+01+
*       1.1771025746E+01               0
GRID*               4029               07.0644918504E+00-8.850602642E+00+
*       1.1771025746E+01               0
GRID*               4030               01.9697996376E+01-3.273701503E-01+
*       2.7528762949E+01               0
GRID*               4031               02.3333910446E+01-1.264310646E+00+
*       2.7500002757E+01               0
GRID*               4032               02.1518660281E+011.5181680635E+00+
*       2.6184465775E+01               0
GRID*               4033               01.9183451973E+011.6247222641E+00+
*       2.7528762949E+01               0
GRID*               4034               0-1.384068824E-011.5410257650E+01+
*       3.7050958134E+01               0
GRID*               4035               0-4.005060248E+001.4233603743E+01+
*       3.7490415515E+01               0
GRID*               4036               0-1.670803212E+001.5796253214E+01+
*       3.3374427493E+01               0
GRID*               4037               0-1.414632259E+01-4.189137514E+00+
*       1.1280489419E+01               0
GRID*               4038               01.5900667221E+001.3376234879E+01+
*       3.2655123242E+01               0
GRID*               4039               0-1.670836773E+001.5796249069E+01+
*       3.0896163248E+01               0
GRID*               4040               0-4.084760737E+001.5087445015E+01+
*       3.3374434128E+01               0
GRID*               4041               0-1.018736622E+014.3711859793E-02+
*       4.1523041169E+01               0
GRID*               4042               05.5154447263E+001.0310500706E+01+
*       4.1974133645E+01               0
GRID*               4043               06.1313611183E+001.1693700341E+01+
*       4.1974133645E+01               0
GRID*               4044               06.2913811706E+001.0588355073E+01+
*       4.4115474363E+01               0
GRID*               4045               05.6754647786E+009.2051554379E+00+
*       4.4115474363E+01               0
GRID*               4046               06.6929832017E+009.4894810189E+00+
*       4.1089608008E+01               0
GRID*               4047               02.9863773186E+009.7491281578E+00+
*       3.7821629790E+01               0
GRID*               4048               03.1224630515E+001.2990239315E+01+
*       3.6331653883E+01               0
GRID*               4049               04.2722294744E+001.4217204368E+01+
*       3.0398568423E+01               0
GRID*               4050               06.6861151027E+001.3508420276E+01+
*       3.0398568423E+01               0
GRID*               4051               03.2609034952E+001.5077720076E+01+
*       3.1758959993E+01               0
GRID*               4052               05.6747891234E+001.4368935984E+01+
*       3.1758959993E+01               0
GRID*               4053               08.4495755852E-011.5796249069E+01+
*       3.0896163248E+01               0
GRID*               4054               02.6013927013E+001.2515719171E+01+
*       3.1294731671E+01               0
GRID*               4055               02.1480836304E+001.7034746224E+01+
*       2.7887819382E+01               0
GRID*               4056               03.9045187732E+001.3754216327E+01+
*       2.8286387805E+01               0
GRID*               4057               04.7724685726E-011.5333261027E+01+
*       2.8783982630E+01               0
GRID*               4058               01.6817382877E+001.2340813812E+01+
*       2.7970396446E+01               0
GRID*               4059               0-1.745533628E+001.3919858512E+01+
*       2.8467991272E+01               0
GRID*               4060               03.2607370663E+001.5076922892E+01+
*       3.4237209717E+01               0
GRID*               4061               08.4479112963E-011.5795451884E+01+
*       3.3374412971E+01               0
GRID*               4062               0-7.778820086E+001.3503888485E+01+
*       3.4043121434E+01               0
GRID*               4063               0-7.778781750E+001.3503908447E+01+
*       3.1564850555E+01               0
GRID*               4064               0-4.084722401E+001.5087464977E+01+
*       3.0896163248E+01               0
GRID*               4065               0-5.004376815E+001.4912559617E+01+
*       2.7571828023E+01               0
GRID*               4066               06.4618717970E+006.7660533055E+00+
*       4.2773265405E+01               0
GRID*               4067               04.3335584397E+008.0453956356E+00+
*       4.2940877266E+01               0
GRID*               4068               07.9389422970E+009.5859288335E+00+
*       4.4115474363E+01               0
GRID*               4069               08.6982257400E+007.8582176571E+00+
*       4.1509781727E+01               0
GRID*               4070               01.1270266187E+014.1205813480E+00+
*       4.0127049122E+01               0
GRID*               4071               02.3771874591E+001.5409456320E+01+
*       3.7050943612E+01               0
GRID*               4072               0-6.419017773E+001.3524795544E+01+
*       3.7490422150E+01               0
GRID*               4073               04.5619692586E+001.6325962132E+01+
*       2.7887819382E+01               0
GRID*               4074               04.9348204151E+001.6115180863E+01+
*       2.5892931435E+01               0
GRID*               4075               07.0589662591E+001.3297639007E+01+
*       2.8403680476E+01               0
GRID*               4076               01.4477093665E+01-2.034975483E+00+
*       4.0210916040E+01               0
GRID*               4077               05.6738006053E+001.4367865920E+01+
*       3.4237218710E+01               0
GRID*               4078               04.7902509980E+001.4700399348E+01+
*       3.7050952606E+01               0
GRID*               4079               09.8328353765E+001.4509242354E+01+
*       2.8005112053E+01               0
GRID*               4080               0-1.071038824E+01-1.027463953E+01+
*       2.8241195154E+01               0
GRID*               4081               0-1.166016160E+01-1.355321102E+01+
*       2.8120177031E+01               0
GRID*               4082               0-9.156641112E+00-1.287286289E+01+
*       2.6049463338E+01               0
GRID*               4083               0-3.313687256E+001.7902380581E+01+
*       1.3162917610E+01               0
GRID*               4084               0-3.775787298E+001.5118565577E+01+
*       1.1420198442E+01               0
GRID*               4085               0-1.140266030E+001.5848766937E+01+
*       1.1448035248E+01               0
GRID*               4086               0-2.497226207E+001.4791774389E+01+
*       1.2868233691E+01               0
GRID*               4087               03.7800749416E+002.2603799805E+01+
*       1.9272521224E+01               0
GRID*               4088               01.0383235438E+011.9537813623E+01+
*       1.4783516755E+01               0
GRID*               4089               08.6517251146E+002.1342406017E+01+
*       1.6772531603E+01               0
GRID*               4090               04.9569053634E-011.8842671587E+01+
*       2.7887819382E+01               0
GRID*               4091               0-1.621064535E+011.5491038316E+01+
*       2.3952901187E+01               0
GRID*               4092               0-1.456318475E+011.7410070063E+01+
*       2.1452896191E+01               0
GRID*               4093               0-1.456322404E+011.7410034093E+01+
*       2.3952900695E+01               0
GRID*               4094               0-1.297251829E+011.3323173684E+01+
*       1.3452634666E+01               0
GRID*               4095               0-1.252339693E+011.0409346371E+01+
*       2.1946585900E+01               0
GRID*               4096               0-1.257354154E+011.9188448417E+01+
*       1.8974020883E+01               0
GRID*               4097               0-1.142637172E+012.0191354072E+01+
*       1.7025946470E+01               0
GRID*               4098               0-1.349265666E+011.3518703454E+01+
*       2.4186998426E+01               0
GRID*               4099               0-7.079864604E+001.8752013990E+01+
*       2.2465024281E+01               0
GRID*               4100               0-1.819025962E+011.3976154503E+01+
*       2.7499986800E+01               0
GRID*               4101               0-1.547227093E+011.2003819641E+01+
*       2.7734084039E+01               0
GRID*               4102               0-9.929034410E+001.5641685566E+01+
*       2.8541462367E+01               0
GRID*               4103               0-1.332968867E+011.1848545781E+01+
*       2.7734084039E+01               0
GRID*               4104               0-2.293811691E+002.2539681209E+01+
*       1.6872722572E+01               0
GRID*               4105               02.3219767841E-012.2667752337E+01+
*       1.6872700948E+01               0
GRID*               4106               0-3.996874001E+002.2168863894E+01+
*       1.5662915447E+01               0
GRID*               4107               0-2.293694065E+002.2538072505E+01+
*       1.4372721591E+01               0
GRID*               4108               0-3.997088693E+002.2170459930E+01+
*       1.3162917610E+01               0
GRID*               4109               0-2.293908757E+002.2539668541E+01+
*       1.1872723754E+01               0
GRID*               4110               0-1.029124838E+012.0069162262E+01+
*       2.1452916929E+01               0
GRID*               4111               0-1.376127788E+01-1.827917180E+01+
*       2.1611838320E+01               0
GRID*               4112               0-3.270486834E+00-1.699967709E+01+
*       2.2790149583E+01               0
GRID*               4113               0-1.196174980E+014.1109535364E-01+
*       1.1564249680E+01               0
GRID*               4114               0-1.131527009E+011.4921444043E+00+
*       1.1564249680E+01               0
GRID*               4115               0-1.427217243E+015.6112258980E-01+
*       1.2280598687E+01               0
GRID*               4116               0-1.362569272E+011.6421716404E+00+
*       1.2280598687E+01               0
GRID*               4117               0-9.581827508E+003.8271757972E-01+
*       1.1564249680E+01               0
GRID*               4118               0-2.148620400E+017.8962538836E+00+
*       1.2486048232E+01               0
GRID*               4119               0-1.995903050E+015.0007892100E+00+
*       1.2486048232E+01               0
GRID*               4120               0-1.933358023E+017.0040408139E+00+
*       1.2486048232E+01               0
GRID*               4121               02.2544089318E+00-2.326550581E+01+
*       2.7499989779E+01               0
GRID*               4122               04.7544711392E+00-2.288254112E+01+
*       2.7499988901E+01               0
GRID*               4123               09.9281263228E-01-2.305915546E+01+
*       2.3716699122E+01               0
GRID*               4124               01.9812905810E+00-2.135674326E+01+
*       2.6216709343E+01               0
GRID*               4125               0-7.527646872E+00-9.857946921E+00+
*       1.5934090223E+01               0
GRID*               4126               0-1.796816922E+01-4.224098341E-01+
*       1.3790133241E+01               0
GRID*               4127               08.7229636845E+00-1.147229398E+01+
*       3.4307746946E+01               0
GRID*               4128               01.0345603494E+01-1.131646845E+01+
*       3.7159591083E+01               0
GRID*               4129               01.0930211841E+01-1.044231393E+01+
*       3.4972438250E+01               0
GRID*               4130               0-4.629160093E+001.8091794185E+00+
*       3.9438525391E+01               0
GRID*               4131               0-4.027617115E+00-5.253796521E-02+
*       4.2301862835E+01               0
GRID*               4132               02.3320179582E-01-4.176557645E+00+
*       1.3513657543E+01               0
GRID*               4133               0-2.068836464E+00-3.415813783E+00+
*       1.3512369737E+01               0
GRID*               4134               06.6063798980E+00-1.283257976E+01+
*       3.1829479202E+01               0
GRID*               4135               01.8217831027E+01-1.418351777E+01+
*       2.2926709671E+01               0
GRID*               4136               0-1.125459449E+00-1.276097686E+01+
*       3.1854668148E+01               0
GRID*               4137               09.0170946155E+002.7669078198E+00+
*       4.1612105531E+01               0
GRID*               4138               07.9342598348E+004.2776794329E+00+
*       4.3657791041E+01               0
GRID*               4139               01.0170613778E+015.3698437844E+00+
*       4.2394307364E+01               0
GRID*               4140               0-6.364310232E-01-1.476608386E+01+
*       2.9689920324E+01               0
GRID*               4141               0-8.422698445E+00-1.375925127E+00+
*       1.2352495970E+01               0
GRID*               4142               0-5.977851701E+00-1.430056102E+00+
*       1.2352495970E+01               0
GRID*               4143               01.3020885426E+01-1.864586118E+01+
*       2.4808971352E+01               0
GRID*               4144               02.1513254437E+01-4.196018029E+00+
*       1.4540695473E+01               0
GRID*               4145               02.2252825764E+01-1.235905651E+00+
*       1.4901782540E+01               0
GRID*               4146               0-4.023349655E+009.0179606310E+00+
*       4.3840394467E+01               0
GRID*               4147               0-3.324288565E+007.7933326315E+00+
*       4.3840394467E+01               0
GRID*               4148               01.5366907176E+01-1.337663460E+01+
*       2.7045346812E+01               0
GRID*               4149               07.8334637866E+00-7.074567323E+00+
*       4.1083116293E+01               0
GRID*               4150               0-2.281094831E+01-1.172589802E+00+
*       2.2150224084E+01               0
GRID*               4151               0-8.614003350E+00-8.741792857E-01+
*       1.3916745650E+01               0
GRID*               4152               01.2529762937E+011.2073581033E+01+
*       2.4192965616E+01               0
GRID*               4153               01.1083646882E+011.4978921614E+01+
*       2.6430667445E+01               0
GRID*               4154               01.2937559513E+011.5552194569E+01+
*       2.3249668208E+01               0
GRID*               4155               01.0183094337E+011.3119348527E+01+
*       2.3804632298E+01               0
GRID*               4156               01.0886019337E+011.7151092692E+01+
*       2.6430667445E+01               0
GRID*               4157               01.5292743432E+011.7136667362E+01+
*       2.4319004435E+01               0
GRID*               4158               01.3241203256E+011.8735565486E+01+
*       2.7500003671E+01               0
GRID*               4159               01.2946074832E+011.8182434856E+01+
*       2.3930671116E+01               0
GRID*               4160               01.8495963683E+011.4266954770E+01+
*       2.7499991040E+01               0
GRID*               4161               01.6982294128E+011.5563098305E+01+
*       2.7499991040E+01               0
GRID*               4162               01.5292092673E+011.7135945922E+01+
*       2.1819002917E+01               0
GRID*               4163               01.6315465684E+011.4614171422E+01+
*       1.9820937053E+01               0
GRID*               4164               01.4443962522E+011.2084797255E+01+
*       1.7108437034E+01               0
GRID*               4165               03.3106617397E+001.7158338980E+01+
*       1.3333785727E+01               0
GRID*               4166               01.0800375928E+011.9521535446E+01+
*       2.3930661450E+01               0
GRID*               4167               01.3168602790E+011.0972992110E+01+
*       1.3658215857E+01               0
GRID*               4168               01.0433849002E+011.3675565318E+01+
*       1.3654241746E+01               0
GRID*               4169               01.2491341443E+011.3927957199E+01+
*       1.4571032475E+01               0
GRID*               4170               01.5263026232E+011.5495424380E+01+
*       1.7287505446E+01               0
GRID*               4171               01.7096171665E+011.3753677857E+01+
*       1.4787501827E+01               0
GRID*               4172               01.2126360362E+011.4771086290E+01+
*       2.1251601185E+01               0
GRID*               4173               01.4480893523E+011.6354837643E+01+
*       1.9820935894E+01               0
GRID*               4174               01.3520623798E+011.1850652275E+01+
*       2.7847174063E+01               0
GRID*               4175               0-1.326699002E+013.3268546707E+00+
*       1.4166367583E+01               0
GRID*               4176               0-1.573687294E+012.9541293663E+00+
*       1.7665921187E+01               0
GRID*               4177               0-1.581601630E+013.7371119616E+00+
*       1.4395412719E+01               0
GRID*               4178               0-1.694300395E+011.5947751837E+00+
*       1.4790242509E+01               0
GRID*               4179               0-1.664104281E+01-2.803628091E+00+
*       2.8055192600E+01               0
GRID*               4180               0-1.914978307E+01-1.172589802E+00+
*       2.7150224084E+01               0
GRID*               4181               0-1.632440091E+01-1.517378889E+00+
*       2.5058557165E+01               0
GRID*               4182               0-2.082573491E+019.8307594466E+00+
*       2.7499990934E+01               0
GRID*               4183               0-1.956751562E+017.4259244095E+00+
*       2.6612812594E+01               0
GRID*               4184               0-1.688031615E+011.0069771488E+01+
*       2.7734084039E+01               0
GRID*               4185               01.7387972494E+01-3.798303127E+00+
*       1.2040694844E+01               0
GRID*               4186               01.8127543821E+01-8.381907494E-01+
*       1.2401781910E+01               0
GRID*               4187               01.5374612390E+01-1.759117892E+00+
*       1.1539923610E+01               0
GRID*               4188               0-1.663433265E+014.7253061332E+00+
*       2.8445046588E+01               0
GRID*               4189               0-1.856914852E+015.4396362536E+00+
*       2.8445046588E+01               0
GRID*               4190               0-1.749236402E+017.1362856524E+00+
*       2.8445046588E+01               0
GRID*               4191               0-1.864963806E+013.4059905723E+00+
*       2.8445046588E+01               0
GRID*               4192               0-1.138467967E+01-1.773627159E+01+
*       2.6611835226E+01               0
GRID*               4193               0-9.543742967E+00-1.491335347E+01+
*       2.8120177031E+01               0
GRID*               4194               0-1.210456220E+01-1.538688455E+01+
*       2.8120177031E+01               0
GRID*               4195               05.8851433493E+00-1.103202110E+01+
*       1.3278854233E+01               0
GRID*               4196               06.8328138279E+00-1.377592624E+01+
*       1.5807172751E+01               0
GRID*               4197               04.1990844838E+00-1.319337961E+01+
*       1.6519907819E+01               0
GRID*               4198               0-9.895282893E+001.2143691917E+01+
*       3.4043118312E+01               0
GRID*               4199               04.3859382968E+001.1958799515E+01+
*       3.9046827534E+01               0
GRID*               4200               08.4422289597E+001.8418838629E+01+
*       2.0703211475E+01               0
GRID*               4201               0-8.165497273E+001.3101463865E+01+
*       2.7777152996E+01               0
GRID*               4202               08.2291570833E+00-1.267669072E+01+
*       3.7159594200E+01               0
GRID*               4203               04.2102028263E+00-1.442212547E+01+
*       3.6839012496E+01               0
GRID*               4204               05.0955195690E+00-1.101877712E+01+
*       3.9042064972E+01               0
GRID*               4205               03.4728797599E+00-1.117460265E+01+
*       3.6190220835E+01               0
GRID*               4206               0-3.257079519E+00-1.051475416E+01+
*       4.3743657540E+01               0
GRID*               4207               01.7962537764E+00-1.513096262E+01+
*       3.6839005872E+01               0
GRID*               4208               0-2.733996122E+00-1.410828596E+01+
*       2.7656065039E+01               0
GRID*               4209               0-1.399877094E+01-3.777064710E+00+
*       3.3729449446E+01               0
GRID*               4210               06.6523244285E+00-1.647828344E+01+
*       1.2207372161E+01               0
GRID*               4211               08.9977214912E+00-1.383388449E+01+
*       1.1488648814E+01               0
GRID*               4212               06.3133890874E+00-1.410697967E+01+
*       1.1507828488E+01               0
GRID*               4213               05.1455096526E+00-1.572518507E+01+
*       1.3715200649E+01               0
GRID*               4214               07.4909067153E+00-1.308078613E+01+
*       1.2996477302E+01               0
GRID*               4215               03.1985317878E+00-1.708625565E+01+
*       1.2207372161E+01               0
GRID*               4216               04.9838102608E+00-1.689886437E+01+
*       1.2207372161E+01               0
GRID*               4217               04.6448749196E+00-1.452756060E+01+
*       1.1507828488E+01               0
GRID*               4218               02.8595964467E+00-1.471495188E+01+
*       1.1507828488E+01               0
GRID*               4219               09.3343458127E-02-1.747400989E+01+
*       1.2707809536E+01               0
GRID*               4220               06.8986236132E-01-1.443055217E+01+
*       1.1623634358E+01               0
GRID*               4221               02.9757755673E+00-1.544078537E+01+
*       1.3831006519E+01               0
GRID*               4222               01.7695710097E-01-1.950466999E+01+
*       1.2707809536E+01               0
GRID*               4223               05.7581484891E+00-2.188694801E+01+
*       1.2500000458E+01               0
GRID*               4224               08.1305587128E+00-2.101172075E+01+
*       1.2500000474E+01               0
GRID*               4225               05.3684911555E+00-1.883856628E+01+
*       1.2207372161E+01               0
GRID*               4226               08.2275750199E+008.8118400886E+00+
*       1.1892623073E+01               0
GRID*               4227               01.7637500249E+01-3.276838773E-01+
*       2.7528762949E+01               0
GRID*               4228               01.6270049435E+01-6.815457560E+00+
*       2.8075282960E+01               0
GRID*               4229               01.5254466408E+01-1.618971799E+00+
*       2.7619630284E+01               0
GRID*               4230               01.3498144462E+01-5.767767546E-02+
*       1.2976284863E+01               0
GRID*               4231               01.2705743517E+018.4442264674E+00+
*       3.9872515056E+01               0
GRID*               4232               0-1.626989873E+011.6356937018E+01+
*       1.2187288314E+01               0
GRID*               4233               0-1.626980495E+011.6357021715E+01+
*       1.4687256695E+01               0
GRID*               4234               0-1.791733229E+011.4437896206E+01+
*       1.2187288314E+01               0
GRID*               4235               0-1.602802916E+011.3175626456E+01+
*       1.2187288314E+01               0
GRID*               4236               0-1.027697850E+011.8222637760E+01+
*       1.2025951564E+01               0
GRID*               4237               0-1.312043288E+011.5936397334E+01+
*       1.2187288314E+01               0
GRID*               4238               0-1.077739186E+011.4665454949E+01+
*       1.1265346352E+01               0
GRID*               4239               0-1.012906392E+011.5609414110E+01+
*       1.3291297916E+01               0
GRID*               4240               0-1.256321586E+011.8958153868E+01+
*       2.1452909293E+01               0
GRID*               4241               0-6.974338626E-011.4159667147E+01+
*       1.1448035248E+01               0
GRID*               4242               05.4474216590E-01-1.267472411E+01+
*       1.1623634358E+01               0
GRID*               4243               0-1.033854277E+00-1.434306486E+01+
*       1.1623634358E+01               0
GRID*               4244               02.0917545805E+001.5684719490E+01+
*       1.1448035248E+01               0
GRID*               4245               01.4946128743E+001.8316894517E+01+
*       1.3324070309E+01               0
GRID*               4246               01.8692378845E+001.9927065718E+01+
*       1.6093103736E+01               0
GRID*               4247               0-1.610507320E+001.8271589192E+01+
*       1.1872723754E+01               0
GRID*               4248               08.5865713438E+006.3687354263E+00+
*       1.1546873378E+01               0
GRID*               4249               09.8523015591E+008.9869765991E+00+
*       1.1370712564E+01               0
GRID*               4250               02.0587567816E+002.3039848849E+01+
*       1.6876012255E+01               0
GRID*               4251               01.1864811946E+011.3402375222E+01+
*       1.1370712564E+01               0
GRID*               4252               01.2044360809E+011.0900174380E+01+
*       1.1370712564E+01               0
GRID*               4253               01.3922304388E+011.3654767103E+01+
*       1.2287503293E+01               0
GRID*               4254               01.4101853251E+011.1152566261E+01+
*       1.2287503293E+01               0
GRID*               4255               02.2041673726E+014.7574699705E+00+
*       1.2499970869E+01               0
GRID*               4256               09.6352078308E+001.6681413432E+01+
*       2.8005112053E+01               0
GRID*               4257               01.0821637693E+011.1866920795E+01+
*       1.1370712564E+01               0
GRID*               4258               01.0111017453E+011.0506595078E+01+
*       1.1370712564E+01               0
GRID*               4259               01.1179266309E+011.0146258567E+01+
*       1.1370712564E+01               0
GRID*               4260               0-2.523620571E+00-7.985644065E+00+
*       4.3706639657E+01               0
GRID*               4261               0-4.288152331E+00-9.302391404E+00+
*       4.3743657540E+01               0
GRID*               4262               0-2.132009972E+00-1.268745653E+01+
*       4.1975006401E+01               0
GRID*               4263               0-1.024917111E+01-1.197970029E+01+
*       4.2478188653E+01               0
GRID*               4264               0-8.261843645E+00-1.283054840E+01+
*       3.9168568377E+01               0
GRID*               4265               0-4.855532296E+00-1.382357681E+01+
*       3.9453179323E+01               0
GRID*               4266               01.5148347546E+011.7304516331E+01+
*       2.7500003671E+01               0
GRID*               4267               04.8587975238E+006.3424673519E+00+
*       4.3657791041E+01               0
GRID*               4268               02.7304841665E+007.6218096820E+00+
*       4.3825402902E+01               0
GRID*               4269               05.2499289809E+007.9605497975E+00+
*       4.4115474363E+01               0
GRID*               4270               03.1560199643E+008.8664153224E+00+
*       4.3825402902E+01               0
GRID*               4271               03.9843362657E+001.3057673570E+01+
*       4.2072693889E+01               0
GRID*               4272               03.3684198737E+001.1674473934E+01+
*       4.2072693889E+01               0
GRID*               4273               07.3815598743E+005.7371567228E+00+
*       4.3657791041E+01               0
GRID*               4274               06.1826826851E+005.1781209097E+00+
*       4.3657791041E+01               0
GRID*               4275               05.9027143124E+006.1912590151E+00+
*       4.3657791041E+01               0
GRID*               4276               01.0022984594E+012.0317952332E+01+
*       1.2499987573E+01               0
GRID*               4277               01.4400941250E+015.3586428781E+00+
*       1.1294285578E+01               0
GRID*               4278               01.2706296517E+014.9184907058E+00+
*       1.1294285578E+01               0
GRID*               4279               07.7726913313E+007.3552391684E+00+
*       4.4115474363E+01               0
GRID*               4280               06.2938457694E+007.8093414606E+00+
*       4.4115474363E+01               0
GRID*               4281               09.6179138173E+006.8293210744E+00+
*       4.2394307364E+01               0
GRID*               4282               01.1000440088E+017.5603618943E+00+
*       4.2394307364E+01               0
GRID*               4283               09.1552176021E+008.0862799882E+00+
*       4.4115474363E+01               0
GRID*               4284               06.6013826693E+00-2.208399049E+01+
*       2.7499988901E+01               0
GRID*               4285               02.0586751742E+002.3039148574E+01+
*       1.4376028255E+01               0
GRID*               4286               02.3211607100E-012.2667052062E+01+
*       1.4372716948E+01               0
GRID*               4287               01.9907111941E-021.8473535429E+01+
*       1.1872723754E+01               0
GRID*               4288               04.9014840244E-011.6050713175E+01+
*       1.1448035248E+01               0
GRID*               4289               05.6805736957E+002.1919777652E+01+
*       1.2499965452E+01               0
GRID*               4290               0-8.024016469E+008.2049671147E+00+
*       4.3028350899E+01               0
GRID*               4291               0-1.034447993E+014.0098546552E+00+
*       4.3889855818E+01               0
GRID*               4292               0-9.150478729E+001.4575345247E+00+
*       4.3469628976E+01               0
GRID*               4293               0-1.132103149E+011.6656322024E+00+
*       4.3053412194E+01               0
GRID*               4294               0-5.398730150E+001.7710612116E+01+
*       2.8541462367E+01               0
GRID*               4295               0-3.555757331E+001.0990846736E+01+
*       4.2512151270E+01               0
GRID*               4296               0-3.768750978E+001.2424154048E+01+
*       4.2512151270E+01               0
GRID*               4297               0-8.207657927E-011.2773387768E+01+
*       4.3655732618E+01               0
GRID*               4298               0-2.546408102E+001.1318698649E+01+
*       4.1167883888E+01               0
GRID*               4299               0-7.331048140E+001.0707216066E+01+
*       4.2512151270E+01               0
GRID*               4300               0-4.964901074E+001.0392326321E+01+
*       4.2512151270E+01               0
GRID*               4301               0-6.764274135E+006.4019339114E+00+
*       1.1808622779E+01               0
GRID*               4302               0-9.976571531E+006.7778811011E+00+
*       1.1885768897E+01               0
GRID*               4303               07.7164167446E+001.5869384812E+01+
*       2.8005112053E+01               0
GRID*               4304               0-4.908445332E+006.5176032376E+00+
*       1.1808622779E+01               0
GRID*               4305               0-6.576540477E+001.2612017464E+01+
*       1.1420198442E+01               0
GRID*               4306               04.2252930659E+00-1.114031306E+01+
*       1.1507828488E+01               0
GRID*               4307               03.2713759761E+00-1.062984309E+01+
*       1.3127158527E+01               0
GRID*               4308               0-9.027708556E+002.6321119982E+00+
*       1.1564249680E+01               0
GRID*               4309               0-1.249870507E+013.7845084183E+00+
*       1.1885768897E+01               0
GRID*               4310               0-1.021114354E+014.9244760122E+00+
*       1.1885768897E+01               0
GRID*               4311               0-1.132971296E+01-6.803541480E-01+
*       1.1564249680E+01               0
GRID*               4312               0-1.017058390E+01-2.438996854E+00+
*       1.2352495970E+01               0
GRID*               4313               0-1.272446982E+01-3.708846990E+00+
*       1.2111856607E+01               0
GRID*               4314               0-1.364013559E+01-5.303269119E-01+
*       1.2280598687E+01               0
GRID*               4315               07.9873572799E+00-8.725498980E+00+
*       4.2181323338E+01               0
GRID*               4316               06.6560640173E+00-9.343329501E+00+
*       4.0952288291E+01               0
GRID*               4317               06.7063472405E+00-6.526723929E+00+
*       4.3901792955E+01               0
GRID*               4318               05.3750539779E+00-7.144554450E+00+
*       4.2672757907E+01               0
GRID*               4319               09.8492721951E+004.9241789005E-01+
*       4.1709993422E+01               0
GRID*               4320               02.9399038394E+00-1.004498984E+01+
*       4.3770964952E+01               0
GRID*               4321               03.1401387988E+00-1.158613115E+01+
*       4.3770964952E+01               0
GRID*               4322               01.5795943506E+00-1.326157877E+01+
*       4.1860741634E+01               0
GRID*               4323               01.3793593911E+00-1.172043746E+01+
*       4.1860741634E+01               0
GRID*               4324               02.6371097602E+00-1.108876425E+01+
*       4.0631706586E+01               0
GRID*               4325               0-4.082807194E-01-1.328296752E+01+
*       4.1860741634E+01               0
GRID*               4326               05.9231154331E+00-1.265691450E+01+
*       1.1507828488E+01               0
GRID*               4327               04.3769453966E+00-1.282098240E+01+
*       1.1507828488E+01               0
GRID*               4328               09.8019307844E-02-9.165850604E+00+
*       4.3706639657E+01               0
GRID*               4329               0-3.407696460E-02-7.799412207E+00+
*       4.3706639657E+01               0
GRID*               4330               01.3557696770E+00-8.534177389E+00+
*       4.2477604609E+01               0
GRID*               4331               08.2292537014E+00-1.267664820E+01+
*       3.9659531671E+01               0
GRID*               4332               04.2102994443E+00-1.442208294E+01+
*       3.9338949966E+01               0
GRID*               4333               0-1.699236988E+012.2351193631E+00+
*       2.8445046588E+01               0
GRID*               4334               01.5230140543E+011.2591774198E+01+
*       2.7847174063E+01               0
GRID*               4335               0-1.541914294E+01-8.326671250E-01+
*       1.3561088106E+01               0
GRID*               4336               0-1.548998075E+01-8.097131408E+00+
*       1.4186177411E+01               0
GRID*               4337               0-1.222375864E+01-8.569294772E+00+
*       1.3368217885E+01               0
GRID*               4338               0-1.312514422E+01-7.511568010E+00+
*       1.2111856607E+01               0
GRID*               4339               0-1.605247885E+01-1.043617715E+01+
*       1.2074320804E+01               0
GRID*               4340               0-2.272868672E+012.5247581202E+00+
*       2.1612812594E+01               0
GRID*               4341               0-2.246904302E+015.0404309960E+00+
*       2.1612815458E+01               0
GRID*               4342               0-2.223959895E+015.4824528253E+00+
*       1.7486051097E+01               0
GRID*               4343               02.2072113113E+00-1.253658269E+01+
*       1.1623634358E+01               0
GRID*               4344               02.0555589805E+00-1.085591335E+01+
*       1.1623634358E+01               0
GRID*               4345               08.9677911566E+001.7870266722E-01+
*       4.3977251664E+01               0
GRID*               4346               01.1115603110E+015.9514791004E-01+
*       4.2732741758E+01               0
GRID*               4347               01.0938522476E+01-9.507767605E-01+
*       4.2732741758E+01               0
GRID*               4348               01.4988036956E+014.5658862083E+00+
*       4.2478210065E+01               0
GRID*               4349               01.4478960408E+012.9446476262E+00+
*       4.0210951823E+01               0
GRID*               4350               01.2506160696E+012.5301017149E+00+
*       4.2732741758E+01               0
GRID*               4351               01.1779342735E+015.7418199301E+00+
*       4.2394307364E+01               0
GRID*               4352               01.3752142447E+016.1563658414E+00+
*       3.9872517430E+01               0
GRID*               4353               0-1.657564071E+01-1.445961082E+00+
*       1.1280489419E+01               0
GRID*               4354               01.4249189695E+013.3628713795E+00+
*       1.1436361253E+01               0
GRID*               4355               01.4618157342E+011.6022360108E+00+
*       1.1436361253E+01               0
GRID*               4356               0-1.785872693E+01-1.105510914E+01+
*       2.6253762228E+01               0
GRID*               4357               0-1.736826034E+01-1.457965118E+01+
*       1.2499996234E+01               0
GRID*               4358               0-2.442877681E+00-1.453353448E+01+
*       3.9453181467E+01               0
GRID*               4359               0-7.191484279E-01-1.512904547E+01+
*       3.9338916700E+01               0
GRID*               4360               02.0744920835E-01-6.031358506E+00+
*       4.3706639657E+01               0
GRID*               4361               0-5.772048423E-01-3.932958921E+00+
*       4.3457872626E+01               0
GRID*               4362               05.4669947140E-01-6.558670089E+00+
*       4.1697956704E+01               0
GRID*               4363               0-2.379545793E-01-4.460270504E+00+
*       4.1449189674E+01               0
GRID*               4364               02.2474470233E+00-8.645269733E+00+
*       3.9952182037E+01               0
GRID*               4365               0-3.918217537E+00-4.953719674E+00+
*       4.3457872626E+01               0
GRID*               4366               0-2.559019548E+00-4.247534197E+00+
*       4.3457872626E+01               0
GRID*               4367               0-1.774365497E+00-6.345933782E+00+
*       4.3706639657E+01               0
GRID*               4368               01.7523703120E+00-2.271990814E+00+
*       4.0896645784E+01               0
GRID*               4369               02.4497516931E+001.0847053747E+01+
*       4.3655732618E+01               0
GRID*               4370               01.1528764651E+001.2754894977E+01+
*       4.3655732618E+01               0
GRID*               4371               02.0715446457E+001.3582315164E+01+
*       4.2072693889E+01               0
GRID*               4372               02.1914659707E+002.7470347581E+00+
*       4.2905328737E+01               0
GRID*               4373               06.4480322941E-016.1782804438E+00+
*       4.3825402902E+01               0
GRID*               4374               02.6359093701E+006.1412023190E+00+
*       4.3825402902E+01               0
GRID*               4375               0-1.057045815E+001.4582840829E+01+
*       4.1133926509E+01               0
GRID*               4376               0-4.005031000E+001.4233607109E+01+
*       3.9990345162E+01               0
GRID*               4377               0-1.383776343E-011.5410261017E+01+
*       3.9550887781E+01               0
GRID*               4378               0-2.614205911E+009.6164810457E+00+
*       4.3840394467E+01               0
GRID*               4379               0-8.341386175E+00-1.269153937E+01+
*       1.1242699613E+01               0
GRID*               4380               0-5.647605657E+001.1805284902E+01+
*       4.2512151270E+01               0
GRID*               4381               01.6177617212E+009.2483176178E+00+
*       4.3825402902E+01               0
GRID*               4382               01.0897431739E+012.1581255693E+00+
*       4.2732741758E+01               0
GRID*               4383               05.9938929609E+005.3154475718E-01+
*       4.3977251664E+01               0
GRID*               4384               04.7721691134E+00-7.192954147E-01+
*       4.2541604419E+01               0
GRID*               4385               02.6057762534E+009.5271863275E-01+
*       4.2905328737E+01               0
GRID*               4386               0-9.332551011E+00-1.600871676E-01+
*       4.3469628976E+01               0
GRID*               4387               0-9.206869813E+00-1.680857197E+00+
*       4.3469628976E+01               0
GRID*               4388               0-1.150310377E+014.8010510171E-02+
*       4.3053412194E+01               0
GRID*               4389               0-1.137742257E+01-1.472759519E+00+
*       4.3053412194E+01               0
GRID*               4390               0-6.101967699E+00-7.668837873E-01+
*       4.3469628976E+01               0
GRID*               4391               0-4.818709481E+00-3.812455489E+00+
*       4.3457872626E+01               0
GRID*               4392               0-3.621272448E+00-2.413810369E+00+
*       4.3457872626E+01               0
GRID*               4393               0-1.513965090E+014.4322068138E+00+
*       4.2478174287E+01               0
GRID*               4394               0-1.186357121E+014.4127184081E+00+
*       4.3889855818E+01               0
GRID*               4395               0-1.284012278E+012.0684959552E+00+
*       4.3053412194E+01               0
GRID*               4396               0-1.751947154E+016.2734877328E+00+
*       1.2486048232E+01               0
GRID*               4397               0-1.680146955E+017.8660167619E+00+
*       1.2486048232E+01               0
GRID*               4398               0-4.593466607E+009.9189064726E-01+
*       4.3843990209E+01               0
GRID*               4399               0-4.704412060E+003.1263232447E+00+
*       4.3843990209E+01               0
GRID*               4400               05.6938845376E+00-5.615494191E+00+
*       4.3901792955E+01               0
GRID*               4401               0-1.571907526E+01-1.649637071E+01+
*       1.2500000353E+01               0
GRID*               4402               0-1.410122663E+01-1.768636653E+01+
*       1.2500000353E+01               0
GRID*               4403               0-3.646441819E+00-5.465381479E+00+
*       1.1618042233E+01               0
GRID*               4404               0-2.847379404E+00-2.496878108E+00+
*       1.1894327504E+01               0
GRID*               4405               0-1.556601037E+00-5.613939224E+00+
*       1.1618042233E+01               0
GRID*               4406               0-7.575386217E-01-2.645435853E+00+
*       1.1894327504E+01               0
GRID*               4407               01.8657491819E+013.5486992951E+00+
*       1.2078340073E+01               0
GRID*               4408               01.6359598974E+015.0614105428E+00+
*       1.2078340073E+01               0
GRID*               4409               01.6728566621E+013.3007751741E+00+
*       1.2078340073E+01               0
GRID*               4410               0-6.253121207E-03-1.112083689E+01+
*       1.1623634358E+01               0
GRID*               4411               01.1016418908E+00-1.034544338E+01+
*       1.3242964397E+01               0
GRID*               4412               0-1.546929113E+00-1.221896485E+01+
*       1.2922183886E+01               0
GRID*               4413               01.3437574770E+00-1.669653693E+01+
*       2.5565522640E+01               0
GRID*               4414               08.7113906300E+00-1.302646295E+01+
*       4.2478195988E+01               0
GRID*               4415               06.5969352674E+00-1.438952939E+01+
*       4.2478208333E+01               0
GRID*               4416               07.4821553920E+00-1.098622357E+01+
*       4.2181323338E+01               0
GRID*               4417               01.0343709064E+01-1.131358176E+01+
*       3.9659519326E+01               0
GRID*               4418               04.7133284829E+00-1.491944984E+01+
*       4.2478208333E+01               0
GRID*               4419               02.2993620337E+00-1.562831827E+01+
*       4.2478193879E+01               0
GRID*               4420               01.7963329951E+00-1.513095137E+01+
*       3.9338935512E+01               0
GRID*               4421               08.9074782838E+00-7.487608843E+00+
*       4.2181323338E+01               0
GRID*               4422               09.9038273151E+00-5.167246034E+00+
*       4.1986795198E+01               0
GRID*               4423               0-4.941802284E+004.4365123109E+00+
*       1.1808622779E+01               0
GRID*               4424               0-2.718985515E+001.8542085699E+00+
*       1.1894327504E+01               0
GRID*               4425               0-1.413559950E+014.3270812067E+00+
*       1.1885768897E+01               0
GRID*               4426               0-1.606924384E+015.7013756739E+00+
*       1.4371817129E+01               0
GRID*               4427               0-1.806484096E+014.5592654320E+00+
*       1.2486048232E+01               0
GRID*               4428               0-1.781161343E+012.5950017197E+00+
*       1.2509643822E+01               0
GRID*               4429               0-1.974525776E+013.9692961868E+00+
*       1.4995692055E+01               0
GRID*               4430               0-4.979193170E+001.1208584024E+01+
*       1.1874433161E+01               0
GRID*               4431               02.9013522210E+005.0387934436E-01+
*       1.3976270538E+01               0
GRID*               4432               0-1.446000656E+011.2196294847E+01+
*       1.2187288314E+01               0
GRID*               4433               0-1.483190935E+011.0247202360E+01+
*       1.4169432905E+01               0
GRID*               4434               0-7.812615778E+001.7001828024E+01+
*       2.8541462367E+01               0
GRID*               4435               01.0412021041E+014.8301269795E+00+
*       1.1546873378E+01               0
GRID*               4436               05.0237455833E+00-1.105621069E+01+
*       4.3770964952E+01               0
GRID*               4437               06.6160219949E+00-9.938294119E+00+
*       4.3770964952E+01               0
GRID*               4438               05.8209044414E+002.5834700896E+00+
*       1.2081943034E+01               0
GRID*               4439               01.5126858594E+015.3636130013E+00+
*       1.3372625651E+01               0
GRID*               4440               01.3847887298E+017.0156987928E+00+
*       1.1294285578E+01               0
GRID*               4441               01.5806545022E+016.7184664575E+00+
*       1.2078340073E+01               0
GRID*               4442               01.4876834479E+019.7979681202E+00+
*       1.2287503293E+01               0
GRID*               4443               01.4197148051E+018.4431146640E+00+
*       1.3581788871E+01               0
GRID*               4444               01.6155805774E+018.1458823287E+00+
*       1.4365843366E+01               0
GRID*               4445               01.2819342038E+019.5455762393E+00+
*       1.1370712564E+01               0
GRID*               4446               0-1.021507585E+01-2.008161623E+01+
*       1.2500000252E+01               0
GRID*               4447               01.1408050706E+01-1.452464246E+01+
*       1.1488648814E+01               0
GRID*               4448               0-9.103019495E+00-2.019640895E+01+
*       1.7355416006E+01               0
GRID*               4449               0-6.983482992E+00-2.040986182E+01+
*       1.8262430850E+01               0
GRID*               4450               0-2.069561904E+01-1.044034421E+01+
*       1.2074320804E+01               0
GRID*               4451               0-1.809950171E+019.8148122664E-01+
*       1.2509643822E+01               0
GRID*               4452               0-1.994096409E+019.9228153925E-01+
*       1.2509643822E+01               0
GRID*               4453               0-1.841710309E+01-1.435160769E+00+
*       1.1280489419E+01               0
GRID*               4454               0-1.382986386E+01-5.931159989E+00+
*       1.2111856607E+01               0
GRID*               4455               0-1.675719849E+01-8.855769134E+00+
*       1.2074320804E+01               0
GRID*               4456               0-2.269494898E+01-1.023469803E-02+
*       1.2500000000E+01               0
GRID*               4457               0-2.083413947E+01-8.983488012E+00+
*       1.2499988933E+01               0
GRID*               4458               0-1.855672418E+01-9.565485079E+00+
*       1.2074320804E+01               0
GRID*               4459               0-1.757022060E+01-5.479540874E+00+
*       1.1280489419E+01               0
GRID*               4460               0-9.403534169E+00-1.547050748E+01+
*       1.2355432380E+01               0
GRID*               4461               0-1.058431584E+01-1.297901218E+01+
*       1.1256361278E+01               0
GRID*               4462               0-1.474256900E+011.4733685650E+01+
*       1.2187288314E+01               0
GRID*               4463               0-4.805015738E+00-1.340975646E+01+
*       1.1298549529E+01               0
GRID*               4464               01.8238014607E+015.6049764264E+00+
*       1.2078340073E+01               0
GRID*               4465               0-6.284770940E+00-1.160813388E+01+
*       1.1242699613E+01               0
GRID*               4466               0-1.037015968E+011.1899538802E+01+
*       4.2478195974E+01               0
GRID*               4467               0-8.686717195E+001.2997607638E+01+
*       4.2478195974E+01               0
GRID*               4468               0-4.365747204E+00-1.173899696E+01+
*       1.1298549529E+01               0
GRID*               4469               01.8004535476E+017.9618313887E-01+
*       1.2401781910E+01               0
GRID*               4470               02.2254594301E+011.2931809670E+00+
*       1.7401769587E+01               0
GRID*               4471               01.4318563890E+019.0228397764E+00+
*       1.6377717148E+01               0
GRID*               4472               01.9888607141E+015.2356911433E+00+
*       1.3492333685E+01               0
GRID*               4473               01.8961528702E+017.8897511224E+00+
*       1.4216101602E+01               0
GRID*               4474               01.3366110571E+00-2.709351112E+00+
*       1.1894327504E+01               0
GRID*               4475               0-2.725827987E+00-1.204481264E+01+
*       1.1298549529E+01               0
GRID*               4476               0-7.117927324E-01-1.261092968E+01+
*       1.1623634358E+01               0
GRID*               4477               0-7.146098729E+001.4037170689E+01+
*       1.1420198442E+01               0
GRID*               4478               0-5.518362679E+001.4666897547E+01+
*       1.1420198442E+01               0
GRID*               4479               0-9.394050273E+001.6589682634E+01+
*       1.2025951564E+01               0
GRID*               4480               0-7.380699020E+001.6614084975E+01+
*       1.3446150006E+01               0
GRID*               4481               0-7.766314222E+001.7219409492E+01+
*       1.2025951564E+01               0
GRID*               4482               0-5.056262636E+001.7450712550E+01+
*       1.3162917610E+01               0
GRID*               4483               06.9658109813E+001.0850768305E+01+
*       1.1892623073E+01               0
GRID*               4484               01.1398027231E+01-1.199678897E+01+
*       1.1488648814E+01               0
GRID*               4485               01.2838979610E+01-1.311280220E+01+
*       1.1488648814E+01               0
GRID*               4486               01.5076438205E+01-1.202732367E+01+
*       1.2411470909E+01               0
GRID*               4487               01.3635485826E+01-1.091131045E+01+
*       1.2411470909E+01               0
GRID*               4488               01.3952357386E+01-5.596639502E+00+
*       1.2097424894E+01               0
GRID*               4489               01.6950412129E+01-5.376635946E+00+
*       1.2040694844E+01               0
GRID*               4490               01.4937052025E+01-3.337450711E+00+
*       1.1539923610E+01               0
GRID*               4491               01.3252645915E+01-7.243527427E+00+
*       1.2097424894E+01               0
GRID*               4492               01.4496623126E+01-9.410376738E+00+
*       1.2411470909E+01               0
GRID*               4493               01.2355165824E+01-1.014057058E+01+
*       1.2411470909E+01               0
GRID*               4494               08.6074478370E+00-1.238381932E+01+
*       1.1488648814E+01               0
GRID*               4495               02.6368402261E+00-1.306948160E+01+
*       1.3131462845E+01               0
GRID*               4496               0-1.211696554E+011.0925352462E+01+
*       1.1265346352E+01               0
GRID*               4497               0-2.223995915E+015.4824377736E+00+
*       1.4986048797E+01               0
GRID*               4498               0-2.198637142E+013.5181891130E+00+
*       1.7509646687E+01               0
GRID*               4499               0-2.198673162E+013.5181740613E+00+
*       1.5009644386E+01               0
GRID*               4500               0-1.970580296E+013.0365254977E+00+
*       1.2509643822E+01               0
GRID*               4501               0-1.359023008E+016.0413035075E+00+
*       1.1885768897E+01               0
GRID*               4502               0-1.287222809E+017.6338325367E+00+
*       1.1885768897E+01               0
GRID*               4503               0-3.152225355E+00-1.476608386E+01+
*       2.9689920324E+01               0
GRID*               4504               0-4.890284255E-01-1.549262727E+01+
*       3.2164747823E+01               0
GRID*               4505               0-1.385144857E+01-7.183181978E+00+
*       3.9458446294E+01               0
GRID*               4506               0-1.320968585E+01-8.563355345E+00+
*       4.2478207412E+01               0
GRID*               4507               0-1.219010655E+01-6.188696995E+00+
*       4.1980238882E+01               0
GRID*               4508               0-9.247539568E+00-4.377481901E+00+
*       4.3650098045E+01               0
GRID*               4509               0-1.161439772E+01-4.002926102E+00+
*       4.1980238882E+01               0
GRID*               4510               0-1.046501112E+01-5.183079427E+00+
*       4.0630336927E+01               0
GRID*               4511               0-9.894463627E+001.3032499823E+01+
*       1.1265346352E+01               0
GRID*               4512               0-3.644482987E+001.9840766432E+01+
*       1.3162917610E+01               0
GRID*               4513               0-1.941303052E+002.0209975043E+01+
*       1.1872723754E+01               0
GRID*               4514               0-5.469420114E+002.2122885372E+01+
*       2.3512110446E+01               0
GRID*               4515               0-1.284485661E+011.9121159100E+01+
*       2.7499996768E+01               0
GRID*               4516               0-1.037364094E+011.7474849742E+01+
*       2.8541462367E+01               0
GRID*               4517               01.0376090532E+01-1.315237489E+01+
*       1.1488648814E+01               0
GRID*               4518               0-6.419013725E+001.3524795359E+01+
*       3.9990359639E+01               0
GRID*               4519               0-2.316865467E+001.6556054322E+00+
*       4.3843990209E+01               0
GRID*               4520               06.4565358347E-014.3818410582E-01+
*       4.2905328737E+01               0
GRID*               4521               0-1.819166943E+01-1.397732630E+01+
*       2.7499990434E+01               0
GRID*               4522               0-8.304448090E+00-8.037427204E+00+
*       1.1464126662E+01               0
GRID*               4523               04.1822923329E-01-1.683993636E+01+
*       2.7966144714E+01               0
GRID*               4524               01.7893830524E+00-1.916460030E+01+
*       2.7599377925E+01               0
GRID*               4525               0-1.664338418E-01-1.042360108E+01+
*       1.5550195758E+01               0
GRID*               4526               03.8048688497E+00-1.938701450E+01+
*       2.7599377925E+01               0
GRID*               4527               05.6517803798E+00-1.858846387E+01+
*       2.7599377925E+01               0
GRID*               4528               0-4.044650998E+00-1.008229320E+01+
*       1.1298549529E+01               0
GRID*               4529               07.4543722333E-01-6.374683085E+00+
*       1.1619330039E+01               0
GRID*               4530               01.1098086983E+012.9970990609E-01+
*       1.1436361253E+01               0
GRID*               4531               08.3170502039E+00-2.117291664E+00+
*       1.1780110826E+01               0
GRID*               4532               01.1731533686E+01-1.427270109E+00+
*       1.1539923610E+01               0
GRID*               4533               07.8786357556E+002.4865249232E+00+
*       1.2081943034E+01               0
GRID*               4534               08.6322214690E+004.5010493144E+00+
*       1.1546873378E+01               0
GRID*               4535               08.2019773488E+001.9259328712E-01+
*       1.2081943034E+01               0
GRID*               4536               05.7642878670E+003.8637194011E-01+
*       1.2081943034E+01               0
GRID*               4537               05.8793607222E+00-1.923513011E+00+
*       1.1780110826E+01               0
GRID*               4538               01.3971714577E+01-1.800552278E+01+
*       1.2499979482E+01               0
GRID*               4539               01.4370921596E+01-1.765711333E+01+
*       1.6261977770E+01               0
GRID*               4540               02.3053494704E+012.5331820147E-01+
*       2.1184467472E+01               0
GRID*               4541               0-2.224335737E+015.4830588595E+00+
*       1.2486048232E+01               0
GRID*               4542               0-1.355185768E+011.3465457567E+01+
*       1.2187288314E+01               0
GRID*               4543               0-1.120881665E+011.2194515183E+01+
*       1.1265346352E+01               0
GRID*               4544               0-1.497718338E+019.9472368486E+00+
*       2.7734084039E+01               0
GRID*               4545               0-1.133024168E+01-2.043119266E+01+
*       2.7500000907E+01               0
GRID*               4546               0-1.176398997E+01-1.983040991E+01+
*       2.4111836132E+01               0
GRID*               4547               0-1.555047543E+015.7122393578E-01+
*       1.2280598687E+01               0
GRID*               4548               0-1.526258715E+012.1847444289E+00+
*       1.2280598687E+01               0
GRID*               4549               0-2.243908567E+01-2.526392580E+00+
*       1.2499972505E+01               0
GRID*               4550               0-1.818843519E+01-3.479095454E+00+
*       1.1280489419E+01               0
GRID*               4551               0-2.199012983E+013.5187951472E+00+
*       1.2509643822E+01               0
GRID*               4552               06.9373288133E+001.3335580229E+01+
*       3.9452306790E+01               0
GRID*               4553               04.7903039607E+001.4699553458E+01+
*       3.9550867035E+01               0
GRID*               4554               0-1.960079973E+01-1.204418958E+01+
*       2.7499990434E+01               0
GRID*               4555               0-1.176382316E+01-1.983014506E+01+
*       2.1611835800E+01               0
GRID*               4556               09.9482443682E+00-3.351766729E+00+
*       1.1780110826E+01               0
GRID*               4557               01.2378033211E+01-4.920933965E+00+
*       1.2097424894E+01               0
GRID*               4558               01.3362727850E+01-2.661745173E+00+
*       1.1539923610E+01               0
GRID*               4559               0-1.073898532E+011.0268952843E+01+
*       1.1265346352E+01               0
GRID*               4560               0-1.149424788E+016.9774329179E+00+
*       1.1885768897E+01               0
GRID*               4561               01.7308304064E+018.6844780891E+00+
*       1.2287503293E+01               0
GRID*               4562               01.1306337442E+01-6.010882756E+00+
*       4.1986795198E+01               0
GRID*               4563               01.3162735380E+018.6722887986E+00+
*       4.2478207691E+01               0
GRID*               4564               01.3941638026E+016.8537468343E+00+
*       4.2478207691E+01               0
GRID*               4565               01.5051102432E+011.4094448248E+00+
*       2.7719430011E+01               0
GRID*               4566               06.5357267821E+001.4434454284E+01+
*       4.2478173145E+01               0
GRID*               4567               01.5792380821E+011.6183060968E+01+
*       1.2499998534E+01               0
GRID*               4568               01.4361417876E+011.6456251064E+01+
*       1.4783527716E+01               0
GRID*               4569               06.6003859310E+002.2063781245E+01+
*       2.7499985793E+01               0
GRID*               4570               04.7539398517E+002.2878993374E+01+
*       2.7499985793E+01               0
GRID*               4571               05.3526655460E+002.2500694879E+01+
*       2.4060591189E+01               0
GRID*               4572               01.7284445513E+011.4822359142E+01+
*       1.2499998534E+01               0
GRID*               4573               01.5414369080E+011.2294065277E+01+
*       1.2287503293E+01               0
GRID*               4574               01.9851559961E+011.1067227736E+01+
*       1.2499993796E+01               0
GRID*               4575               01.8730396900E+011.2747382266E+01+
*       1.2499993796E+01               0
GRID*               4576               01.6535532141E+011.0613910747E+01+
*       1.2287503293E+01               0
GRID*               4577               01.5251604045E+01-1.247440041E-01+
*       1.1539923610E+01               0
GRID*               4578               01.9960504168E+01-1.013445592E+00+
*       1.2401781910E+01               0
GRID*               4579               02.3055196089E+012.7824500885E+00+
*       2.3684457465E+01               0
GRID*               4580               0-1.022803597E+01-2.652912844E+00+
*       4.1703510238E+01               0
GRID*               4581               06.9606367392E+008.5492637946E+00+
*       4.4115474363E+01               0
GRID*               4582               07.4778970597E+00-1.017816122E+00+
*       4.3977251664E+01               0
GRID*               4583               01.8374150981E+01-1.312201126E+01+
*       1.2499977178E+01               0
GRID*               4584               0-7.052754984E+00-2.193014774E+01+
*       2.7499988271E+01               0
GRID*               4585               0-4.604350426E+00-2.256409154E+01+
*       2.7499985833E+01               0
GRID*               4586               0-5.316276543E+00-2.013892753E+01+
*       2.7452586481E+01               0
GRID*               4587               01.4231303089E+01-6.183981428E+00+
*       4.2478174282E+01               0
GRID*               4588               01.5012160545E+01-4.358188838E+00+
*       4.2478174282E+01               0
GRID*               4589               01.2087194898E+01-4.185090166E+00+
*       4.1986795198E+01               0
GRID*               4590               0-1.407394313E+01-6.783745573E+00+
*       4.2478207412E+01               0
GRID*               4591               0-1.511913373E+01-4.495331910E+00+
*       4.2478201874E+01               0
GRID*               4592               0-1.284451436E+01-1.912136655E+01+
*       2.7500000907E+01               0
GRID*               4593               01.5268882509E+012.5930793917E+00+
*       4.2478210065E+01               0
GRID*               4594               01.2787006249E+015.5729489833E-01+
*       4.2732741758E+01               0
GRID*               4595               01.5372443717E+01-1.868784948E+00+
*       4.2478176395E+01               0
GRID*               4596               01.2532151028E+01-1.414350222E+00+
*       4.2732741758E+01               0
GRID*               4597               0-1.577069491E+01-4.769824929E+00+
*       1.1280489419E+01               0
GRID*               4598               0-1.959830483E+011.2042106350E+01+
*       2.7499986800E+01               0
GRID*               4599               02.2577644832E+012.2252927445E-01+
*       1.2499983180E+01               0
GRID*               4600               02.3892313444E-01-2.304309160E+01+
*       2.7499989779E+01               0
GRID*               4601               0-1.344671308E+00-1.750095584E+00+
*       4.3457872626E+01               0
GRID*               4602               0-1.426983924E+011.7905105693E+01+
*       1.2187288314E+01               0
GRID*               4603               0-1.142638486E+012.0191346119E+01+
*       1.2025951564E+01               0
GRID*               4604               0-9.155599479E+002.1305215717E+01+
*       1.2025951564E+01               0
GRID*               4605               02.7007521367E-01-2.192007843E+01+
*       1.5207804858E+01               0
GRID*               4606               0-1.352983917E+00-2.242375077E+01+
*       1.2499983318E+01               0
GRID*               4607               01.3468493960E+018.7025377065E-02+
*       1.1436361253E+01               0
GRID*               4608               0-4.711399744E+00-1.023212710E+01+
*       4.3743657540E+01               0
GRID*               4609               01.3229929906E+01-1.885052925E+01+
*       2.7499989785E+01               0
GRID*               4610               0-5.011225191E+001.2974649779E+01+
*       1.1420198442E+01               0
GRID*               4611               0-1.434103964E+00-7.855678502E+00+
*       4.3706639657E+01               0
GRID*               4612               0-1.042424356E+011.1357020373E+01+
*       1.1265346352E+01               0
GRID*               4613               02.0624331884E+019.1377950779E+00+
*       1.2499993796E+01               0
GRID*               4614               02.3771441266E+001.5408568066E+01+
*       3.9550869024E+01               0
GRID*               4615               04.1225669481E+001.5143468891E+01+
*       4.2478175134E+01               0
GRID*               4616               0-3.057464329E-011.5669803437E+01+
*       4.2478193891E+01               0
GRID*               4617               01.4101940663E+01-1.639954638E+00+
*       1.1539923610E+01               0
GRID*               4618               01.0303667042E+01-1.190854638E+01+
*       4.2478195988E+01               0
GRID*               4619               0-6.572226096E+001.4360615332E+01+
*       4.2478208368E+01               0
GRID*               4620               0-4.693371416E+001.4979484477E+01+
*       4.2478208368E+01               0
GRID*               4621               0-1.415974432E+014.4429839841E+00+
*       3.0833554283E+01               0
GRID*               4622               01.1515669143E+011.0573341526E+01+
*       4.2478186968E+01               0
GRID*               4623               03.4632011350E+00-1.273165831E+01+
*       4.1860741634E+01               0
GRID*               4624               0-1.194860975E+015.4320418273E+00+
*       1.1885768897E+01               0
GRID*               4625               02.1622196514E+016.8137471018E+00+
*       1.2499970869E+01               0
GRID*               4626               0-2.279388691E+001.5688296228E+01+
*       4.2478193891E+01               0
GRID*               4627               0-6.998846143E+004.5485288225E+00+
*       1.1808622779E+01               0
GRID*               4628               0-1.305436384E+01-4.409087222E+00+
*       4.1980238882E+01               0
GRID*               4629               0-1.309856190E+017.6449935562E-02+
*       4.3053412194E+01               0
GRID*               4630               0-2.751856425E+004.4347325547E+00+
*       1.1808622779E+01               0
GRID*               4631               0-5.290396570E-011.8524288137E+00+
*       1.1894327504E+01               0
GRID*               4632               0-1.525476940E+01-2.404261814E+00+
*       3.6958491797E+01               0
GRID*               4633               0-1.501779425E+011.2590476876E-01+
*       4.0531588589E+01               0
GRID*               4634               0-1.484471109E+01-1.757330858E+01+
*       2.7499990516E+01               0
GRID*               4635               0-3.448856629E+00-2.231741789E+01+
*       1.2499983318E+01               0
GRID*               4636               02.2820653183E+013.2170018933E+00+
*       2.7499991690E+01               0
GRID*               4637               02.1620469122E+017.9332015678E+00+
*       2.7499985562E+01               0
GRID*               4638               04.4015489575E+00-9.744209931E+00+
*       4.3770964952E+01               0
GRID*               4639               01.2241724555E+01-1.902567665E+01+
*       1.2499979482E+01               0
GRID*               4640               08.9729830182E+00-2.120512796E+01+
*       2.7500001770E+01               0
GRID*               4641               02.3335197586E+011.2649094789E+00+
*       2.7499991690E+01               0
GRID*               4642               02.2097753280E+001.5668110486E+01+
*       4.2478175134E+01               0
GRID*               4643               0-4.018548979E+005.3595473824E+00+
*       4.3843990209E+01               0
GRID*               4644               01.3627895754E+007.8872396706E+00+
*       4.3825402902E+01               0
GRID*               4645               01.1083245929E+01-2.018795591E+01+
*       2.7500001770E+01               0
GRID*               4646               0-1.156232956E+01-1.046499802E+01+
*       4.2478188653E+01               0
GRID*               4647               03.1148696376E-01-1.564970702E+01+
*       4.2478193879E+01               0
GRID*               4648               0-1.946821032E+01-1.265170845E+01+
*       1.2074320804E+01               0
GRID*               4649               01.6809259395E+01-1.346048549E+01+
*       1.4911448087E+01               0
GRID*               4650               01.4837376837E+014.5442840635E-01+
*       4.0210918153E+01               0
GRID*               4651               0-2.190367677E+01-8.134646232E+00+
*       2.7499986240E+01               0
GRID*               4652               08.0522560048E+002.1041331777E+01+
*       1.2499987573E+01               0
GRID*               4653               01.6250700657E+01-7.023523870E+00+
*       1.2040694844E+01               0
GRID*               4654               0-1.549999805E+011.9425911865E+00+
*       4.2478176395E+01               0
GRID*               4655               06.4280333402E+00-4.626809437E+00+
*       4.3901792955E+01               0
$*
$* ELEMENT CARDS
$*
$*  Mesh Collector: Solid(1)
$*  Mesh: 3d_mesh(1)
CHEXA          1       1      65      33       2      64     331     300+
+              3     330
CHEXA          2       1     331     300       3     330     183      34+
+              1     182
CHEXA          3       1      66      32      33      65     332     301+
+            300     331
CHEXA          4       1     332     301     300     331     184      35+
+             34     183
CHEXA          5       1      67      31      32      66     333     302+
+            301     332
CHEXA          6       1     333     302     301     332     185      36+
+             35     184
CHEXA          7       1      68      30      31      67     334     303+
+            302     333
CHEXA          8       1     334     303     302     333     186      37+
+             36     185
CHEXA          9       1      69      29      30      68     335     304+
+            303     334
CHEXA         10       1     335     304     303     334     187      38+
+             37     186
CHEXA         11       1      70      28      29      69     336     305+
+            304     335
CHEXA         12       1     336     305     304     335     188      39+
+             38     187
CHEXA         13       1      71      27      28      70     337     306+
+            305     336
CHEXA         14       1     337     306     305     336     189      40+
+             39     188
CHEXA         15       1      72      26      27      71     338     307+
+            306     337
CHEXA         16       1     338     307     306     337     190      41+
+             40     189
CHEXA         17       1      73      25      26      72     339     308+
+            307     338
CHEXA         18       1     339     308     307     338     191      42+
+             41     190
CHEXA         19       1      74      24      25      73     340     309+
+            308     339
CHEXA         20       1     340     309     308     339     192      43+
+             42     191
CHEXA         21       1      75      23      24      74     341     310+
+            309     340
CHEXA         22       1     341     310     309     340     193      44+
+             43     192
CHEXA         23       1      76      22      23      75     342     311+
+            310     341
CHEXA         24       1     342     311     310     341     194      45+
+             44     193
CHEXA         25       1      77      21      22      76     343     312+
+            311     342
CHEXA         26       1     343     312     311     342     195      46+
+             45     194
CHEXA         27       1      78      20      21      77     344     313+
+            312     343
CHEXA         28       1     344     313     312     343     196      47+
+             46     195
CHEXA         29       1      79      19      20      78     345     314+
+            313     344
CHEXA         30       1     345     314     313     344     197      48+
+             47     196
CHEXA         31       1      80      18      19      79     346     315+
+            314     345
CHEXA         32       1     346     315     314     345     198      49+
+             48     197
CHEXA         33       1      81      17      18      80     347     316+
+            315     346
CHEXA         34       1     347     316     315     346     199      50+
+             49     198
CHEXA         35       1      82      16      17      81     348     317+
+            316     347
CHEXA         36       1     348     317     316     347     200      51+
+             50     199
CHEXA         37       1      83      15      16      82     349     318+
+            317     348
CHEXA         38       1     349     318     317     348     201      52+
+             51     200
CHEXA         39       1      84      14      15      83     350     319+
+            318     349
CHEXA         40       1     350     319     318     349     202      53+
+             52     201
CHEXA         41       1      85      13      14      84     351     320+
+            319     350
CHEXA         42       1     351     320     319     350     203      54+
+             53     202
CHEXA         43       1      86      12      13      85     352     321+
+            320     351
CHEXA         44       1     352     321     320     351     204      55+
+             54     203
CHEXA         45       1      87      11      12      86     353     322+
+            321     352
CHEXA         46       1     353     322     321     352     205      56+
+             55     204
CHEXA         47       1      88      10      11      87     354     323+
+            322     353
CHEXA         48       1     354     323     322     353     206      57+
+             56     205
CHEXA         49       1      89       9      10      88     355     324+
+            323     354
CHEXA         50       1     355     324     323     354     207      58+
+             57     206
CHEXA         51       1      90       8       9      89     356     325+
+            324     355
CHEXA         52       1     356     325     324     355     208      59+
+             58     207
CHEXA         53       1      91       7       8      90     357     326+
+            325     356
CHEXA         54       1     357     326     325     356     209      60+
+             59     208
CHEXA         55       1      92       6       7      91     358     327+
+            326     357
CHEXA         56       1     358     327     326     357     210      61+
+             60     209
CHEXA         57       1      93       5       6      92     359     328+
+            327     358
CHEXA         58       1     359     328     327     358     211      62+
+             61     210
CHEXA         59       1      94       4       5      93     360     329+
+            328     359
CHEXA         60       1     360     329     328     359     212      63+
+             62     211
CHEXA         61       1      64       2       4      94     330       3+
+            329     360
CHEXA         62       1     330       3     329     360     182       1+
+             63     212
CHEXA         63       1      96      65      64      95     362     331+
+            330     361
CHEXA         64       1     362     331     330     361     214     183+
+            182     213
CHEXA         65       1      97      66      65      96     363     332+
+            331     362
CHEXA         66       1     363     332     331     362     215     184+
+            183     214
CHEXA         67       1      98      67      66      97     364     333+
+            332     363
CHEXA         68       1     364     333     332     363     216     185+
+            184     215
CHEXA         69       1      99      68      67      98     365     334+
+            333     364
CHEXA         70       1     365     334     333     364     217     186+
+            185     216
CHEXA         71       1     100      69      68      99     366     335+
+            334     365
CHEXA         72       1     366     335     334     365     218     187+
+            186     217
CHEXA         73       1     101      70      69     100     367     336+
+            335     366
CHEXA         74       1     367     336     335     366     219     188+
+            187     218
CHEXA         75       1     102      71      70     101     368     337+
+            336     367
CHEXA         76       1     368     337     336     367     220     189+
+            188     219
CHEXA         77       1     103      72      71     102     369     338+
+            337     368
CHEXA         78       1     369     338     337     368     221     190+
+            189     220
CHEXA         79       1     104      73      72     103     370     339+
+            338     369
CHEXA         80       1     370     339     338     369     222     191+
+            190     221
CHEXA         81       1     105      74      73     104     371     340+
+            339     370
CHEXA         82       1     371     340     339     370     223     192+
+            191     222
CHEXA         83       1     106      75      74     105     372     341+
+            340     371
CHEXA         84       1     372     341     340     371     224     193+
+            192     223
CHEXA         85       1     107      76      75     106     373     342+
+            341     372
CHEXA         86       1     373     342     341     372     225     194+
+            193     224
CHEXA         87       1     108      77      76     107     374     343+
+            342     373
CHEXA         88       1     374     343     342     373     226     195+
+            194     225
CHEXA         89       1     109      78      77     108     375     344+
+            343     374
CHEXA         90       1     375     344     343     374     227     196+
+            195     226
CHEXA         91       1     110      79      78     109     376     345+
+            344     375
CHEXA         92       1     376     345     344     375     228     197+
+            196     227
CHEXA         93       1     111      80      79     110     377     346+
+            345     376
CHEXA         94       1     377     346     345     376     229     198+
+            197     228
CHEXA         95       1     112      81      80     111     378     347+
+            346     377
CHEXA         96       1     378     347     346     377     230     199+
+            198     229
CHEXA         97       1     113      82      81     112     379     348+
+            347     378
CHEXA         98       1     379     348     347     378     231     200+
+            199     230
CHEXA         99       1     114      83      82     113     380     349+
+            348     379
CHEXA        100       1     380     349     348     379     232     201+
+            200     231
CHEXA        101       1     115      84      83     114     381     350+
+            349     380
CHEXA        102       1     381     350     349     380     233     202+
+            201     232
CHEXA        103       1     116      85      84     115     382     351+
+            350     381
CHEXA        104       1     382     351     350     381     234     203+
+            202     233
CHEXA        105       1     117      86      85     116     383     352+
+            351     382
CHEXA        106       1     383     352     351     382     235     204+
+            203     234
CHEXA        107       1     118      87      86     117     384     353+
+            352     383
CHEXA        108       1     384     353     352     383     236     205+
+            204     235
CHEXA        109       1     119      88      87     118     385     354+
+            353     384
CHEXA        110       1     385     354     353     384     237     206+
+            205     236
CHEXA        111       1     120      89      88     119     386     355+
+            354     385
CHEXA        112       1     386     355     354     385     238     207+
+            206     237
CHEXA        113       1     121      90      89     120     387     356+
+            355     386
CHEXA        114       1     387     356     355     386     239     208+
+            207     238
CHEXA        115       1     122      91      90     121     388     357+
+            356     387
CHEXA        116       1     388     357     356     387     240     209+
+            208     239
CHEXA        117       1     123      92      91     122     389     358+
+            357     388
CHEXA        118       1     389     358     357     388     241     210+
+            209     240
CHEXA        119       1     124      93      92     123     390     359+
+            358     389
CHEXA        120       1     390     359     358     389     242     211+
+            210     241
CHEXA        121       1     125      94      93     124     391     360+
+            359     390
CHEXA        122       1     391     360     359     390     243     212+
+            211     242
CHEXA        123       1      95      64      94     125     361     330+
+            360     391
CHEXA        124       1     361     330     360     391     213     182+
+            212     243
CHEXA        125       1     127      96      95     126     393     362+
+            361     392
CHEXA        126       1     393     362     361     392     245     214+
+            213     244
CHEXA        127       1     128      97      96     127     394     363+
+            362     393
CHEXA        128       1     394     363     362     393     246     215+
+            214     245
CHEXA        129       1     129      98      97     128     395     364+
+            363     394
CHEXA        130       1     395     364     363     394     247     216+
+            215     246
CHEXA        131       1     130      99      98     129     396     365+
+            364     395
CHEXA        132       1     396     365     364     395     248     217+
+            216     247
CHEXA        133       1     131     100      99     130     397     366+
+            365     396
CHEXA        134       1     397     366     365     396     249     218+
+            217     248
CHEXA        135       1     132     101     100     131     398     367+
+            366     397
CHEXA        136       1     398     367     366     397     250     219+
+            218     249
CHEXA        137       1     133     102     101     132     399     368+
+            367     398
CHEXA        138       1     399     368     367     398     251     220+
+            219     250
CHEXA        139       1     134     103     102     133     400     369+
+            368     399
CHEXA        140       1     400     369     368     399     252     221+
+            220     251
CHEXA        141       1     135     104     103     134     401     370+
+            369     400
CHEXA        142       1     401     370     369     400     253     222+
+            221     252
CHEXA        143       1     136     105     104     135     402     371+
+            370     401
CHEXA        144       1     402     371     370     401     254     223+
+            222     253
CHEXA        145       1     137     106     105     136     403     372+
+            371     402
CHEXA        146       1     403     372     371     402     255     224+
+            223     254
CHEXA        147       1     138     107     106     137     404     373+
+            372     403
CHEXA        148       1     404     373     372     403     256     225+
+            224     255
CHEXA        149       1     139     108     107     138     405     374+
+            373     404
CHEXA        150       1     405     374     373     404     257     226+
+            225     256
CHEXA        151       1     140     109     108     139     406     375+
+            374     405
CHEXA        152       1     406     375     374     405     258     227+
+            226     257
CHEXA        153       1     141     110     109     140     407     376+
+            375     406
CHEXA        154       1     407     376     375     406     259     228+
+            227     258
CHEXA        155       1     142     111     110     141     408     377+
+            376     407
CHEXA        156       1     408     377     376     407     260     229+
+            228     259
CHEXA        157       1     143     112     111     142     409     378+
+            377     408
CHEXA        158       1     409     378     377     408     261     230+
+            229     260
CHEXA        159       1     144     113     112     143     410     379+
+            378     409
CHEXA        160       1     410     379     378     409     262     231+
+            230     261
CHEXA        161       1     145     114     113     144     411     380+
+            379     410
CHEXA        162       1     411     380     379     410     263     232+
+            231     262
CHEXA        163       1     146     115     114     145     412     381+
+            380     411
CHEXA        164       1     412     381     380     411     264     233+
+            232     263
CHEXA        165       1     147     116     115     146     413     382+
+            381     412
CHEXA        166       1     413     382     381     412     265     234+
+            233     264
CHEXA        167       1     148     117     116     147     414     383+
+            382     413
CHEXA        168       1     414     383     382     413     266     235+
+            234     265
CHEXA        169       1     180     118     117     148     415     384+
+            383     414
CHEXA        170       1     415     384     383     414     267     236+
+            235     266
CHEXA        171       1     179     119     118     180     416     385+
+            384     415
CHEXA        172       1     416     385     384     415     268     237+
+            236     267
CHEXA        173       1     149     120     119     179     417     386+
+            385     416
CHEXA        174       1     417     386     385     416     269     238+
+            237     268
CHEXA        175       1     150     121     120     149     418     387+
+            386     417
CHEXA        176       1     418     387     386     417     270     239+
+            238     269
CHEXA        177       1     151     122     121     150     419     388+
+            387     418
CHEXA        178       1     419     388     387     418     271     240+
+            239     270
CHEXA        179       1     152     123     122     151     420     389+
+            388     419
CHEXA        180       1     420     389     388     419     272     241+
+            240     271
CHEXA        181       1     153     124     123     152     421     390+
+            389     420
CHEXA        182       1     421     390     389     420     273     242+
+            241     272
CHEXA        183       1     154     125     124     153     422     391+
+            390     421
CHEXA        184       1     422     391     390     421     274     243+
+            242     273
CHEXA        185       1     126      95     125     154     392     361+
+            391     422
CHEXA        186       1     392     361     391     422     244     213+
+            243     274
CHEXA        187       1     181     180     148     162     435     415+
+            414     434
CHEXA        188       1     435     415     414     434     287     267+
+            266     286
CHEXA        189       1     161     158     157     160     444     443+
+            447     445
CHEXA        190       1     444     443     447     445     296     295+
+            299     297
CHEXA        191       1     181     162     161     160     435     434+
+            444     445
CHEXA        192       1     435     434     444     445     287     286+
+            296     297
CHEXA        193       1     159     158     161     163     431     443+
+            444     432
CHEXA        194       1     431     443     444     432     283     295+
+            296     284
CHEXA        195       1     163     144     143     159     432     410+
+            409     431
CHEXA        196       1     432     410     409     431     284     262+
+            261     283
CHEXA        197       1     164     145     144     163     433     411+
+            410     432
CHEXA        198       1     433     411     410     432     285     263+
+            262     284
CHEXA        199       1     161     162     164     163     444     434+
+            433     432
CHEXA        200       1     444     434     433     432     296     286+
+            285     284
CHEXA        201       1     160     157     156     166     445     447+
+            439     446
CHEXA        202       1     445     447     439     446     297     299+
+            291     298
CHEXA        203       1     181     160     166     165     435     445+
+            446     436
CHEXA        204       1     435     445     446     436     287     297+
+            298     288
CHEXA        205       1     165     149     179     181     436     417+
+            416     435
CHEXA        206       1     436     417     416     435     288     269+
+            268     287
CHEXA        207       1     167     166     156     155     438     446+
+            439     423
CHEXA        208       1     438     446     439     423     290     298+
+            291     275
CHEXA        209       1     153     167     155     154     421     438+
+            423     422
CHEXA        210       1     421     438     423     422     273     290+
+            275     274
CHEXA        211       1     168     167     153     152     437     438+
+            421     420
CHEXA        212       1     437     438     421     420     289     290+
+            273     272
CHEXA        213       1     168     165     166     167     437     436+
+            446     438
CHEXA        214       1     437     436     446     438     289     288+
+            298     290
CHEXA        215       1     171     169     157     158     442     441+
+            447     443
CHEXA        216       1     442     441     447     443     294     293+
+            299     295
CHEXA        217       1     172     171     158     159     430     442+
+            443     431
CHEXA        218       1     430     442     443     431     282     294+
+            295     283
CHEXA        219       1     140     172     159     141     406     430+
+            431     407
CHEXA        220       1     406     430     431     407     258     282+
+            283     259
CHEXA        221       1     170     169     171     173     427     441+
+            442     428
CHEXA        222       1     427     441     442     428     279     293+
+            294     280
CHEXA        223       1     173     136     135     170     428     402+
+            401     427
CHEXA        224       1     428     402     401     427     280     254+
+            253     279
CHEXA        225       1     174     137     136     173     429     403+
+            402     428
CHEXA        226       1     429     403     402     428     281     255+
+            254     280
CHEXA        227       1     171     172     174     173     442     430+
+            429     428
CHEXA        228       1     442     430     429     428     294     282+
+            281     280
CHEXA        229       1     156     157     169     176     439     447+
+            441     440
CHEXA        230       1     439     447     441     440     291     299+
+            293     292
CHEXA        231       1     155     156     176     175     423     439+
+            440     424
CHEXA        232       1     423     439     440     424     275     291+
+            292     276
CHEXA        233       1     175     128     127     155     424     394+
+            393     423
CHEXA        234       1     424     394     393     423     276     246+
+            245     275
CHEXA        235       1     177     176     169     170     426     440+
+            441     427
CHEXA        236       1     426     440     441     427     278     292+
+            293     279
CHEXA        237       1     132     177     170     133     398     426+
+            427     399
CHEXA        238       1     398     426     427     399     250     278+
+            279     251
CHEXA        239       1     178     177     132     131     425     426+
+            398     397
CHEXA        240       1     425     426     398     397     277     278+
+            250     249
CHEXA        241       1     178     175     176     177     425     424+
+            440     426
CHEXA        242       1     425     424     440     426     277     276+
+            292     278
CHEXA        243       1     143     142     141     159     409     408+
+            407     431
CHEXA        244       1     409     408     407     431     261     260+
+            259     283
CHEXA        245       1     154     155     127     126     422     423+
+            393     392
CHEXA        246       1     422     423     393     392     274     275+
+            245     244
CHEXA        247       1     135     134     133     170     401     400+
+            399     427
CHEXA        248       1     401     400     399     427     253     252+
+            251     279
CHEXA        249       1     129     128     175     178     395     394+
+            424     425
CHEXA        250       1     395     394     424     425     247     246+
+            276     277
CHEXA        251       1     178     131     130     129     425     397+
+            396     395
CHEXA        252       1     425     397     396     395     277     249+
+            248     247
CHEXA        253       1     174     172     140     139     429     430+
+            406     405
CHEXA        254       1     429     430     406     405     281     282+
+            258     257
CHEXA        255       1     139     138     137     174     405     404+
+            403     429
CHEXA        256       1     405     404     403     429     257     256+
+            255     281
CHEXA        257       1     164     162     148     147     433     434+
+            414     413
CHEXA        258       1     433     434     414     413     285     286+
+            266     265
CHEXA        259       1     147     146     145     164     413     412+
+            411     433
CHEXA        260       1     413     412     411     433     265     264+
+            263     285
CHEXA        261       1     150     149     165     168     418     417+
+            436     437
CHEXA        262       1     418     417     436     437     270     269+
+            288     289
CHEXA        263       1     168     152     151     150     437     420+
+            419     418
CHEXA        264       1     437     420     419     418     289     272+
+            271     270
CPENTA       265       1     179     180     181     416     415     435
CPENTA       266       1     416     415     435     268     267     287
$*  Mesh Collector: Solid(2)
$*  Mesh: 3d_mesh(2)
CHEXA        267       2     493     470     449     492     568     491+
+            448     567
CHEXA        268       2     494     469     470     493     569     490+
+            491     568
CHEXA        269       2     495     468     469     494     570     489+
+            490     569
CHEXA        270       2     496     467     468     495     571     488+
+            489     570
CHEXA        271       2     497     466     467     496     572     487+
+            488     571
CHEXA        272       2     498     465     466     497     573     486+
+            487     572
CHEXA        273       2     499     464     465     498     574     485+
+            486     573
CHEXA        274       2     500     463     464     499     575     484+
+            485     574
CHEXA        275       2     501     462     463     500     576     483+
+            484     575
CHEXA        276       2     502     461     462     501     577     482+
+            483     576
CHEXA        277       2     503     460     461     502     578     481+
+            482     577
CHEXA        278       2     504     459     460     503     579     480+
+            481     578
CHEXA        279       2     505     458     459     504     580     479+
+            480     579
CHEXA        280       2     506     457     458     505     581     478+
+            479     580
CHEXA        281       2     507     456     457     506     582     477+
+            478     581
CHEXA        282       2     508     455     456     507     583     476+
+            477     582
CHEXA        283       2     509     454     455     508     584     475+
+            476     583
CHEXA        284       2     510     453     454     509     585     474+
+            475     584
CHEXA        285       2     511     452     453     510     586     473+
+            474     585
CHEXA        286       2     512     451     452     511     587     472+
+            473     586
CHEXA        287       2     513     450     451     512     588     471+
+            472     587
CHEXA        288       2     492     449     450     513     567     448+
+            471     588
CHEXA        289       2     515     493     492     514     590     568+
+            567     589
CHEXA        290       2     516     494     493     515     591     569+
+            568     590
CHEXA        291       2     517     495     494     516     592     570+
+            569     591
CHEXA        292       2     518     496     495     517     593     571+
+            570     592
CHEXA        293       2     519     497     496     518     594     572+
+            571     593
CHEXA        294       2     520     498     497     519     595     573+
+            572     594
CHEXA        295       2     521     499     498     520     596     574+
+            573     595
CHEXA        296       2     522     500     499     521     597     575+
+            574     596
CHEXA        297       2     523     501     500     522     598     576+
+            575     597
CHEXA        298       2     524     502     501     523     599     577+
+            576     598
CHEXA        299       2     525     503     502     524     600     578+
+            577     599
CHEXA        300       2     526     504     503     525     601     579+
+            578     600
CHEXA        301       2     527     505     504     526     602     580+
+            579     601
CHEXA        302       2     528     506     505     527     603     581+
+            580     602
CHEXA        303       2     529     507     506     528     604     582+
+            581     603
CHEXA        304       2     530     508     507     529     605     583+
+            582     604
CHEXA        305       2     531     509     508     530     606     584+
+            583     605
CHEXA        306       2     532     510     509     531     607     585+
+            584     606
CHEXA        307       2     533     511     510     532     608     586+
+            585     607
CHEXA        308       2     534     512     511     533     609     587+
+            586     608
CHEXA        309       2     535     513     512     534     610     588+
+            587     609
CHEXA        310       2     514     492     513     535     589     567+
+            588     610
CHEXA        311       2     537     515     514     536     612     590+
+            589     611
CHEXA        312       2     538     516     515     537     613     591+
+            590     612
CHEXA        313       2     539     517     516     538     614     592+
+            591     613
CHEXA        314       2     540     518     517     539     615     593+
+            592     614
CHEXA        315       2     541     519     518     540     616     594+
+            593     615
CHEXA        316       2     542     520     519     541     617     595+
+            594     616
CHEXA        317       2     543     521     520     542     618     596+
+            595     617
CHEXA        318       2     544     522     521     543     619     597+
+            596     618
CHEXA        319       2     545     523     522     544     620     598+
+            597     619
CHEXA        320       2     563     524     523     545     621     599+
+            598     620
CHEXA        321       2     562     525     524     563     622     600+
+            599     621
CHEXA        322       2     564     526     525     562     623     601+
+            600     622
CHEXA        323       2     566     527     526     564     624     602+
+            601     623
CHEXA        324       2     546     528     527     566     625     603+
+            602     624
CHEXA        325       2     547     529     528     546     626     604+
+            603     625
CHEXA        326       2     548     530     529     547     627     605+
+            604     626
CHEXA        327       2     549     531     530     548     628     606+
+            605     627
CHEXA        328       2     550     532     531     549     629     607+
+            606     628
CHEXA        329       2     551     533     532     550     630     608+
+            607     629
CHEXA        330       2     552     534     533     551     631     609+
+            608     630
CHEXA        331       2     553     535     534     552     632     610+
+            609     631
CHEXA        332       2     536     514     535     553     611     589+
+            610     632
CHEXA        333       2     557     545     544     543     636     620+
+            619     618
CHEXA        334       2     542     556     557     543     617     635+
+            636     618
CHEXA        335       2     557     556     554     561     636     635+
+            641     637
CHEXA        336       2     545     557     561     563     620     636+
+            637     621
CHEXA        337       2     555     554     556     558     633     641+
+            635     634
CHEXA        338       2     537     536     555     558     612     611+
+            633     634
CHEXA        339       2     539     538     537     558     614     613+
+            612     634
CHEXA        340       2     556     542     541     540     635     617+
+            616     615
CHEXA        341       2     539     558     556     540     614     634+
+            635     615
CHEXA        342       2     559     548     547     546     639     627+
+            626     625
CHEXA        343       2     566     565     559     546     624     638+
+            639     625
CHEXA        344       2     561     554     559     565     637     641+
+            639     638
CHEXA        345       2     559     554     555     560     639     641+
+            633     640
CHEXA        346       2     549     548     559     560     628     627+
+            639     640
CHEXA        347       2     551     550     549     560     630     629+
+            628     640
CHEXA        348       2     555     536     553     552     633     611+
+            632     631
CHEXA        349       2     551     560     555     552     630     640+
+            633     631
CHEXA        350       2     564     562     561     565     623     622+
+            637     638
CPENTA       351       2     561     562     563     637     622     621
CPENTA       352       2     564     565     566     623     638     624
$*  Mesh Collector: Solid(3)
$*  Mesh: 3d_mesh(3)
CTETRA       353       3    2258    2259    2260    2261    2458    2459+
+           2460    2461    2462    2463
CTETRA       354       3    2261    2263    2262    2264    2464    2465+
+           2466    2467    2468    2469
CTETRA       355       3    2259    2261    2265    2266    2462    2470+
+           2471    2472    2473    2474
CTETRA       356       3    2261    2267    2266    2268    2475    2476+
+           2473    2477    2478    2479
CTETRA       357       3    2261    2265    2266    2269    2470    2474+
+           2473    2480    2481    2482
CTETRA       358       3    2270    2271    2272    2273    2483    2484+
+           2485    2486    2487    2488
CTETRA       359       3    2270    2275    2274    2276    2489    2490+
+           2491    2492    2493    2494
CTETRA       360       3    2270    2274    2273    2276    2491    2495+
+           2486    2492    2494    2496
CTETRA       361       3    2271    2272    2273    2277    2484    2488+
+           2487    2497    2498    2499
CTETRA       362       3    2273    2279    2278    2280    2500    2501+
+           2502    2503    2504    2505
CTETRA       363       3    2271    2277    2273    2279    2497    2499+
+           2487    2506    2507    2500
CTETRA       364       3    2273    2276    2281    2282    2496    2508+
+           2509    2510    2511    2512
CTETRA       365       3      36    1454     185    1457    1867    2513+
+           1886    1866    1554    2514
CTETRA       366       3     528     547     546    2283     993     992+
+            991    2515    2516    2517
CTETRA       367       3    2273    2276    2274    2281    2496    2494+
+           2495    2509    2508    2518
CTETRA       368       3     536     537    2284    2285     951    2519+
+           2520    2521    2522    2523
CTETRA       369       3    2279    2287    2286    2288    2524    2525+
+           2526    2527    2528    2529
CTETRA       370       3     511    2288     533    2289    2530    2531+
+            942    2532    2533    2534
CTETRA       371       3     511    2278     512    2288    2535    2536+
+            877    2530    2537    2538
CTETRA       372       3     551    2288    2287    2289    2539    2528+
+           2540    2541    2533    2542
CTETRA       373       3     533    2288     551    2289    2531    2539+
+           1006    2534    2533    2541
CTETRA       374       3    2271    2272    2290    2291    2484    2543+
+           2544    2545    2546    2547
CTETRA       375       3    2271    2277    2279    2286    2497    2507+
+           2506    2548    2549    2526
CTETRA       376       3    2270    2273    2272    2276    2486    2488+
+           2485    2492    2496    2550
CTETRA       377       3    2271    2272    2291    2292    2484    2546+
+           2545    2551    2552    2553
CTETRA       378       3    2270    2292    2271    2293    2554    2551+
+           2483    2555    2556    2557
CTETRA       379       3    2271    2279    2273    2280    2506    2500+
+           2487    2558    2504    2503
CTETRA       380       3    1269    2278    2273    2281    2559    2502+
+           2560    2561    2562    2509
CTETRA       381       3    2273    2277    2276    2282    2499    2563+
+           2496    2510    2564    2511
CTETRA       382       3    2261    2265    2269    2294    2470    2481+
+           2480    2565    2566    2567
CTETRA       383       3    2259    2260    2261    2295    2459    2463+
+           2462    2568    2569    2570
CTETRA       384       3    2260    2268    2261    2295    2571    2477+
+           2463    2569    2572    2570
CTETRA       385       3    2266    2270    2267    2275    2573    2574+
+           2476    2575    2489    2576
CTETRA       386       3    2265    2266    2269    2296    2474    2482+
+           2481    2577    2578    2579
CTETRA       387       3    2265    2266    2297    2298    2474    2580+
+           2581    2582    2583    2584
CTETRA       388       3    2266    2299    2295    2300    2585    2586+
+           2587    2588    2589    2590
CTETRA       389       3     806    1449    1057    2301    1746    2591+
+           2592    2593    2594    2595
CTETRA       390       3     690    1062    1063    2302    1107    1106+
+           1108    2596    2597    2598
CTETRA       391       3    2272    2290    2291    2303    2543    2547+
+           2546    2599    2600    2601
CTETRA       392       3     559    2290    2303    2304    2602    2600+
+           2603    2604    2605    2606
CTETRA       393       3    2303    2306    2305    2307    2607    2608+
+           2609    2610    2611    2612
CTETRA       394       3    2303    2306    2307    2308    2607    2611+
+           2610    2613    2614    2615
CTETRA       395       3     559    2303     565    2304    2603    2616+
+           1042    2604    2606    2617
CTETRA       396       3     565    2304    2303    2307    2617    2606+
+           2616    2618    2619    2610
CTETRA       397       3    2309    2310    2311    2312    2620    2621+
+           2622    2623    2624    2625
CTETRA       398       3    2310    2312    2313    2314    2624    2626+
+           2627    2628    2629    2630
CTETRA       399       3      63    1535     212    1538    1813    2631+
+           1967    1812    1743    2632
CTETRA       400       3    1468    1471    2314    2315    1586    2633+
+           2634    2635    2636    2637
CTETRA       401       3    2311    2312    2314    2315    2625    2629+
+           2638    2639    2640    2637
CTETRA       402       3     188    2312    1466    2316    2641    2642+
+           2643    2644    2645    2646
CTETRA       403       3     223     255     224    2317    2097    2096+
+           2005    2647    2648    2649
CTETRA       404       3    1465    2312    2313    2316    2650    2626+
+           2651    2652    2645    2653
CTETRA       405       3    2294    2319    2318    2320    2654    2655+
+           2656    2657    2658    2659
CTETRA       406       3    2294    2320    2317    2321    2657    2660+
+           2661    2662    2663    2664
CTETRA       407       3    2294    2317    2322    2323    2661    2665+
+           2666    2667    2668    2669
CTETRA       408       3     492    1274     801    2324    2670    1401+
+           2671    2672    2673    2674
CTETRA       409       3     257    2320    2325    2326    2675    2676+
+           2677    2678    2679    2680
CTETRA       410       3    2294    2319    2320    2321    2654    2658+
+           2657    2662    2681    2663
CTETRA       411       3    1494    1498    1497    2327    1648    1647+
+           1646    2682    2683    2684
CTETRA       412       3    1495    1498    2327    2328    1649    2683+
+           2685    2686    2687    2688
CTETRA       413       3    1495    2329    2328    2330    2689    2690+
+           2686    2691    2692    2693
CTETRA       414       3    2299    2330    2331    2332    2694    2695+
+           2696    2697    2698    2699
CTETRA       415       3    2299    2330    2332    2333    2694    2698+
+           2697    2700    2701    2702
CTETRA       416       3    1494    2330    2327    2333    2703    2704+
+           2682    2705    2701    2706
CTETRA       417       3     537     538    2284    2334     955    2707+
+           2519    2708    2709    2710
CTETRA       418       3     537    2284    2285    2334    2519    2523+
+           2522    2708    2710    2711
CTETRA       419       3    2285    2334    2335    2336    2711    2712+
+           2713    2714    2715    2716
CTETRA       420       3     185    1457    1454    2337    2514    1554+
+           2513    2717    2718    2719
CTETRA       421       3     494    1236     495    2334    2720    2721+
+            826    2722    2723    2724
CTETRA       422       3     494    1234    1236    2334    2725    1276+
+           2720    2722    2726    2723
CTETRA       423       3     516     538    2334    2335     957    2709+
+           2727    2728    2729    2712
CTETRA       424       3    2334    2335    2336    2338    2712    2716+
+           2715    2730    2731    2732
CTETRA       425       3    1234    2338    2334    2339    2733    2730+
+           2726    2734    2735    2736
CTETRA       426       3    2258    2340    2321    2341    2737    2738+
+           2739    2740    2741    2742
CTETRA       427       3    1504    2342    2343    2344    2743    2744+
+           2745    2746    2747    2748
CTETRA       428       3    1463    2316    2313    2345    2749    2653+
+           2750    2751    2752    2753
CTETRA       429       3    1267    1269    2273    2274    1344    2560+
+           2754    2755    2756    2495
CTETRA       430       3    2317    2321    2326    2341    2664    2757+
+           2758    2759    2742    2760
CTETRA       431       3    2340    2341    2346    2347    2741    2761+
+           2762    2763    2764    2765
CTETRA       432       3    1483    1486    2346    2347    1621    2766+
+           2767    2768    2769    2765
CTETRA       433       3    2262    2264    2263    2348    2469    2468+
+           2465    2770    2771    2772
CTETRA       434       3    2262    2268    2349    2350    2773    2774+
+           2775    2776    2777    2778
CTETRA       435       3    2263    2352    2351    2353    2779    2780+
+           2781    2782    2783    2784
CTETRA       436       3    2263    2276    2352    2353    2785    2786+
+           2779    2782    2787    2783
CTETRA       437       3    2261    2263    2267    2268    2464    2788+
+           2475    2477    2789    2478
CTETRA       438       3    2263    2348    2351    2354    2772    2790+
+           2781    2791    2792    2793
CTETRA       439       3    2264    2323    2311    2355    2794    2795+
+           2796    2797    2798    2799
CTETRA       440       3    2260    2261    2268    2356    2463    2477+
+           2571    2800    2801    2802
CTETRA       441       3    2261    2268    2266    2295    2477    2479+
+           2473    2570    2572    2587
CTETRA       442       3    2264    2322    2348    2357    2803    2804+
+           2771    2805    2806    2807
CTETRA       443       3    2264    2323    2322    2357    2794    2669+
+           2803    2805    2808    2806
CTETRA       444       3    2261    2263    2264    2267    2464    2468+
+           2467    2475    2788    2809
CTETRA       445       3    2267    2348    2269    2351    2810    2811+
+           2812    2813    2790    2814
CTETRA       446       3    2264    2322    2269    2348    2803    2815+
+           2816    2771    2804    2811
CTETRA       447       3    2358    2359    2360    2361    2817    2818+
+           2819    2820    2821    2822
CTETRA       448       3    2359    2360    2361    2362    2818    2822+
+           2821    2823    2824    2825
CTETRA       449       3    2352    2364    2363    2365    2826    2827+
+           2828    2829    2830    2831
CTETRA       450       3    2360    2361    2366    2367    2822    2832+
+           2833    2834    2835    2836
CTETRA       451       3    2297    2359    2361    2368    2837    2821+
+           2838    2839    2840    2841
CTETRA       452       3    2265    2298    2361    2367    2582    2842+
+           2843    2844    2845    2835
CTETRA       453       3    2268    2270    2272    2276    2846    2485+
+           2847    2848    2492    2550
CTETRA       454       3    2276    2282    2277    2369    2511    2564+
+           2563    2849    2850    2851
CTETRA       455       3    2276    2282    2369    2370    2511    2850+
+           2849    2852    2853    2854
CTETRA       456       3    1514    2371    1517    2372    2855    2856+
+           1694    2857    2858    2859
CTETRA       457       3    2268    2277    2349    2350    2860    2861+
+           2774    2777    2862    2778
CTETRA       458       3    2276    2369    2352    2370    2849    2863+
+           2786    2852    2854    2864
CTETRA       459       3    2275    2373    2276    2374    2865    2866+
+           2493    2867    2868    2869
CTETRA       460       3    2305    2306    2375    2376    2608    2870+
+           2871    2872    2873    2874
CTETRA       461       3    2272    2303    2375    2377    2599    2875+
+           2876    2877    2878    2879
CTETRA       462       3    2306    2378    2308    2379    2880    2881+
+           2614    2882    2883    2884
CTETRA       463       3    2303    2305    2375    2377    2609    2871+
+           2875    2878    2885    2879
CTETRA       464       3    2351    2380    2365    2381    2886    2887+
+           2888    2889    2890    2891
CTETRA       465       3     644    1253     697    2379    1426    1427+
+            705    2892    2893    2894
CTETRA       466       3    2321    2332    2347    2382    2895    2896+
+           2897    2898    2899    2900
CTETRA       467       3     505    1258     506    2291    2901    2902+
+            859    2903    2904    2905
CTETRA       468       3    1485    2347    1489    2382    2906    2907+
+           1627    2908    2900    2909
CTETRA       469       3    1482    1483    1486    2346    1612    1621+
+           1620    2910    2767    2766
CTETRA       470       3    1500    1083    2327    2383    2911    2912+
+           2913    2914    2915    2916
CTETRA       471       3    1483    1487    2347    2384    1623    2917+
+           2768    2918    2919    2920
CTETRA       472       3    1482    1486    1485    2346    1620    1619+
+           1618    2910    2766    2921
CTETRA       473       3     524     562     563    2307     982     814+
+            981    2922    2923    2924
CTETRA       474       3    2260    2375    2306    2376    2925    2870+
+           2926    2927    2874    2873
CTETRA       475       3    2303    2305    2306    2375    2609    2608+
+           2607    2875    2871    2870
CTETRA       476       3    2291    2303    2308    2385    2601    2613+
+           2928    2929    2930    2931
CTETRA       477       3    2258    2264    2261    2356    2932    2467+
+           2461    2933    2934    2801
CTETRA       478       3    2260    2268    2295    2375    2571    2572+
+           2569    2925    2935    2936
CTETRA       479       3    2259    2295    2266    2299    2568    2587+
+           2472    2937    2586    2585
CTETRA       480       3    1248    1249    1251    2386    1302    1308+
+           1307    2938    2939    2940
CTETRA       481       3    2263    2264    2267    2348    2468    2809+
+           2788    2772    2771    2810
CTETRA       482       3    2295    2379    2308    2385    2941    2884+
+           2942    2943    2944    2931
CTETRA       483       3    2292    2300    2295    2385    2945    2590+
+           2946    2947    2948    2943
CTETRA       484       3    2276    2352    2353    2370    2786    2783+
+           2787    2852    2864    2949
CTETRA       485       3     802    2282    2336    2339    2950    2951+
+           2952    2953    2954    2955
CTETRA       486       3     689    2363     690    2387    2956    2957+
+            700    2958    2959    2960
CTETRA       487       3     557     563     561    2305    1025     813+
+           1021    2961    2962    2963
CTETRA       488       3    2281    2282    2388    2389    2512    2964+
+           2965    2966    2967    2968
CTETRA       489       3    2282    2370    2388    2389    2853    2969+
+           2964    2967    2970    2968
CTETRA       490       3     676    2282    2281    2389    2971    2512+
+           2972    2973    2967    2966
CTETRA       491       3     802    2282     643    2369    2950    2974+
+            805    2975    2850    2976
CTETRA       492       3     643    2369    2282    2370    2976    2850+
+           2974    2977    2854    2853
CTETRA       493       3    2263    2351    2267    2353    2781    2813+
+           2788    2782    2784    2978
CTETRA       494       3    2350    2363    2369    2387    2979    2980+
+           2981    2982    2959    2983
CTETRA       495       3    2263    2276    2268    2277    2785    2848+
+           2789    2984    2563    2860
CTETRA       496       3    2263    2352    2350    2354    2779    2985+
+           2986    2791    2987    2988
CTETRA       497       3    2263    2277    2268    2350    2984    2860+
+           2789    2986    2862    2777
CTETRA       498       3    2258    2261    2260    2356    2461    2463+
+           2460    2933    2801    2800
CTETRA       499       3    2268    2277    2272    2375    2860    2498+
+           2847    2935    2989    2876
CTETRA       500       3    2260    2356    2268    2375    2800    2802+
+           2571    2925    2990    2935
CTETRA       501       3    2276    2282    2370    2388    2511    2853+
+           2852    2991    2964    2969
CTETRA       502       3    2272    2276    2273    2277    2550    2496+
+           2488    2498    2563    2499
CTETRA       503       3    2271    2279    2280    2287    2506    2504+
+           2558    2992    2524    2993
CTETRA       504       3    2279    2280    2287    2289    2504    2993+
+           2524    2994    2995    2542
CTETRA       505       3    2278    2279    2288    2289    2501    2527+
+           2537    2996    2994    2533
CTETRA       506       3    2273    2279    2277    2282    2500    2507+
+           2499    2510    2997    2564
CTETRA       507       3    2349    2391    2390    2392    2998    2999+
+           3000    3001    3002    3003
CTETRA       508       3    2262    2350    2349    2387    2776    2778+
+           2775    3004    2982    3005
CTETRA       509       3    2284    2377    2349    2392    3006    3007+
+           3008    3009    3010    3001
CTETRA       510       3    2349    2377    2375    2393    3007    2879+
+           3011    3012    3013    3014
CTETRA       511       3    2262    2349    2375    2391    2775    3011+
+           3015    3016    2998    3017
CTETRA       512       3    2272    2375    2277    2377    2876    2989+
+           2498    2877    2879    3018
CTETRA       513       3     531    2280    2287    2394    3019    2993+
+           3020    3021    3022    3023
CTETRA       514       3    1267    2293    2280    2394    3024    3025+
+           3026    3027    3028    3022
CTETRA       515       3     510    1266    1268    2289    3029    1341+
+           3030    3031    3032    3033
CTETRA       516       3    2271    2280    2293    2394    2558    3025+
+           2557    3034    3022    3028
CTETRA       517       3     509    1266     510    2289    3035    3029+
+            871    3036    3032    3031
CTETRA       518       3    2317    2323    2341    2395    2668    3037+
+           2759    3038    3039    3040
CTETRA       519       3    2323    2395    2396    2397    3039    3041+
+           3042    3043    3044    3045
CTETRA       520       3    2315    2323    2397    2398    3046    3043+
+           3047    3048    3049    3050
CTETRA       521       3    2323    2398    2399    2400    3049    3051+
+           3052    3053    3054    3055
CTETRA       522       3    1474    2397    1477    2398    3056    3057+
+           1600    3058    3050    3059
CTETRA       523       3    1475    2395    2397    2401    3060    3044+
+           3061    3062    3063    3064
CTETRA       524       3     249    2402     277    2403    3065    3066+
+           2240    3067    3068    3069
CTETRA       525       3    1485    2340    1067    2346    3070    3071+
+           3072    2921    2762    3073
CTETRA       526       3    1477    2395    1480    2400    3074    3075+
+           1607    3076    3077    3078
CTETRA       527       3    2275    2404    2297    2405    3079    3080+
+           3081    3082    3083    3084
CTETRA       528       3    2275    2406    2373    2407    3085    3086+
+           2865    3087    3088    3089
CTETRA       529       3    2273    2281    2279    2282    2509    3090+
+           2500    2510    2512    2997
CTETRA       530       3    2275    2297    2298    2405    3081    2584+
+           3091    3082    3084    3092
CTETRA       531       3    1270    1273    1272    2278    1351    1350+
+           1349    3093    3094    3095
CTETRA       532       3     671    2275    2408    2409    3096    3097+
+           3098    3099    3100    3101
CTETRA       533       3    2297    2405    2404    2410    3084    3083+
+           3080    3102    3103    3104
CTETRA       534       3    2374    2411    2404    2412    3105    3106+
+           3107    3108    3109    3110
CTETRA       535       3    2413    2414    2415    2416    3111    3112+
+           3113    3114    3115    3116
CTETRA       536       3     675    1076     676    2389    1168    1167+
+            678    3117    3118    2973
CTETRA       537       3     287    2410    2411    2417    3119    3120+
+           3121    3122    3123    3124
CTETRA       538       3    2275    2296    2297    2404    3125    3126+
+           3081    3079    3127    3080
CTETRA       539       3    2296    2404    2374    2411    3127    3107+
+           3128    3129    3106    3105
CTETRA       540       3    2266    2295    2270    2300    2587    3130+
+           2573    2588    2590    3131
CTETRA       541       3     695    2258    2260    2356    3132    2460+
+           3133    3134    2933    2800
CTETRA       542       3     453     511     510    1268     875     874+
+            873    1392    3135    3030
CTETRA       543       3     696    2258    2259    2260    3136    2458+
+           3137    3138    2460    2459
CTETRA       544       3    2295    2300    2299    2379    2590    2589+
+           2586    2941    3139    3140
CTETRA       545       3     697    2260    2259    2379    3141    2459+
+           3142    2894    3143    3144
CTETRA       546       3    2262    2268    2356    2375    2773    2802+
+           3145    3015    2935    2990
CTETRA       547       3    2260    2306    2295    2379    2926    3146+
+           2569    3143    2882    2941
CTETRA       548       3    2412    2415    2416    2418    3147    3116+
+           3148    3149    3150    3151
CTETRA       549       3    1519    2416    2419    2420    3152    3153+
+           3154    3155    3156    3157
CTETRA       550       3     689     690    1237    2387     700    1442+
+           1443    2958    2960    3158
CTETRA       551       3    1519    1520    1523    2420    1699    1708+
+           1707    3155    3159    3160
CTETRA       552       3    2412    2416    2414    2421    3148    3115+
+           3161    3162    3163    3164
CTETRA       553       3     206    2416    1523    2420    3165    3166+
+           3167    3168    3156    3160
CTETRA       554       3    2407    2416    2412    2417    3169    3148+
+           3170    3171    3172    3173
CTETRA       555       3     207    2413    1523    2416    3174    3175+
+           3176    3177    3114    3166
CTETRA       556       3     237    2417    2416    2420    3178    3172+
+           3179    3180    3181    3156
CTETRA       557       3     238    2413    2416    2421    3182    3114+
+           3183    3184    3185    3163
CTETRA       558       3    2330    2332    2422    2423    2698    3186+
+           3187    3188    3189    3190
CTETRA       559       3    2328    2360    2330    2424    3191    3192+
+           2693    3193    3194    3195
CTETRA       560       3    2328    2330    2329    2424    2693    2692+
+           2690    3193    3195    3196
CTETRA       561       3    2299    2331    2330    2367    2696    2695+
+           2694    3197    3198    3199
CTETRA       562       3     559     565    2303    2377    1042    2616+
+           2603    3200    3201    2878
CTETRA       563       3    2319    2331    2330    2332    3202    2695+
+           3203    3204    2699    2698
CTETRA       564       3     198     199    1499    2328    1930    3205+
+           3206    3207    3208    3209
CTETRA       565       3    2318    2319    2331    2358    2655    3202+
+           3210    3211    3212    3213
CTETRA       566       3    2331    2360    2358    2424    3214    2819+
+           3213    3215    3194    3216
CTETRA       567       3    2265    2360    2331    2367    3217    3214+
+           3218    2844    2834    3198
CTETRA       568       3    2309    2310    2313    2402    2620    2627+
+           3219    3220    3221    3222
CTETRA       569       3    2310    2425    2314    2426    3223    3224+
+           2628    3225    3226    3227
CTETRA       570       3     464     500    1246    1248     842    3228+
+           1370    1373    3229    1301
CTETRA       571       3    2310    2311    2348    2403    2621    3230+
+           3231    3232    3233    3234
CTETRA       572       3    2309    2310    2312    2313    2620    2624+
+           2623    3219    2627    2626
CTETRA       573       3     290    2427    2428    2429    3235    3236+
+           3237    3238    3239    3240
CTETRA       574       3     290     298    2427    2429    2189    3241+
+           3235    3238    3242    3239
CTETRA       575       3     272     273    2428    2429    2151    3243+
+           3244    3245    3246    3240
CTETRA       576       3     271    2429     272    2430    3247    3245+
+           2148    3248    3249    3250
CTETRA       577       3     674    1269    2274    2281    1410    2756+
+           3251    3252    2561    2518
CTETRA       578       3     258     282     259    2319    2208    2209+
+           2110    3253    3254    3255
CTETRA       579       3    2427    2428    2429    2431    3236    3240+
+           3239    3256    3257    3258
CTETRA       580       3     206     237     207    2416    2042    2046+
+           1954    3165    3179    3177
CTETRA       581       3    2353    2428    2427    2431    3259    3236+
+           3260    3261    3257    3256
CTETRA       582       3     271    2421    2429    2430    3262    3263+
+           3247    3248    3264    3249
CTETRA       583       3     270     288     289    2421    2255    2199+
+           2256    3265    3266    3267
CTETRA       584       3     546    2283     548    2290    2517    3268+
+           1039    3269    3270    3271
CTETRA       585       3    2351    2353    2365    2380    2784    3272+
+           2888    2886    3273    2887
CTETRA       586       3    2267    2353    2351    2427    2978    2784+
+           2813    3274    3260    3275
CTETRA       587       3    2353    2365    2432    2433    3272    3276+
+           3277    3278    3279    3280
CTETRA       588       3     689    2352    2369    2434    3281    2863+
+           3282    3283    3284    3285
CTETRA       589       3     460     503     461    1254     852     851+
+            655    1378    3286    1379
CTETRA       590       3    2414    2431    2435    2436    3287    3288+
+           3289    3290    3291    3292
CTETRA       591       3     735    1062    1458    1063    1100    3293+
+           1751    1104    1106    3294
CTETRA       592       3    1256    1257    1259    2308    1318    1324+
+           1323    3295    3296    3297
CTETRA       593       3    2414    2429    2430    2431    3298    3249+
+           3299    3287    3258    3300
CTETRA       594       3    2353    2389    2370    2433    3301    2970+
+           2949    3278    3302    3303
CTETRA       595       3    2389    2433    2431    2437    3302    3304+
+           3305    3306    3307    3308
CTETRA       596       3    2352    2364    2365    2434    2826    2830+
+           2829    3284    3309    3310
CTETRA       597       3    2352    2363    2354    2365    2828    3311+
+           2987    2829    2831    3312
CTETRA       598       3    2354    2365    2363    2381    3312    2831+
+           3311    3313    2891    3314
CTETRA       599       3    1267    2273    2280    2293    2754    2503+
+           3026    3024    3315    3025
CTETRA       600       3    2353    2388    2389    2431    3316    2968+
+           3301    3261    3317    3305
CTETRA       601       3    2353    2365    2380    2432    3272    2887+
+           3273    3277    3276    3318
CTETRA       602       3    2351    2353    2352    2365    2784    2783+
+           2780    2888    3272    2829
CTETRA       603       3    2353    2427    2374    2431    3260    3319+
+           3320    3261    3256    3321
CTETRA       604       3    2353    2370    2365    2433    2949    3322+
+           3272    3278    3303    3279
CTETRA       605       3    2354    2381    2403    2438    3313    3323+
+           3324    3325    3326    3327
CTETRA       606       3    2301    2365    2337    2439    3328    3329+
+           3330    3331    3332    3333
CTETRA       607       3    2365    2439    2381    2440    3332    3334+
+           2891    3335    3336    3337
CTETRA       608       3    2301    2365    2364    2434    3328    2830+
+           3338    3339    3310    3309
CTETRA       609       3    2276    2370    2353    2388    2852    2949+
+           2787    2991    2969    3316
CTETRA       610       3    2373    2415    2412    2418    3340    3147+
+           3341    3342    3150    3149
CTETRA       611       3    2374    2427    2411    2429    3319    3343+
+           3105    3344    3239    3345
CTETRA       612       3     288    2421    2411    2429    3266    3346+
+           3347    3348    3263    3345
CTETRA       613       3    2374    2404    2407    2412    3107    3349+
+           3350    3108    3110    3170
CTETRA       614       3    2412    2415    2414    2416    3147    3112+
+           3161    3148    3116    3115
CTETRA       615       3    2413    2414    2416    2421    3111    3115+
+           3114    3185    3164    3163
CTETRA       616       3    1510    2344    2372    2441    3351    3352+
+           3353    3354    3355    3356
CTETRA       617       3    2372    2407    2405    2420    3357    3358+
+           3359    3360    3361    3362
CTETRA       618       3    2371    2372    2405    2420    2858    3359+
+           3363    3364    3360    3362
CTETRA       619       3    2344    2368    2372    2441    3365    3366+
+           3352    3355    3367    3356
CTETRA       620       3    1516    2419    2372    2420    3368    3369+
+           3370    3371    3157    3360
CTETRA       621       3     205    1517    1514    2371    3372    1694+
+           3373    3374    2856    2855
CTETRA       622       3    2372    2405    2407    2409    3359    3358+
+           3357    3375    3376    3377
CTETRA       623       3    2368    2405    2372    2409    3378    3359+
+           3366    3379    3376    3375
CTETRA       624       3    2368    2371    2372    2405    3380    2858+
+           3366    3378    3363    3359
CTETRA       625       3    1512    2409    2372    2419    3381    3375+
+           3382    3383    3384    3369
CTETRA       626       3    2261    2266    2267    2269    2473    2476+
+           2475    2480    2482    2812
CTETRA       627       3    2263    2267    2268    2276    2788    2478+
+           2789    2785    3385    2848
CTETRA       628       3    2269    2351    2322    2442    2814    3386+
+           2815    3387    3388    3389
CTETRA       629       3    2264    2269    2267    2348    2816    2812+
+           2809    2771    2811    2810
CTETRA       630       3    2261    2267    2264    2269    2475    2809+
+           2467    2480    2812    2816
CTETRA       631       3    2265    2296    2269    2358    2577    2579+
+           2481    3390    3391    3392
CTETRA       632       3    2269    2358    2296    2442    3392    3391+
+           2579    3387    3393    3394
CTETRA       633       3    2301    2443    2433    2444    3395    3396+
+           3397    3398    3399    3400
CTETRA       634       3    2428    2437    2433    2445    3401    3307+
+           3402    3403    3404    3405
CTETRA       635       3    2389    2433    2437    2444    3302    3307+
+           3306    3406    3400    3407
CTETRA       636       3    2433    2443    2437    2444    3396    3408+
+           3307    3400    3399    3407
CTETRA       637       3    1251    2379    1253    2386    3409    2893+
+           1312    2940    3410    3411
CTETRA       638       3     667    2300    1257    2379    3412    3413+
+           1423    3414    3139    3415
CTETRA       639       3     667    2299    2300    2379    3416    2589+
+           3412    3414    3140    3139
CTETRA       640       3    1253    1255    2378    2379    1316    3417+
+           3418    2893    3419    2883
CTETRA       641       3    2259    2295    2299    2379    2568    2586+
+           2937    3144    2941    3140
CTETRA       642       3     719     720    1506    1087     769    1784+
+           1783    1232    1233    3420
CTETRA       643       3      41     190    2401    2446    1901    3421+
+           3422    3423    3424    3425
CTETRA       644       3    2319    2321    2332    2447    2681    2895+
+           3204    3426    3427    3428
CTETRA       645       3    2321    2341    2340    2347    2742    2741+
+           2738    2897    2764    2763
CTETRA       646       3    2294    2319    2321    2332    2654    2681+
+           2662    3429    3204    2895
CTETRA       647       3    2259    2294    2321    2332    3430    2662+
+           3431    3432    3429    2895
CTETRA       648       3    2258    2321    2294    2323    2739    2662+
+           3433    3434    3435    2667
CTETRA       649       3    2258    2321    2323    2341    2739    3435+
+           3434    2740    2742    3037
CTETRA       650       3    2317    2323    2321    2341    2668    3435+
+           2664    2759    3037    2742
CTETRA       651       3    2264    2294    2322    2323    3436    2666+
+           2803    2794    2667    2669
CTETRA       652       3    2294    2317    2320    2322    2661    2660+
+           2657    2666    2665    3437
CTETRA       653       3    2264    2311    2323    2357    2796    2795+
+           2794    2805    3438    2808
CTETRA       654       3    1504    2343    1505    2344    2745    3439+
+           1664    2746    2748    3440
CTETRA       655       3    2343    2366    2344    2367    3441    3442+
+           2748    3443    2836    3444
CTETRA       656       3    1510    2344    1511    2371    3351    3445+
+           1678    3446    3447    3448
CTETRA       657       3     201     202    1505    2344    1939    3449+
+           3450    3451    3452    3440
CTETRA       658       3    1510    2344    2371    2372    3351    3447+
+           3446    3353    3352    2858
CTETRA       659       3     203    2344    2362    2371    3453    3454+
+           3455    3456    3447    3457
CTETRA       660       3     203    1511    2344    2371    3458    3445+
+           3453    3456    3448    3447
CTETRA       661       3    2327    2330    2328    2367    2704    2693+
+           2688    3459    3199    3460
CTETRA       662       3     200    1502    2328    2366    3461    3462+
+           3463    3464    3465    3466
CTETRA       663       3      35     184      36    1454    1883    1887+
+            798    1868    3467    1867
CTETRA       664       3    2327    2328    2366    2367    2688    3466+
+           3468    3459    3460    2836
CTETRA       665       3      50    1496     198    1499    1839    3469+
+           1929    1838    1652    3206
CTETRA       666       3    2302    2313    2310    2439    3470    2627+
+           3471    3472    3473    3474
CTETRA       667       3    2381    2439    2402    2440    3334    3475+
+           3476    3337    3336    3477
CTETRA       668       3    1453    2337    1457    2439    3478    2718+
+           1553    3479    3333    3480
CTETRA       669       3    1452    2301    1453    2439    3481    3482+
+           1540    3483    3331    3479
CTETRA       670       3    1453    1454    1457    2337    1544    1554+
+           1553    3478    2719    2718
CTETRA       671       3    1452    2364    2301    2439    3484    3338+
+           3481    3483    3485    3331
CTETRA       672       3    1452    1455    2364    2439    1548    3486+
+           3484    3483    3487    3485
CTETRA       673       3    1459    2345    2313    2439    3488    2753+
+           3489    3490    3491    3473
CTETRA       674       3    1457    2337    2345    2439    2718    3492+
+           3493    3480    3333    3491
CTETRA       675       3     721    1500    1503    1082    1779    1660+
+           1782    1208    3494    3495
CTETRA       676       3    2294    2331    2319    2332    3496    3202+
+           2654    3429    2699    3204
CTETRA       677       3    2319    2320    2321    2325    2658    2663+
+           2681    3497    2676    3498
CTETRA       678       3    2320    2321    2325    2326    2663    3498+
+           2676    2679    2757    2680
CTETRA       679       3    1489    2382    2347    2423    2909    2900+
+           2907    3499    3500    3501
CTETRA       680       3    2269    2348    2322    2351    2811    2804+
+           2815    2814    2790    3386
CTETRA       681       3    2266    2267    2269    2296    2476    2812+
+           2482    2578    3502    2579
CTETRA       682       3    2258    2261    2264    2294    2461    2467+
+           2932    3433    2565    3436
CTETRA       683       3    2259    2261    2266    2295    2462    2473+
+           2472    2568    2570    2587
CTETRA       684       3    2261    2264    2262    2356    2467    2469+
+           2466    2801    2934    3145
CTETRA       685       3     697    2333    2259    2382    3503    3504+
+           3142    3505    3506    3507
CTETRA       686       3    1488    1068    2382    2422    3508    3509+
+           3510    3511    3512    3513
CTETRA       687       3    1456    1457    2345    2439    1552    3493+
+           3514    3515    3480    3491
CTETRA       688       3    1485    1066    2340    2382    3516    3517+
+           3070    2908    3518    3519
CTETRA       689       3     696    2259    2340    2382    3137    3520+
+           3521    3522    3507    3519
CTETRA       690       3     696    2340    1066    2382    3521    3517+
+           1118    3522    3519    3518
CTETRA       691       3     697    1066    1068    2382    1119    1136+
+           1130    3505    3518    3509
CTETRA       692       3     251    2357    2309    2403    3523    3524+
+           3525    3526    3527    3528
CTETRA       693       3     280    2322    2317    2357    3529    2665+
+           3530    3531    2806    3532
CTETRA       694       3     252    2357    2396    2448    3533    3534+
+           3535    3536    3537    3538
CTETRA       695       3     253    2357     280    2396    3539    3531+
+           2216    3540    3534    3541
CTETRA       696       3     278     293     279    2322    2233    2211+
+           2234    3542    3543    3544
CTETRA       697       3     278    2322     279    2357    3542    3544+
+           2234    3545    2806    3546
CTETRA       698       3     676    1275    1273    2281    1405    1356+
+           1406    2972    3547    3548
CTETRA       699       3    2322    2348    2357    2438    2804    2807+
+           2806    3549    3550    3551
CTETRA       700       3    2311    2323    2357    2396    2795    2808+
+           3438    3552    3042    3534
CTETRA       701       3    2264    2355    2311    2425    2797    2799+
+           2796    3553    3554    3555
CTETRA       702       3    2348    2403    2357    2438    3234    3527+
+           2807    3550    3327    3551
CTETRA       703       3    2311    2312    2315    2448    2625    2640+
+           2639    3556    3557    3558
CTETRA       704       3     722    1497    1500    1083    1777    1653+
+           1780    1211    3559    2911
CTETRA       705       3    2312    2446    2315    2448    3560    3561+
+           2640    3557    3562    3558
CTETRA       706       3    2277    2279    2285    2336    2507    3563+
+           3564    3565    3566    2714
CTETRA       707       3     552     553    2285    2288    1010    3567+
+           3568    3569    3570    3571
CTETRA       708       3    1271    1273    2278    2281    1352    3094+
+           3572    3573    3548    2562
CTETRA       709       3    1269    2273    2278    2280    2560    2502+
+           2559    3574    2503    2505
CTETRA       710       3    2274    2281    2276    2373    2518    2508+
+           2494    3575    3576    2866
CTETRA       711       3    2279    2336    2282    2339    3566    2951+
+           2997    3577    2955    2954
CTETRA       712       3     673     674    2274    2373     681    3251+
+           3578    3579    3580    3575
CTETRA       713       3    2372    2419    2407    2420    3369    3581+
+           3357    3360    3157    3361
CTETRA       714       3    2275    2407    2405    2409    3087    3358+
+           3082    3100    3377    3376
CTETRA       715       3    2275    2404    2405    2407    3079    3083+
+           3082    3087    3349    3358
CTETRA       716       3    2298    2405    2368    2408    3092    3378+
+           3582    3583    3584    3585
CTETRA       717       3    1467    1070    1059    2314    3586    1144+
+           3587    3588    3589    3590
CTETRA       718       3    1467    1470    1070    2314    1583    3591+
+           3586    3588    3592    3589
CTETRA       719       3     692    2314    2355    2425    3593    3594+
+           3595    3596    3224    3554
CTETRA       720       3    1461    2302    1464    2426    3597    3598+
+           1569    3599    3600    3601
CTETRA       721       3    1464    1059    1064    2426    3602    1112+
+           3603    3601    3604    3605
CTETRA       722       3    1461    1464    1064    2426    1569    3603+
+           3606    3599    3601    3605
CTETRA       723       3    1465    2312    1468    2314    2650    3607+
+           1579    3608    2629    2634
CTETRA       724       3    2314    2355    2315    2398    3594    3609+
+           2637    3610    3611    3048
CTETRA       725       3    1467    1471    1470    2314    1585    1584+
+           1583    3588    2633    3592
CTETRA       726       3    2310    2311    2312    2314    2621    2625+
+           2624    2628    2638    2629
CTETRA       727       3     263    2359     264    2362    3612    3613+
+           2125    3614    2823    3615
CTETRA       728       3    2297    2359    2368    2405    2837    2840+
+           2839    3084    3616    3378
CTETRA       729       3     262    2359     263    2360    3617    3612+
+           2122    3618    2818    3619
CTETRA       730       3     262     284    2359    2360    2172    3620+
+           3617    3618    3621    2818
CTETRA       731       3    2344    2362    2361    2366    3454    2825+
+           3622    3442    3623    2832
CTETRA       732       3    2265    2297    2358    2361    2581    3624+
+           3390    2843    2838    2820
CTETRA       733       3    2297    2359    2358    2361    2837    2817+
+           3624    2838    2821    2820
CTETRA       734       3     286    2359     296    2410    3625    3626+
+           2167    3627    3628    3629
CTETRA       735       3     284    2358     296    2359    3630    3631+
+           2171    3620    2817    3626
CTETRA       736       3     263    2360    2359    2362    3619    2818+
+           3612    3614    2824    2823
CTETRA       737       3     223    2317     224    2395    2647    2649+
+           2005    3632    3038    3633
CTETRA       738       3     721     722    1500    1083     765    1780+
+           1779    1210    1211    2911
CTETRA       739       3    2344    2368    2371    2372    3365    3380+
+           3447    3352    3366    2858
CTETRA       740       3    2297    2368    2298    2405    2839    3582+
+           2584    3084    3378    3092
CTETRA       741       3    2298    2367    2342    2368    2845    3634+
+           3635    3582    3636    3637
CTETRA       742       3    2344    2361    2362    2368    3622    2825+
+           3454    3365    2841    3638
CTETRA       743       3     807    2437     808    2443    3639    3640+
+            811    3641    3408    3642
CTETRA       744       3     806    2301    1057    2444    2593    2595+
+           2592    3643    3398    3644
CTETRA       745       3     806    1057    1075    2444    2592    1161+
+           3645    3643    3644    3646
CTETRA       746       3      39     189      40    1466    1899    1898+
+            794    1860    3647    1859
CTETRA       747       3    1075    2389    1077    2444    3648    3649+
+           1169    3646    3406    3650
CTETRA       748       3    1536    1075    1077    2444    3651    1169+
+           3652    3653    3646    3650
CTETRA       749       3    1533    1534    1537    2437    1731    1740+
+           1739    3654    3655    3656
CTETRA       750       3    1533    2437    1537    2444    3654    3656+
+           1739    3657    3407    3658
CTETRA       751       3    1533    2389    2437    2444    3659    3306+
+           3654    3657    3406    3407
CTETRA       752       3     667    1084    2327    2333    1212    3660+
+           3661    3662    3663    2706
CTETRA       753       3    1494    2330    2333    2422    2703    2701+
+           2705    3664    3187    3665
CTETRA       754       3    2299    2367    2327    2383    3197    3459+
+           3666    3667    3668    2916
CTETRA       755       3    1500    2343    1082    2383    3669    3670+
+           3494    2914    3671    3672
CTETRA       756       3    1500    2327    1501    2343    2913    3673+
+           1654    3669    3674    3675
CTETRA       757       3     517    2335    2390    2392    3676    3677+
+           3678    3679    3680    3003
CTETRA       758       3     191     222    2395    2401    1997    3681+
+           3682    3683    3684    3063
CTETRA       759       3     556    2377    2284    2392    3685    3006+
+           3686    3687    3010    3009
CTETRA       760       3     539    2284    2335    2392    3688    3689+
+           3690    3691    3009    3680
CTETRA       761       3     541    2393    2392    2449    3692    3693+
+           3694    3695    3696    3697
CTETRA       762       3    2349    2391    2392    2393    2998    3002+
+           3001    3012    3698    3693
CTETRA       763       3    2335    2349    2390    2392    3699    3000+
+           3677    3680    3001    3003
CTETRA       764       3    1509    2372    1512    2409    3700    3382+
+           1681    3701    3375    3381
CTETRA       765       3    1518    2418    1081    2419    3702    3703+
+           3704    3705    3706    3707
CTETRA       766       3    2405    2420    2407    2450    3362    3361+
+           3358    3708    3709    3710
CTETRA       767       3    1518    1519    2418    2419    1696    3711+
+           3702    3705    3154    3706
CTETRA       768       3    1519    2416    2418    2419    3152    3151+
+           3711    3154    3153    3706
CTETRA       769       3    2407    2419    2416    2420    3581    3153+
+           3169    3361    3157    3156
CTETRA       770       3    2262    2348    2354    2425    2770    2792+
+           3712    3713    3714    3715
CTETRA       771       3    2311    2315    2314    2355    2639    2637+
+           2638    2799    3609    3594
CTETRA       772       3    2294    2321    2317    2323    2662    2664+
+           2661    2667    3435    2668
CTETRA       773       3    2264    2311    2348    2425    2796    3230+
+           2771    3553    3555    3714
CTETRA       774       3    2262    2264    2348    2425    2469    2771+
+           2770    3713    3553    3714
CTETRA       775       3    2258    2294    2264    2323    3433    3436+
+           2932    3434    2667    2794
CTETRA       776       3    2317    2357    2323    2396    3532    2808+
+           2668    3716    3534    3042
CTETRA       777       3    2258    2323    2264    2399    3434    2794+
+           2932    3717    3052    3718
CTETRA       778       3     526     527     564    2304     922     987+
+            986    3719    3720    3721
CTETRA       779       3    2310    2402    2381    2439    3221    3476+
+           3722    3474    3475    3334
CTETRA       780       3    2260    2295    2306    2375    2569    3146+
+           2926    2925    2936    2870
CTETRA       781       3    2381    2402    2403    2440    3476    3068+
+           3323    3337    3477    3723
CTETRA       782       3    2310    2354    2381    2403    3724    3313+
+           3722    3232    3324    3323
CTETRA       783       3    2351    2381    2354    2438    2889    3313+
+           2793    3725    3326    3325
CTETRA       784       3     222     253     254    2396    2090    2095+
+           2094    3726    3540    3727
CTETRA       785       3    2352    2365    2353    2370    2829    3272+
+           2783    2864    3322    2949
CTETRA       786       3    2267    2374    2353    2427    3728    3320+
+           2978    3274    3319    3260
CTETRA       787       3    2353    2428    2431    2433    3259    3257+
+           3261    3278    3402    3304
CTETRA       788       3     190     221     191    2401    1994    1998+
+           1906    3421    3729    3683
CTETRA       789       3    2296    2427    2351    2442    3730    3275+
+           3731    3394    3732    3388
CTETRA       790       3     723    1494    1497    1084    1775    1646+
+           1778    1217    3733    3734
CTETRA       791       3    2269    2296    2351    2442    2579    3731+
+           2814    3387    3394    3388
CTETRA       792       3     729    1476    1069    1071    1763    3735+
+           1149    1152    3736    1150
CTETRA       793       3    2302    2363    2310    2426    3737    3738+
+           3471    3600    3739    3225
CTETRA       794       3    2351    2380    2381    2438    2886    2890+
+           2889    3725    3740    3326
CTETRA       795       3    2380    2381    2438    2440    2890    3326+
+           3740    3741    3337    3742
CTETRA       796       3    2352    2370    2369    2434    2864    2854+
+           2863    3284    3743    3285
CTETRA       797       3    2263    2351    2352    2354    2781    2780+
+           2779    2791    2793    2987
CTETRA       798       3      42     190     191    2401    1905    1906+
+           1904    3744    3421    3683
CTETRA       799       3    2353    2432    2428    2433    3277    3745+
+           3259    3278    3280    3402
CTETRA       800       3    2276    2353    2374    2388    2787    3320+
+           2869    2991    3316    3746
CTETRA       801       3     199     200    1502    2328    1933    3461+
+           3747    3208    3463    3462
CTETRA       802       3    2267    2296    2374    2427    3502    3128+
+           3728    3274    3730    3319
CTETRA       803       3    2388    2431    2412    2451    3317    3748+
+           3749    3750    3751    3752
CTETRA       804       3     192     193    1481    2395    1912    3753+
+           3754    3755    3756    3757
CTETRA       805       3    2414    2429    2421    2430    3298    3263+
+           3164    3299    3249    3264
CTETRA       806       3    2259    2299    2265    2331    2937    3758+
+           2471    3759    2696    3218
CTETRA       807       3    2265    2318    2294    2331    3760    2656+
+           2566    3218    3210    3496
CTETRA       808       3    1489    2422    2382    2423    3761    3513+
+           2909    3499    3190    3500
CTETRA       809       3    2259    2265    2294    2331    2471    2566+
+           3430    3759    3218    3496
CTETRA       810       3     280     294    2320    2322    2214    3762+
+           3763    3529    3764    3437
CTETRA       811       3     295    2322     299    2442    3765    3766+
+           2161    3767    3389    3768
CTETRA       812       3    1530    1531    1534    2436    1724    1733+
+           1732    3769    3770    3771
CTETRA       813       3     808    2437    1538    2445    3640    3772+
+           1810    3773    3404    3774
CTETRA       814       3     291    2438    2380    2442    3775    3740+
+           3776    3777    3778    3779
CTETRA       815       3    2414    2431    2436    2451    3287    3291+
+           3290    3780    3751    3781
CTETRA       816       3    2388    2436    2431    2451    3782    3291+
+           3317    3750    3781    3751
CTETRA       817       3    1535    2437    2435    2445    3783    3784+
+           3785    3786    3404    3787
CTETRA       818       3    2414    2431    2430    2435    3287    3300+
+           3299    3289    3288    3788
CTETRA       819       3    1533    2389    2436    2437    3659    3789+
+           3790    3654    3306    3791
CTETRA       820       3     526    2304    2307    2308    3719    2619+
+           3792    3793    3794    2615
CTETRA       821       3    1534    2436    2435    2437    3771    3292+
+           3795    3655    3791    3784
CTETRA       822       3    2414    2436    2435    2452    3290    3292+
+           3289    3796    3797    3798
CTETRA       823       3     533     534     551    2288     943    1008+
+           1006    2531    3799    2539
CTETRA       824       3    2353    2380    2428    2432    3273    3800+
+           3259    3277    3318    3745
CTETRA       825       3    1477    1481    1480    2395    1609    1608+
+           1607    3074    3757    3075
CTETRA       826       3    2265    2299    2298    2367    3758    3801+
+           2582    2844    3197    2845
CTETRA       827       3    2297    2361    2298    2368    2838    2842+
+           2584    2839    2841    3582
CTETRA       828       3    2270    2292    2298    2300    2554    3802+
+           3803    3131    2945    3804
CTETRA       829       3    2296    2358    2297    2410    3391    3624+
+           3126    3805    3806    3102
CTETRA       830       3    2342    2408    2368    2441    3807    3585+
+           3637    3808    3809    3367
CTETRA       831       3    2267    2351    2296    2427    2813    3731+
+           3502    3274    3275    3730
CTETRA       832       3     710     711    1533    1076     759    1802+
+           1801    1174    1184    3810
CTETRA       833       3    2412    2417    2416    2421    3173    3172+
+           3148    3162    3811    3163
CTETRA       834       3    2276    2373    2281    2388    2866    3576+
+           2508    2991    3812    2965
CTETRA       835       3    2296    2410    2404    2411    3805    3104+
+           3127    3129    3120    3106
CTETRA       836       3    2270    2275    2298    2408    2489    3091+
+           3803    3813    3097    3583
CTETRA       837       3    2265    2297    2296    2358    2581    3126+
+           2577    3390    3624    3391
CTETRA       838       3    2275    2374    2296    2404    2867    3128+
+           3125    3079    3107    3127
CTETRA       839       3    2368    2408    2405    2409    3585    3584+
+           3378    3379    3101    3376
CTETRA       840       3    1509    2372    2409    2441    3700    3375+
+           3701    3814    3356    3815
CTETRA       841       3    1510    1514    1513    2372    1686    1685+
+           1684    3353    2857    3816
CTETRA       842       3    2368    2408    2409    2441    3585    3101+
+           3379    3367    3809    3815
CTETRA       843       3     270     289     271    2421    2256    2257+
+           2145    3265    3267    3262
CTETRA       844       3     670    2409    2408    2441    3817    3101+
+           3818    3819    3815    3809
CTETRA       845       3    1503    1507    1506    2342    1669    1668+
+           1667    3820    3821    3822
CTETRA       846       3    1503    1506    1087    2342    1667    3420+
+           3823    3820    3822    3824
CTETRA       847       3    1507    2342    2344    2441    3821    2747+
+           3825    3826    3808    3355
CTETRA       848       3     675    1078    2436    2451    1180    3827+
+           3828    3829    3830    3781
CTETRA       849       3     670    1085    1086    2441    1222    1221+
+           1220    3819    3831    3832
CTETRA       850       3     669    2342    1087    2441    3833    3824+
+           1230    3834    3808    3835
CTETRA       851       3    2269    2294    2318    2322    2567    2656+
+           3836    2815    2666    3837
CTETRA       852       3    2266    2270    2298    2300    2573    3803+
+           2583    2588    3131    3804
CTETRA       853       3    2297    2359    2405    2410    2837    3616+
+           3084    3102    3628    3103
CTETRA       854       3    2298    2342    2367    2383    3635    3634+
+           2845    3838    3839    3668
CTETRA       855       3    2266    2270    2275    2298    2573    2489+
+           2575    2583    3803    3091
CTETRA       856       3    2259    2299    2331    2332    2937    2696+
+           3759    3432    2697    2699
CTETRA       857       3    2298    2367    2299    2383    2845    3197+
+           3801    3838    3668    3667
CTETRA       858       3    2265    2358    2360    2361    3390    2819+
+           3217    2843    2820    2822
CTETRA       859       3    2330    2360    2331    2424    3192    3214+
+           2695    3195    3194    3215
CTETRA       860       3    2265    2331    2299    2367    3218    2696+
+           3758    2844    3198    3197
CTETRA       861       3    2265    2298    2297    2361    2582    2584+
+           2581    2843    2842    2838
CTETRA       862       3    2344    2366    2361    2367    3442    2832+
+           3622    3444    2836    2835
CTETRA       863       3    2259    2331    2294    2332    3759    3496+
+           3430    3432    2699    3429
CTETRA       864       3    2266    2268    2267    2270    2479    2478+
+           2476    2573    2846    2574
CTETRA       865       3    2342    2343    2367    2383    2744    3443+
+           3634    3839    3671    3668
CTETRA       866       3    2265    2358    2331    2360    3390    3213+
+           3218    3217    2819    3214
CTETRA       867       3     668     669    2300    2383     687    3840+
+           3841    3842    3843    3844
CTETRA       868       3    2315    2323    2396    2397    3046    3042+
+           3845    3047    3043    3045
CTETRA       869       3    1071    2355    1072    2398    3846    3847+
+           1156    3848    3611    3849
CTETRA       870       3     806    1449     642    1057    1746    1745+
+            809    2592    2591    1163
CTETRA       871       3    1476    1071    2398    2399    3736    3848+
+           3850    3851    3852    3051
CTETRA       872       3    1470    1072    2355    2398    3853    3847+
+           3854    3855    3849    3611
CTETRA       873       3    1470    2314    1471    2398    3592    2633+
+           1584    3855    3610    3856
CTETRA       874       3    2263    2352    2276    2369    2779    2786+
+           2785    3857    2863    2849
CTETRA       875       3    2309    2357    2311    2403    3524    3438+
+           2622    3528    3527    3233
CTETRA       876       3    2266    2298    2299    2300    2583    3801+
+           2585    2588    3804    2589
CTETRA       877       3    2351    2380    2438    2442    2886    3740+
+           3725    3388    3779    3778
CTETRA       878       3    2262    2387    2349    2391    3004    3005+
+           2775    3016    3858    2998
CTETRA       879       3    2262    2354    2363    2425    3712    3311+
+           3859    3713    3715    3860
CTETRA       880       3     689    2369    2363    2387    3282    2980+
+           2956    2958    2983    2959
CTETRA       881       3    2350    2363    2352    2369    2979    2828+
+           2985    2981    2980    2863
CTETRA       882       3     720     721    1503    1082     764    1782+
+           1781    1209    1208    3495
CTETRA       883       3    2262    2363    2387    2425    3859    2959+
+           3004    3713    3860    3861
CTETRA       884       3    2336    2349    2387    2390    3862    3005+
+           3863    3864    3000    3865
CTETRA       885       3    2262    2391    2375    2453    3016    3017+
+           3015    3866    3867    3868
CTETRA       886       3    2391    2392    2393    2449    3002    3693+
+           3698    3869    3697    3696
CTETRA       887       3    2390    2454    2391    2455    3870    3871+
+           2999    3872    3873    3874
CTETRA       888       3    2391    2449    2393    2454    3869    3696+
+           3698    3871    3875    3876
CTETRA       889       3    2262    2387    2391    2455    3004    3858+
+           3016    3877    3878    3874
CTETRA       890       3    1525    2413    1526    2452    3879    3880+
+           1713    3881    3882    3883
CTETRA       891       3    2414    2415    2436    2452    3112    3884+
+           3290    3796    3885    3797
CTETRA       892       3    1531    2435    2436    2452    3886    3292+
+           3770    3887    3798    3797
CTETRA       893       3     208    1526    2413    2452    3888    3880+
+           3889    3890    3883    3882
CTETRA       894       3     243     274     244    2445    2152    2156+
+           2155    3891    3892    3893
CTETRA       895       3     208    2413    2430    2452    3889    3894+
+           3895    3890    3882    3896
CTETRA       896       3     209    2430     210    2435    3897    3898+
+           1963    3899    3788    3900
CTETRA       897       3     209    2430    2435    2452    3897    3788+
+           3899    3901    3896    3798
CTETRA       898       3    1489    2347    1490    2423    2907    3902+
+           1629    3499    3501    3903
CTETRA       899       3     240     271     241    2430    2143    2147+
+           2056    3904    3248    3905
CTETRA       900       3     197    2329    1493    2423    3906    3907+
+           3908    3909    3910    3911
CTETRA       901       3    2319    2330    2329    2447    3203    2692+
+           3912    3426    3913    3914
CTETRA       902       3    2319    2332    2330    2447    3204    2698+
+           3203    3426    3428    3913
CTETRA       903       3    1492    2330    2422    2423    3915    3187+
+           3916    3917    3188    3190
CTETRA       904       3    2259    2333    2332    2382    3504    2702+
+           3432    3507    3506    2899
CTETRA       905       3    1527    1531    1530    2436    1725    1724+
+           1723    3918    3770    3769
CTETRA       906       3    2259    2321    2340    2382    3431    2738+
+           3520    3507    2898    3519
CTETRA       907       3    2259    2332    2321    2382    3432    2895+
+           3431    3507    2899    2898
CTETRA       908       3    1081    2418    2406    2419    3703    3919+
+           3920    3707    3706    3921
CTETRA       909       3     672    2406    1081    2418    3922    3920+
+           1199    3923    3919    3703
CTETRA       910       3     673    2373    2406    2418    3579    3086+
+           3924    3925    3342    3919
CTETRA       911       3     673    2415    2373    2418    3926    3340+
+           3579    3925    3150    3342
CTETRA       912       3     672     673    2406    2418     680    3924+
+           3922    3923    3925    3919
CTETRA       913       3    1521    1522    2415    2418    1703    3927+
+           3928    3929    3930    3150
CTETRA       914       3     673    1080    2415    2418    1189    3931+
+           3926    3925    3932    3150
CTETRA       915       3    1521    2415    1080    2418    3928    3931+
+           3933    3929    3150    3932
CTETRA       916       3    1528    1529    1532    2452    1720    1729+
+           1728    3934    3935    3936
CTETRA       917       3     519     520     541    2449     901     968+
+            966    3937    3938    3695
CTETRA       918       3    2336    2387    2338    2390    3863    3939+
+           2732    3864    3865    3940
CTETRA       919       3    1237    2338    2336    2387    3941    2732+
+           3942    3158    3939    3863
CTETRA       920       3    1235    2336    1237    2338    3943    3942+
+           1279    3944    2732    3941
CTETRA       921       3    1238    2338    1239    2390    3945    3946+
+           1282    3947    3940    3948
CTETRA       922       3    2272    2292    2295    2385    2552    2946+
+           3949    3950    2947    2943
CTETRA       923       3    2268    2272    2295    2375    2847    3949+
+           2572    2935    2876    2936
CTETRA       924       3    2260    2306    2379    2386    2926    2882+
+           3143    3951    3952    3410
CTETRA       925       3    1257    2308    2379    2385    3296    2884+
+           3415    3953    2931    2944
CTETRA       926       3     737     738    1452    1061     739    1748+
+           1747    1097    1095    3954
CTETRA       927       3    1258    1259    2291    2308    1322    3955+
+           2904    3956    3297    2928
CTETRA       928       3    1259    2291    2308    2385    3955    2928+
+           3297    3957    2929    2931
CTETRA       929       3    2272    2291    2292    2385    2546    2553+
+           2552    3950    2929    2947
CTETRA       930       3    2295    2306    2303    2308    3146    2607+
+           3958    2942    2614    2613
CTETRA       931       3     669    2300    2292    2385    3840    2945+
+           3959    3960    2948    2947
CTETRA       932       3    1255    1257    2378    2379    1320    3961+
+           3417    3419    3415    2883
CTETRA       933       3    2259    2260    2295    2379    2459    2569+
+           2568    3144    3143    2941
CTETRA       934       3    1251    2260    2379    2386    3962    3143+
+           3409    2940    3951    3410
CTETRA       935       3    2272    2295    2303    2385    3949    3958+
+           2599    3950    2943    2930
CTETRA       936       3    2270    2272    2292    2295    2485    2552+
+           2554    3130    3949    2946
CTETRA       937       3    1531    1532    2435    2452    1727    3963+
+           3886    3887    3936    3798
CTETRA       938       3     675    2389    2388    2436    3117    2968+
+           3964    3828    3789    3782
CTETRA       939       3    2388    2389    2431    2436    2968    3305+
+           3317    3782    3789    3291
CTETRA       940       3    1533    2436    1534    2437    3790    3771+
+           1731    3654    3791    3655
CTETRA       941       3    2301    2433    2434    2444    3397    3965+
+           3339    3398    3400    3966
CTETRA       942       3     696    1251    1249    2260    1429    1308+
+           1430    3138    3962    3967
CTETRA       943       3    2414    2436    2415    2451    3290    3884+
+           3112    3780    3781    3968
CTETRA       944       3    1527    2436    1078    2451    3918    3827+
+           3969    3970    3781    3830
CTETRA       945       3    1527    2415    2436    2451    3971    3884+
+           3918    3970    3968    3781
CTETRA       946       3     668    2300     669    2385    3841    3840+
+            687    3972    2948    3960
CTETRA       947       3     249     277     278    2403    2240    2238+
+           2239    3067    3069    3973
CTETRA       948       3    2272    2303    2291    2385    2599    2601+
+           2546    3950    2930    2929
CTETRA       949       3     669    2292    2298    2408    3959    3802+
+           3974    3975    3976    3583
CTETRA       950       3    2270    2272    2271    2292    2485    2484+
+           2483    2554    2552    2551
CTETRA       951       3     671    1265    1263    2293    1415    1336+
+           1416    3977    3978    3979
CTETRA       952       3     671    1263    2292    2293    1416    3980+
+           3981    3977    3979    2556
CTETRA       953       3     669    2298    2342    2408    3974    3635+
+           3833    3975    3583    3807
CTETRA       954       3     669    2298    2300    2383    3974    3804+
+           3840    3843    3838    3844
CTETRA       955       3     671    2292    2270    2293    3981    2554+
+           3982    3977    2556    2555
CTETRA       956       3     671    2270    2292    2408    3982    2554+
+           3981    3098    3813    3976
CTETRA       957       3     500    2376    1248    2386    3983    3984+
+           3229    3985    3986    2938
CTETRA       958       3    2305    2376    2375    2393    2872    2874+
+           2871    3987    3988    3014
CTETRA       959       3     675     676    2281    2389     678    2972+
+           3989    3117    2973    2966
CTETRA       960       3    1247    2356    1249    2376    3990    3991+
+           1304    3992    3993    3994
CTETRA       961       3    2356    2375    2376    2453    2990    2874+
+           3993    3995    3868    3996
CTETRA       962       3    2305    2306    2376    2386    2608    2873+
+           2872    3997    3952    3986
CTETRA       963       3    2279    2287    2288    2289    2524    2528+
+           2527    2994    2542    2533
CTETRA       964       3     458     505     459    1258     858     857+
+            657    1382    2901    1383
CTETRA       965       3    2278    2279    2281    2324    2501    3090+
+           2562    3998    3999    4000
CTETRA       966       3    1273    2281    1275    2324    3548    3547+
+           1356    4001    4000    4002
CTETRA       967       3     222     254     223    2396    2094    2093+
+           2002    3726    3727    4003
CTETRA       968       3    2277    2285    2279    2286    3564    3563+
+           2507    2549    4004    2526
CTETRA       969       3    1234    1235    2338    2339    1280    3944+
+           2733    2734    4005    2735
CTETRA       970       3    2335    2336    2338    2390    2716    2732+
+           2731    3677    3864    3940
CTETRA       971       3     495    2334    1236    2338    2724    2723+
+           2721    4006    2730    4007
CTETRA       972       3    2277    2282    2336    2369    2564    2951+
+           3565    2851    2850    4008
CTETRA       973       3    2272    2277    2286    2377    2498    2549+
+           4009    2877    3018    4010
CTETRA       974       3     695    1069    1065    2346    1139    1141+
+           1121    4011    4012    4013
CTETRA       975       3    2404    2412    2411    2417    3110    3109+
+           3106    4014    3173    3124
CTETRA       976       3     802    1235    2336    2369    1446    3943+
+           2952    2975    4015    4008
CTETRA       977       3    2277    2336    2350    2369    3565    4016+
+           2862    2851    4008    2981
CTETRA       978       3    2279    2282    2324    2339    2997    4017+
+           3999    3577    2954    4018
CTETRA       979       3    2266    2275    2296    2297    2575    3125+
+           2578    2580    3081    3126
CTETRA       980       3    2271    2280    2273    2293    2558    2503+
+           2487    2557    3025    3315
CTETRA       981       3    2271    2272    2277    2286    2484    2498+
+           2497    2548    4009    2549
CTETRA       982       3    1237    2336    2369    2387    3942    4008+
+           4019    3158    3863    2983
CTETRA       983       3    2268    2349    2277    2375    2774    2861+
+           2860    2935    3011    2989
CTETRA       984       3    2277    2285    2335    2336    3564    2713+
+           4020    3565    2714    2716
CTETRA       985       3     689    1237    2369    2387    1443    4019+
+           3282    2958    3158    2983
CTETRA       986       3     802    2336    1235    2339    2952    3943+
+           1446    2953    2955    4005
CTETRA       987       3    2351    2352    2354    2365    2780    2987+
+           2793    2888    2829    3312
CTETRA       988       3    1449    1061    1057    2301    4021    1094+
+           2591    2594    4022    2595
CTETRA       989       3    2336    2349    2350    2387    3862    2778+
+           4016    3863    3005    2982
CTETRA       990       3    1528    1531    2436    2452    1726    3770+
+           4023    3934    3887    3797
CTETRA       991       3    1535    1538    2437    2445    1743    3772+
+           3783    3786    3774    3404
CTETRA       992       3    2414    2435    2430    2452    3289    3788+
+           3299    3796    3798    3896
CTETRA       993       3    2332    2347    2423    2447    2896    3501+
+           3189    3428    4024    4025
CTETRA       994       3    2330    2332    2423    2447    2698    3189+
+           3188    3913    3428    4025
CTETRA       995       3    2327    2366    2343    2367    3468    3441+
+           3674    3459    2836    3443
CTETRA       996       3    1501    2327    1502    2343    3673    4026+
+           1657    3675    3674    4027
CTETRA       997       3     265     285     286    2359    2253    2178+
+           2252    4028    4029    3625
CTETRA       998       3    1494    2327    1084    2333    2682    3660+
+           3733    2705    2706    3663
CTETRA       999       3    1494    2333    1058    2422    2705    4030+
+           4031    3664    3665    4032
CTETRA      1000       3     454     510     509    1266     872     871+
+            870    1390    3029    3035
CTETRA      1001       3    1068    2333    2382    2422    4033    3506+
+           3509    3512    3665    3513
CTETRA      1002       3    1058    2333    1068    2422    4030    4033+
+           1132    4032    3665    3512
CTETRA      1003       3    1243    2454    2390    2455    4034    3870+
+           4035    4036    3873    3872
CTETRA      1004       3    2265    2269    2318    2358    2481    3836+
+           3760    3390    3392    3211
CTETRA      1005       3    2258    2259    2261    2294    2458    2462+
+           2461    3433    3430    2565
CTETRA      1006       3     243     273     274    2445    2153    2154+
+           2152    3891    4037    3892
CTETRA      1007       3    2322    2351    2438    2442    3386    3725+
+           3549    3389    3388    3778
CTETRA      1008       3    2349    2375    2391    2393    3011    3017+
+           2998    3012    3014    3698
CTETRA      1009       3    2262    2391    2453    2455    3016    3867+
+           3866    3877    3874    4038
CTETRA      1010       3    2262    2375    2356    2453    3015    2990+
+           3145    3866    3868    3995
CTETRA      1011       3    2261    2262    2268    2356    2466    2773+
+           2477    2801    3145    2802
CTETRA      1012       3     692    1243    1241    2455    1437    1292+
+           1438    4039    4036    4040
CTETRA      1013       3    2261    2269    2264    2294    2480    2816+
+           2467    2565    2567    3436
CTETRA      1014       3    2272    2303    2295    2375    2599    3958+
+           3949    2876    2875    2936
CTETRA      1015       3    2279    2285    2336    2339    3563    2714+
+           3566    3577    4041    2955
CTETRA      1016       3    2336    2350    2369    2387    4016    2981+
+           4008    3863    2982    2983
CTETRA      1017       3     499     521    2376    2456     906    4042+
+           4043    4044    4045    4046
CTETRA      1018       3    2375    2376    2391    2393    2874    4047+
+           3017    3014    3988    3698
CTETRA      1019       3    2391    2454    2453    2455    3871    4048+
+           3867    3874    3873    4038
CTETRA      1020       3    2277    2336    2335    2349    3565    2716+
+           4020    2861    3862    3699
CTETRA      1021       3    2295    2303    2306    2375    3958    2607+
+           3146    2936    2875    2870
CTETRA      1022       3     693    2356     694    2453    4049    4050+
+            708    4051    3995    4052
CTETRA      1023       3     693    2356    2453    2455    4049    3995+
+           4051    4053    4054    4038
CTETRA      1024       3     693    2355    2356    2455    4055    4056+
+           4049    4053    4057    4054
CTETRA      1025       3    2355    2425    2356    2455    3554    4058+
+           4056    4057    4059    4054
CTETRA      1026       3    2264    2356    2355    2425    2934    4056+
+           2797    3553    4058    3554
CTETRA      1027       3     693    2453    1245    2455    4051    4060+
+           1435    4053    4038    4061
CTETRA      1028       3     691    1241    2387    2455    1439    4062+
+           4063    4064    4040    3878
CTETRA      1029       3     691    2387    2425    2455    4063    3861+
+           4065    4064    3878    4059
CTETRA      1030       3    2305    2376    2393    2456    2872    3988+
+           3987    4066    4046    4067
CTETRA      1031       3     500    2376    2386    2456    3983    3986+
+           3985    4068    4046    4069
CTETRA      1032       3    2262    2453    2356    2455    3866    3995+
+           3145    3877    4038    4054
CTETRA      1033       3    2306    2378    2379    2386    2880    2883+
+           2882    3952    4070    3410
CTETRA      1034       3    2265    2266    2298    2299    2474    2583+
+           2582    3758    2585    3801
CTETRA      1035       3    2295    2300    2379    2385    2590    3139+
+           2941    2943    2948    2944
CTETRA      1036       3    1245    2453    2454    2455    4060    4048+
+           4071    4061    4038    3873
CTETRA      1037       3    1241    2390    2387    2455    4072    3865+
+           4062    4040    3872    3878
CTETRA      1038       3    2349    2387    2390    2391    3005    3865+
+           3000    2998    3858    2999
CTETRA      1039       3     693    2355     694    2356    4055    4073+
+            708    4049    4056    4050
CTETRA      1040       3    2264    2355    2356    2399    2797    4056+
+           2934    3718    4074    4075
CTETRA      1041       3    1256    1257    2308    2378    1318    3296+
+           3295    4076    3961    2881
CTETRA      1042       3    2260    2376    2306    2386    2927    2873+
+           2926    3951    3986    3952
CTETRA      1043       3    1245    2453    1247    2454    4060    4077+
+           1300    4071    4048    4078
CTETRA      1044       3    1247    2356    2376    2453    3990    3993+
+           3992    4077    3995    3996
CTETRA      1045       3     695    2258    2356    2399    3132    2933+
+           3134    4079    3717    4075
CTETRA      1046       3     674    2388    2373    2451    4080    3812+
+           3580    4081    3750    4082
CTETRA      1047       3    2311    2315    2396    2448    2639    3845+
+           3552    3556    3558    3538
CTETRA      1048       3     220    2312    2309    2448    4083    2623+
+           4084    4085    3557    4086
CTETRA      1049       3    1471    2315    2397    2398    2636    3047+
+           4087    3856    3048    3050
CTETRA      1050       3    1475    2395    1478    2397    3060    4088+
+           1603    3061    3044    4089
CTETRA      1051       3    1470    2355    2314    2398    3854    3594+
+           3592    3855    3611    3610
CTETRA      1052       3    1470    1070    2314    2355    3591    3589+
+           3592    3854    4090    3594
CTETRA      1053       3    1455    1459    1458    2302    1557    1556+
+           1555    4091    4092    4093
CTETRA      1054       3    2313    2345    2402    2439    2753    4094+
+           3222    3473    3491    3475
CTETRA      1055       3    2363    2381    2365    2439    3314    2891+
+           2831    4095    3334    3332
CTETRA      1056       3    1462    1465    2313    2316    1572    2651+
+           4096    4097    2652    2653
CTETRA      1057       3    1455    2302    2364    2439    4091    4098+
+           3486    3487    3472    3485
CTETRA      1058       3    1458    1063    1062    2302    3294    1106+
+           3293    4093    2598    2597
CTETRA      1059       3    2302    2310    2313    2314    3471    2627+
+           3470    4099    2628    2630
CTETRA      1060       3    1455    2302    1062    2364    4091    2597+
+           4100    3486    4098    4101
CTETRA      1061       3     690    2363    2302    2426    2957    3737+
+           2596    4102    3739    3600
CTETRA      1062       3     690    1062    2302    2364    1107    2597+
+           2596    4103    4101    4098
CTETRA      1063       3    2302    2363    2364    2439    3737    2827+
+           4098    3472    4095    3485
CTETRA      1064       3    2310    2381    2402    2403    3722    3476+
+           3221    3232    3323    3068
CTETRA      1065       3    2310    2311    2314    2425    2621    2638+
+           2628    3223    3555    3224
CTETRA      1066       3    2302    2310    2314    2426    3471    2628+
+           4099    3600    3225    3227
CTETRA      1067       3    2310    2363    2354    2425    3738    3311+
+           3724    3223    3860    3715
CTETRA      1068       3    2309    2312    2311    2448    2623    2625+
+           2622    4086    3557    3556
CTETRA      1069       3    1468    1471    2315    2446    1586    2636+
+           2635    4104    4105    3561
CTETRA      1070       3    1467    1468    1471    2314    1577    1586+
+           1585    3588    2634    2633
CTETRA      1071       3    1468    2312    1469    2446    3607    4106+
+           1580    4104    3560    4107
CTETRA      1072       3      40    1469    2312    2446    1858    4106+
+           4108    4109    4107    3560
CTETRA      1073       3     806    1075    1536    2444    3645    3651+
+           1806    3643    3646    3653
CTETRA      1074       3    1461    1465    1464    2302    1571    1570+
+           1569    3597    4110    3598
CTETRA      1075       3    1527    2415    1528    2436    3971    4111+
+           1717    3918    3884    4023
CTETRA      1076       3    2373    2407    2406    2418    3089    3088+
+           3086    3342    4112    3919
CTETRA      1077       3     244    2380     245    2432    4113    4114+
+           2067    4115    3318    4116
CTETRA      1078       3     244     275     245    2380    2244    2231+
+           2067    4113    4117    4114
CTETRA      1079       3      35     183     184    2337    1884    1885+
+           1883    4118    4119    4120
CTETRA      1080       3    1512    1515    1073    2419    1688    4121+
+           4122    3383    4123    4124
CTETRA      1081       3    1528    2436    2415    2452    4023    3884+
+           4111    3934    3797    3885
CTETRA      1082       3    2411    2421    2412    2429    3346    3162+
+           3109    3345    3263    4125
CTETRA      1083       3    2406    2418    2407    2419    3919    4112+
+           3088    3921    3706    3581
CTETRA      1084       3    2373    2412    2415    2451    3341    3147+
+           3340    4082    3752    3968
CTETRA      1085       3    2433    2437    2443    2445    3307    3408+
+           3396    3405    3404    4126
CTETRA      1086       3    1257    1259    2308    2385    1324    3297+
+           3296    3953    3957    2931
CTETRA      1087       3    1261    2292    2291    2385    4127    2553+
+           4128    4129    2947    2929
CTETRA      1088       3    2303    2307    2304    2308    2610    2619+
+           2606    2613    2615    3794
CTETRA      1089       3    2277    2284    2286    2377    4130    4131+
+           2549    3018    3006    4010
CTETRA      1090       3    2295    2306    2308    2379    3146    2614+
+           2942    2941    2882    2884
CTETRA      1091       3    2296    2410    2411    2442    3805    3120+
+           3129    3394    4132    4133
CTETRA      1092       3    2268    2272    2270    2295    2847    2485+
+           2846    2572    3949    3130
CTETRA      1093       3     670     671    2292    2408     685    3981+
+           4134    3818    3098    3976
CTETRA      1094       3    2344    2367    2361    2368    3444    2835+
+           3622    3365    3636    2841
CTETRA      1095       3    2267    2270    2268    2276    2574    2846+
+           2478    3385    2492    2848
CTETRA      1096       3    1500    1504    1503    2343    1662    1661+
+           1660    3669    2745    4135
CTETRA      1097       3    2270    2273    2274    2293    2486    2495+
+           2491    2555    3315    4136
CTETRA      1098       3     524    2306    2305    2386    4137    2608+
+           4138    4139    3952    3997
CTETRA      1099       3     671    2270    2274    2293    3982    2491+
+           4140    3977    2555    4136
CTETRA      1100       3    2276    2374    2373    2388    2869    2868+
+           2866    2991    3746    3812
CTETRA      1101       3    2276    2281    2282    2388    2508    2512+
+           2511    2991    2965    2964
CTETRA      1102       3    2267    2275    2276    2374    2576    2493+
+           3385    3728    2867    2869
CTETRA      1103       3     275     290     291    2427    2192    2190+
+           2191    4141    3235    4142
CTETRA      1104       3    1506    1087    2342    2441    3420    3824+
+           3822    4143    3835    3808
CTETRA      1105       3    2330    2331    2360    2367    2695    3214+
+           3192    3199    3198    2834
CTETRA      1106       3    1495    1496    2328    2329    1643    4144+
+           2686    2689    4145    2690
CTETRA      1107       3    1506    2342    1507    2441    3822    3821+
+           1668    4143    3808    3826
CTETRA      1108       3     518     541     540    2392     965     964+
+            963    4146    3694    4147
CTETRA      1109       3    1503    1087    1082    2342    3823    1231+
+           3495    3820    3824    4148
CTETRA      1110       3    1500    2327    2343    2383    2913    3674+
+           3669    2914    2916    3671
CTETRA      1111       3    2296    2411    2374    2427    3129    3105+
+           3128    3730    3343    3319
CTETRA      1112       3    2290    2291    2303    2304    2547    2601+
+           2600    2605    4149    2606
CTETRA      1113       3     668    1257    2300    2385    1422    3413+
+           3841    3972    3953    2948
CTETRA      1114       3     807    1536    1537    2444    1807    1738+
+           1808    4150    3653    3658
CTETRA      1115       3    1449    1453    1452    2301    1541    1540+
+           1539    2594    3482    3481
CTETRA      1116       3    2351    2427    2380    2442    3275    4151+
+           2886    3388    3732    3779
CTETRA      1117       3    2262    2348    2263    2354    2770    2772+
+           2465    3712    2792    2791
CTETRA      1118       3    2270    2295    2292    2300    3130    2946+
+           2554    3131    2590    2945
CTETRA      1119       3     669    2298    2292    2300    3974    3802+
+           3959    3840    3804    2945
CTETRA      1120       3     695    2346    2258    2400    4011    4152+
+           3132    4153    4154    4155
CTETRA      1121       3     695    1069    2346    2400    1139    4012+
+           4011    4153    4156    4154
CTETRA      1122       3    1479    2346    1069    2400    4157    4012+
+           4158    4159    4154    4156
CTETRA      1123       3    1482    1067    1065    2346    4160    1124+
+           4161    2910    3073    4013
CTETRA      1124       3    2258    2340    2341    2346    2737    2741+
+           2740    4152    2762    2761
CTETRA      1125       3    1479    1480    2346    2400    1605    4162+
+           4157    4159    3078    4154
CTETRA      1126       3    1482    1485    1067    2346    1618    3072+
+           4160    2910    2921    3073
CTETRA      1127       3    1485    2340    2346    2347    3070    2762+
+           2921    2906    2763    2765
CTETRA      1128       3    1483    2347    2341    2384    2768    2764+
+           4163    2918    2920    4164
CTETRA      1129       3    2395    2396    2397    2401    3041    3045+
+           3044    3063    4165    3064
CTETRA      1130       3    1476    2398    1477    2400    3850    3059+
+           1598    4166    3054    3076
CTETRA      1131       3    1476    2399    2398    2400    3851    3051+
+           3850    4166    3055    3054
CTETRA      1132       3    2326    2341    2384    2395    2760    4164+
+           4167    4168    3040    4169
CTETRA      1133       3    2317    2323    2395    2396    2668    3039+
+           3038    3716    3042    3041
CTETRA      1134       3    2317    2341    2326    2395    2759    2760+
+           2758    3038    3040    4168
CTETRA      1135       3    1480    1484    1483    2384    1616    1615+
+           1614    4170    4171    2918
CTETRA      1136       3     693    1071     694    2355    1155    1151+
+            708    4055    3846    4073
CTETRA      1137       3    2258    2341    2323    2400    2740    3037+
+           3434    4155    4172    3053
CTETRA      1138       3    1480    2384    2341    2395    4170    4164+
+           4173    3075    4169    3040
CTETRA      1139       3     695    2340    2258    2346    4174    2737+
+           3132    4011    2762    4152
CTETRA      1140       3    2365    2440    2432    2443    3335    4175+
+           3276    4176    4177    4178
CTETRA      1141       3    2363    2365    2364    2439    2831    2830+
+           2827    4095    3332    3485
CTETRA      1142       3     643    2370    2389    2444    2977    2970+
+           4179    4180    4181    3406
CTETRA      1143       3    1452    1060    2301    2364    4182    4183+
+           3481    3484    4184    3338
CTETRA      1144       3     229    2328    2329    2424    4185    2690+
+           4186    4187    3193    3196
CTETRA      1145       3     688    1061    1060    2434    1093    1092+
+           1090    4188    4189    4190
CTETRA      1146       3    1060    1061    2301    2434    1092    4022+
+           4183    4190    4189    3339
CTETRA      1147       3     688    1057    1061    2434    1088    1094+
+           1093    4188    4191    4189
CTETRA      1148       3    1057    2301    2434    2444    2595    3339+
+           4191    3644    3398    3966
CTETRA      1149       3     673    2415    1074    2451    3926    4192+
+           1187    4193    3968    4194
CTETRA      1150       3    2359    2368    2405    2457    2840    3378+
+           3616    4195    4196    4197
CTETRA      1151       3    2404    2411    2410    2417    3106    3120+
+           3104    4014    3124    3123
CTETRA      1152       3    2411    2417    2412    2421    3124    3173+
+           3109    3346    3811    3162
CTETRA      1153       3    2258    2346    2341    2400    4152    2761+
+           2740    4155    4154    4172
CTETRA      1154       3    2268    2276    2272    2277    2848    2550+
+           2847    2860    2563    2498
CTETRA      1155       3    1243    1245    2454    2455    1296    4071+
+           4034    4036    4061    3873
CTETRA      1156       3    1241    1243    2390    2455    1292    4035+
+           4072    4040    4036    3872
CTETRA      1157       3    1239    2387    1241    2390    4198    4062+
+           1288    3948    3865    4072
CTETRA      1158       3    2376    2453    2391    2454    3996    3867+
+           4047    4199    4048    3871
CTETRA      1159       3     694    2356    1247    2453    4050    3990+
+           1433    4052    3995    4077
CTETRA      1160       3    1477    2397    2395    2400    3057    3044+
+           3074    3076    4200    3077
CTETRA      1161       3     691    2387    2363    2425    4063    2959+
+           4201    4065    3861    3860
CTETRA      1162       3     669     670    2292    2408     686    4134+
+           3959    3975    3818    3976
CTETRA      1163       3    1263    2291    2292    2394    4202    2553+
+           3980    4203    4204    4205
CTETRA      1164       3    2271    2292    2291    2394    2551    2553+
+           2545    3034    4205    4204
CTETRA      1165       3     531    2287    2280    2289    3020    2993+
+           3019    4206    2542    2995
CTETRA      1166       3    2270    2271    2273    2293    2483    2487+
+           2486    2555    2557    3315
CTETRA      1167       3    1263    2292    2293    2394    3980    2556+
+           3979    4203    4205    3028
CTETRA      1168       3    1261    1263    2291    2292    1332    4202+
+           4128    4127    3980    2553
CTETRA      1169       3    2273    2278    2279    2281    2502    2501+
+           2500    2509    2562    3090
CTETRA      1170       3     671    2274    2270    2275    4140    2491+
+           3982    3096    2490    2489
CTETRA      1171       3    1265    2293    1267    2394    3978    3024+
+           1340    4207    3028    3027
CTETRA      1172       3     673    2373    2274    2406    3579    3575+
+           3578    3924    3086    4208
CTETRA      1173       3    2277    2335    2284    2349    4020    3689+
+           4130    2861    3699    3008
CTETRA      1174       3    2263    2267    2276    2353    2788    3385+
+           2785    2782    2978    2787
CTETRA      1175       3    1269    1271    2278    2281    1348    3572+
+           2559    2561    3573    2562
CTETRA      1176       3     676    1275    2281    2282    1405    3547+
+           2972    2971    4209    2512
CTETRA      1177       3     234    2371    2362    2457    4210    3457+
+           4211    4212    4213    4214
CTETRA      1178       3     235     236    2371    2457    2041    4215+
+           4216    4217    4218    4213
CTETRA      1179       3     234     235    2371    2457    2038    4216+
+           4210    4212    4217    4213
CTETRA      1180       3     236    2420    2371    2450    4219    3364+
+           4215    4220    3709    4221
CTETRA      1181       3     205    2371     236    2420    3374    4215+
+           2039    4222    3364    4219
CTETRA      1182       3     204    1514    1511    2371    4223    1687+
+           4224    4225    2855    3448
CTETRA      1183       3     255     280     281    2317    2219    2220+
+           2218    2648    3530    4226
CTETRA      1184       3      54     203     204    1511    1940    1945+
+           1944    1830    3458    4224
CTETRA      1185       3     644    1068    1058    2333    1129    1132+
+           1131    4227    4033    4030
CTETRA      1186       3    2332    2382    2333    2422    2899    3506+
+           2702    3186    3513    3665
CTETRA      1187       3     667    2299    2327    2383    3416    3666+
+           3661    4228    3667    2916
CTETRA      1188       3     667    2299     644    2333    3416    4229+
+            684    3662    2700    4227
CTETRA      1189       3    1494    1084    1058    2333    3733    1215+
+           4031    2705    3663    4030
CTETRA      1190       3    1502    2327    2328    2366    4026    2688+
+           3462    3465    3468    3466
CTETRA      1191       3    2319    2330    2331    2424    3203    2695+
+           3202    4230    3195    3215
CTETRA      1192       3    1248    1251    1250    2386    1307    1306+
+           1305    2938    2940    4231
CTETRA      1193       3      37    1460    1457    2345    1864    1561+
+           1865    4232    4233    3493
CTETRA      1194       3      36    1457     185    2345    1866    2514+
+           1886    4234    3493    4235
CTETRA      1195       3     187    2316    2345    2402    4236    2752+
+           4237    4238    4239    4094
CTETRA      1196       3    1459    1462    2302    2313    1565    4240+
+           4092    3489    4096    3470
CTETRA      1197       3    1459    2313    2302    2439    3489    3470+
+           4092    3490    3473    3472
CTETRA      1198       3     220    2309     251    2448    4084    3525+
+           2084    4085    4086    4241
CTETRA      1199       3     236     267     237    2450    2132    2136+
+           2044    4220    4242    4243
CTETRA      1200       3     222     252    2396    2448    2091    3535+
+           3726    4244    3536    3538
CTETRA      1201       3    2310    2348    2354    2403    3231    2792+
+           3724    3232    3234    3324
CTETRA      1202       3     222    2396    2401    2448    3726    4165+
+           3684    4244    3538    4245
CTETRA      1203       3    2315    2401    2396    2448    4246    4165+
+           3845    3558    4245    3538
CTETRA      1204       3     220    2446    2312    2448    4247    3560+
+           4083    4085    3562    3557
CTETRA      1205       3     281    2317    2320    2326    4226    2660+
+           4248    4249    2758    2679
CTETRA      1206       3    1471    2397    2315    2401    4087    3047+
+           2636    4250    3064    4246
CTETRA      1207       3     193    2326     225    2384    4251    4252+
+           2007    4253    4167    4254
CTETRA      1208       3     280    2357    2317    2396    3531    3532+
+           3530    3541    3534    3716
CTETRA      1209       3     197    1493    1490    2423    3908    1638+
+           4255    3909    3911    3903
CTETRA      1210       3    1476    1069    1071    2399    3735    1150+
+           3736    3851    4256    3852
CTETRA      1211       3    1480    2341    2346    2400    4173    2761+
+           4162    3078    4172    4154
CTETRA      1212       3     224     255     256    2326    2096    2101+
+           2100    4257    4258    4259
CTETRA      1213       3    2323    2341    2395    2400    3037    3040+
+           3039    3053    4172    3077
CTETRA      1214       3    2294    2320    2318    2322    2657    2659+
+           2656    2666    3437    3837
CTETRA      1215       3     550     551    2287    2289    1004    2540+
+           4260    4261    2541    2542
CTETRA      1216       3     511    2278    2288    2289    2535    2537+
+           2530    2532    2996    2533
CTETRA      1217       3     509     531    2280    2289     936    3019+
+           4262    3036    4206    2995
CTETRA      1218       3     531     550    2287    2289    1002    4260+
+           3020    4206    4261    2542
CTETRA      1219       3     511    1268    1270    2278    3135    1345+
+           4263    2535    4264    3093
CTETRA      1220       3     511    1268    2278    2289    3135    4264+
+           2535    2532    3033    2996
CTETRA      1221       3    1268    2280    2278    2289    4265    2505+
+           4264    3033    2995    2996
CTETRA      1222       3    1479    1482    1065    2346    1611    4161+
+           4266    4157    2910    4013
CTETRA      1223       3     543    2305    2393    2456    4267    3987+
+           4268    4269    4066    4067
CTETRA      1224       3     521     543    2393    2456     972    4268+
+           4270    4045    4269    4067
CTETRA      1225       3     499    2376     521    2454    4043    4042+
+            906    4271    4199    4272
CTETRA      1226       3     693    1245    1243    2455    1435    1296+
+           1436    4053    4061    4036
CTETRA      1227       3     523     545     544    2305     978     976+
+            977    4273    4274    4275
CTETRA      1228       3      43     192      44    1478    1907    1911+
+            790    1852    4276    1851
CTETRA      1229       3     227     257     258    2325    2106    2107+
+           2105    4277    2677    4278
CTETRA      1230       3     523    2305     544    2456    4273    4275+
+            977    4279    4066    4280
CTETRA      1231       3     521    2393    2376    2456    4270    3988+
+           4042    4045    4067    4046
CTETRA      1232       3     523     524    2305    2386     913    4138+
+           4273    4281    4139    3997
CTETRA      1233       3     523    2386    2305    2456    4281    3997+
+           4273    4279    4069    4066
CTETRA      1234       3     501    2386     523    2456    4282    4281+
+            912    4283    4069    4279
CTETRA      1235       3     222    2396    2395    2401    3726    3041+
+           3681    3684    4165    3063
CTETRA      1236       3    1477    1478    2395    2397    1601    4088+
+           3074    3057    4089    3044
CTETRA      1237       3     717    1512    1073    1086    1787    4122+
+           1197    1226    4284    1224
CTETRA      1238       3    2311    2315    2323    2396    2639    3046+
+           2795    3552    3845    3042
CTETRA      1239       3    1471    2397    1474    2398    4087    3056+
+           1593    3856    3050    3058
CTETRA      1240       3    1471    1472    2401    2446    1587    4285+
+           4250    4105    4286    3425
CTETRA      1241       3     221    2401    2446    2448    3729    3425+
+           4287    4288    4245    3562
CTETRA      1242       3     191    2395    1475    2401    3682    3060+
+           4289    3683    3063    3062
CTETRA      1243       3     190     221    2401    2446    1994    3729+
+           3421    3424    4287    3425
CTETRA      1244       3      42     191    1475    2401    1904    4289+
+           1854    3744    3683    3062
CTETRA      1245       3     495     516    2334    2335     893    2727+
+           2724    4290    2728    2712
CTETRA      1246       3     515    2334    2285    2339    4291    2711+
+           4292    4293    2736    4041
CTETRA      1247       3     692    2314    2425    2426    3593    3224+
+           3596    4294    3227    3226
CTETRA      1248       3     497     519    2390    2449     900    4295+
+           4296    4297    3937    4298
CTETRA      1249       3     495     518     517    2390     896     895+
+            894    4299    4300    3678
CTETRA      1250       3    1474    1478    1477    2397    1602    1601+
+           1600    3056    4089    3057
CTETRA      1251       3    2284    2285    2334    2335    2523    2711+
+           2710    3689    2713    2712
CTETRA      1252       3     515     537    2285    2334     954    2522+
+           4292    4291    2708    2711
CTETRA      1253       3     538     539    2284    2335     958    3688+
+           2707    2729    3690    3689
CTETRA      1254       3     277    2438    2403    2440    4301    3327+
+           3069    4302    3742    3723
CTETRA      1255       3     729    1476    1479    1069    1763    1604+
+           1766    1149    3735    4158
CTETRA      1256       3     694     695    2356    2399     706    3134+
+           4050    4303    4079    4075
CTETRA      1257       3    2381    2403    2438    2440    3323    3327+
+           3326    3337    3723    3742
CTETRA      1258       3     277     278    2403    2438    2238    3973+
+           3069    4301    4304    3327
CTETRA      1259       3     249    2309    2402    2403    4305    3220+
+           3065    3067    3528    3068
CTETRA      1260       3    2310    2363    2425    2426    3738    3860+
+           3223    3225    3739    3226
CTETRA      1261       3    2348    2354    2403    2438    2792    3324+
+           3234    3550    3325    3327
CTETRA      1262       3    2310    2354    2363    2381    3724    3311+
+           3738    3722    3313    3314
CTETRA      1263       3     286    2359    2410    2457    3625    3628+
+           3627    4306    4195    4307
CTETRA      1264       3     245    2380     276    2440    4114    4308+
+           2230    4309    3741    4310
CTETRA      1265       3     275     291    2380    2427    2191    3776+
+           4117    4141    4142    4151
CTETRA      1266       3     245    2432    2380    2440    4116    3318+
+           4114    4309    4175    3741
CTETRA      1267       3     274     275    2380    2427    2195    4117+
+           4311    4312    4141    4151
CTETRA      1268       3     274    2428    2380    2432    4313    3800+
+           4311    4314    3745    3318
CTETRA      1269       3    2263    2348    2267    2351    2772    2810+
+           2788    2781    2790    2813
CTETRA      1270       3    2352    2365    2370    2434    2829    3322+
+           2864    3284    3310    3743
CTETRA      1271       3    2353    2431    2389    2433    3261    3305+
+           3301    3278    3304    3302
CTETRA      1272       3    2351    2365    2354    2381    2888    3312+
+           2793    2889    2891    3313
CTETRA      1273       3     528    2291    2283    2304    4315    4316+
+           2515    4317    4149    4318
CTETRA      1274       3    2306    2307    2308    2378    2611    2615+
+           2614    2880    4319    2881
CTETRA      1275       3     508     530    2283    2394     933    4320+
+           4321    4322    4323    4324
CTETRA      1276       3     508     509     531    2394     868     936+
+            935    4322    4325    3021
CTETRA      1277       3     235     265     266    2457    2130    2131+
+           2129    4217    4326    4327
CTETRA      1278       3     530     548    2283    2287     997    3268+
+           4320    4328    4329    4330
CTETRA      1279       3     530    2287    2283    2394    4328    4330+
+           4320    4323    3023    4324
CTETRA      1280       3     546     547     548    2283     992     995+
+           1039    2517    2516    3268
CTETRA      1281       3    1262    2291    1263    2394    4331    4202+
+           1330    4332    4204    4203
CTETRA      1282       3     643    2434    2370    2444    4333    3743+
+           2977    4180    3966    4181
CTETRA      1283       3     696    1065    1067    2340    1120    1124+
+           1123    3521    4334    3071
CTETRA      1284       3    2428    2433    2432    2445    3402    3280+
+           3745    3403    3405    4335
CTETRA      1285       3    2428    2435    2437    2445    4336    3784+
+           3401    3403    3787    3404
CTETRA      1286       3     643    2282     676    2389    2974    2971+
+            677    4179    2967    2973
CTETRA      1287       3     204     236     205    2371    2040    2039+
+           1948    4225    4215    3374
CTETRA      1288       3     274    2428    2432    2445    4313    3745+
+           4314    3892    3403    4335
CTETRA      1289       3    2412    2429    2414    2431    4125    3298+
+           3161    3748    3258    3287
CTETRA      1290       3     241    2430    2428    2435    3905    4337+
+           4338    4339    3788    4336
CTETRA      1291       3    2365    2380    2432    2440    2887    3318+
+           3276    3335    3741    4175
CTETRA      1292       3    2412    2414    2415    2451    3161    3112+
+           3147    3752    3780    3968
CTETRA      1293       3    2428    2430    2431    2435    4337    3300+
+           3257    4336    3788    3288
CTETRA      1294       3    2353    2388    2370    2389    3316    2969+
+           2949    3301    2968    2970
CTETRA      1295       3      55     204     205    1514    1943    1948+
+           1947    1828    4223    3373
CTETRA      1296       3    2365    2432    2433    2443    3276    3280+
+           3279    4176    4178    3396
CTETRA      1297       3     807    2443    2301    2444    3641    3395+
+           4340    4150    3399    3398
CTETRA      1298       3    2370    2434    2433    2444    3743    3965+
+           3303    4181    3966    3400
CTETRA      1299       3    1450    1453    2301    2337    1542    3482+
+           4341    4342    3478    3330
CTETRA      1300       3     266     286     267    2450    2159    2157+
+           2134    4343    4344    4242
CTETRA      1301       3     806     807    2301    2444     810    4340+
+           2593    3643    4150    3398
CTETRA      1302       3    1253    2379    2378    2386    2893    2883+
+           3418    3411    3410    4070
CTETRA      1303       3     525     526    2307    2378     919    3792+
+           4345    4346    4347    4319
CTETRA      1304       3    1257    2308    2378    2379    3296    2881+
+           3961    3415    2884    2883
CTETRA      1305       3     502    1252    2378    2386    4348    4349+
+           4350    4351    4352    4070
CTETRA      1306       3    1252    1253    2378    2386    1310    3418+
+           4349    4352    3411    4070
CTETRA      1307       3     213     243     244    2445    2064    2155+
+           2068    4353    3891    3893
CTETRA      1308       3     728     729    1479    1069     751    1766+
+           1765    1143    1149    4158
CTETRA      1309       3    2353    2380    2427    2428    3273    4151+
+           3260    3259    3800    3236
CTETRA      1310       3     808    2443    2437    2445    3642    3408+
+           3640    3773    4126    3404
CTETRA      1311       3    2301    2433    2365    2434    3397    3279+
+           3328    3339    3965    3310
CTETRA      1312       3      55     205      56    1514    1947    1946+
+            778    1828    3373    1827
CTETRA      1313       3    1534    2435    1535    2437    3795    3785+
+           1734    3655    3784    3783
CTETRA      1314       3     227     258     228    2319    2105    2109+
+           2017    4354    3253    4355
CTETRA      1315       3    1533    2389    1076    2436    3659    3118+
+           3810    3790    3789    4356
CTETRA      1316       3     674     675    2388    2451     679    3964+
+           4080    4081    3829    3750
CTETRA      1317       3     674    1074    1078    2451    1181    1176+
+           1179    4081    4194    3830
CTETRA      1318       3    2373    2388    2412    2451    3812    3749+
+           3341    4082    3750    3752
CTETRA      1319       3    1483    2346    2341    2347    2767    2761+
+           4163    2768    2765    2764
CTETRA      1320       3    2407    2412    2416    2418    3170    3148+
+           3169    4112    3149    3151
CTETRA      1321       3     209    2435    1532    2452    3899    3963+
+           4357    3901    3798    3936
CTETRA      1322       3    1266    1267    2280    2394    1338    3026+
+           4358    4359    3027    3022
CTETRA      1323       3    1249    2356    2260    2376    3991    2800+
+           3967    3994    3993    2927
CTETRA      1324       3     559    2287    2286    2290    4360    2525+
+           4361    2602    4362    4363
CTETRA      1325       3    2271    2283    2287    2394    4364    4330+
+           2992    3034    4324    3023
CTETRA      1326       3    2271    2286    2279    2287    2548    2526+
+           2506    2992    2525    2524
CTETRA      1327       3     551    2286     560    2287    4365    4366+
+           1051    2540    2525    4367
CTETRA      1328       3    2272    2286    2290    2377    4009    4363+
+           2543    2877    4010    4368
CTETRA      1329       3     498     521    2449    2454     905    4369+
+           4370    4371    4272    3875
CTETRA      1330       3     521    2393    2449    2454    4270    3696+
+           4369    4272    3876    3875
CTETRA      1331       3     556     557    2377    2393    1019    4372+
+           3685    4373    4374    3013
CTETRA      1332       3     521    2376    2393    2454    4042    3988+
+           4270    4272    4199    3876
CTETRA      1333       3    2284    2349    2335    2392    3008    3699+
+           3689    3009    3001    3680
CTETRA      1334       3    1242    2449    2390    2454    4375    4298+
+           4376    4377    3875    3870
CTETRA      1335       3     518    2390     519    2392    4300    4295+
+            898    4146    3003    4378
CTETRA      1336       3     239     270     271    2421    2140    2145+
+           2144    4379    3265    3262
CTETRA      1337       3     519    2392    2390    2449    4378    3003+
+           4295    3937    3697    4298
CTETRA      1338       3     495     496     518    2390     829     897+
+            896    4299    4380    4300
CTETRA      1339       3     520    2393     541    2449    4381    3692+
+            968    3938    3696    3695
CTETRA      1340       3     524    2378    2306    2386    4382    2880+
+           4137    4139    4070    3952
CTETRA      1341       3     561    2305     563    2307    2963    2962+
+            813    4383    2612    2924
CTETRA      1342       3     520     521    2393    2449     904    4270+
+           4381    3938    4369    3696
CTETRA      1343       3     561    2305    2303    2377    2963    2609+
+           4384    4385    2885    2878
CTETRA      1344       3     514    2285     535    2339    4386    4387+
+            949    4388    4041    4389
CTETRA      1345       3    2262    2363    2350    2387    3859    2979+
+           2776    3004    2959    2982
CTETRA      1346       3     495    2335    2334    2338    4290    2712+
+           2724    4006    2731    2730
CTETRA      1347       3     552    2285     555    2286    3568    4390+
+           1053    4391    4004    4392
CTETRA      1348       3     493    1234    2334    2339    4393    2726+
+           4394    4395    2734    2736
CTETRA      1349       3     184     215     216    2337    1976    1981+
+           1980    4120    4396    4397
CTETRA      1350       3     514     515    2285    2339     885    4292+
+           4386    4388    4293    4041
CTETRA      1351       3     536    2284     555    2285    2520    4398+
+           1032    2521    2523    4390
CTETRA      1352       3    2262    2263    2268    2350    2465    2789+
+           2773    2776    2986    2777
CTETRA      1353       3     537     538     558    2284     955    1034+
+           1030    2519    2707    4399
CTETRA      1354       3    2277    2284    2285    2286    4130    2523+
+           3564    2549    4131    4004
CTETRA      1355       3    1470    1072    1070    2355    3853    1158+
+           3591    3854    3847    4090
CTETRA      1356       3      48    1490     197    1493    1843    4255+
+           1922    1842    1638    3908
CTETRA      1357       3    2311    2323    2315    2355    2795    3046+
+           2639    2799    2798    3609
CTETRA      1358       3     210     240     241    2430    2055    2056+
+           2054    3898    3904    3905
CTETRA      1359       3    2311    2355    2314    2425    2799    3594+
+           2638    3555    3554    3224
CTETRA      1360       3    2323    2398    2355    2399    3049    3611+
+           2798    3052    3051    4074
CTETRA      1361       3    1477    2398    2397    2400    3059    3050+
+           3057    3076    3054    4200
CTETRA      1362       3    2266    2275    2297    2298    2575    3081+
+           2580    2583    3091    2584
CTETRA      1363       3     530     531    2287    2394     934    3020+
+           4328    4323    3021    3023
CTETRA      1364       3     509    1266    2280    2394    3035    4358+
+           4262    4325    4359    3022
CTETRA      1365       3     546    2290     559    2304    3269    2602+
+           1038    4400    2605    2604
CTETRA      1366       3     559     560    2286    2287    1046    4366+
+           4361    4360    4367    2525
CTETRA      1367       3     559    2303    2290    2377    2603    2600+
+           2602    3200    2878    4368
CTETRA      1368       3     208     209    1529    2452    1960    4401+
+           4402    3890    3901    3935
CTETRA      1369       3     548    2283    2287    2290    3268    4330+
+           4329    3271    3270    4362
CTETRA      1370       3     298    2427    2411    2442    3241    3343+
+           4403    4404    3732    4133
CTETRA      1371       3     288    2411     298    2429    3347    4403+
+           2186    3348    3345    3242
CTETRA      1372       3     297     298    2411    2442    2181    4403+
+           4405    4406    4404    4133
CTETRA      1373       3    2374    2411    2412    2429    3105    3109+
+           3108    3344    3345    4125
CTETRA      1374       3     197     227     228    2447    2016    2017+
+           2015    4407    4408    4409
CTETRA      1375       3     287    2410    2417    2450    3119    3123+
+           3122    4410    4411    4412
CTETRA      1376       3    2374    2427    2429    2431    3319    3239+
+           3344    3321    3256    3258
CTETRA      1377       3    2275    2406    2407    2409    3085    3088+
+           3087    3100    4413    3377
CTETRA      1378       3    2296    2297    2404    2410    3126    3080+
+           3127    3805    3102    3104
CTETRA      1379       3     507    1260    1262    2291    4414    1329+
+           4415    4416    4417    4331
CTETRA      1380       3     297     299     298    2442    2163    2180+
+           2181    4406    3768    4404
CTETRA      1381       3     508    1262    1264    2394    4418    1333+
+           4419    4322    4332    4420
CTETRA      1382       3     527    2291    2304    2308    4421    4149+
+           3720    4422    2928    3794
CTETRA      1383       3    2261    2262    2263    2268    2466    2465+
+           2464    2477    2773    2789
CTETRA      1384       3    2266    2275    2267    2296    2575    2576+
+           2476    2578    3125    3502
CTETRA      1385       3     278    2322    2357    2438    3542    2806+
+           3545    4304    3549    3551
CTETRA      1386       3     291     292    2438    2442    2224    4423+
+           3775    3777    4424    3778
CTETRA      1387       3     291    2380    2427    2442    3776    4151+
+           4142    3777    3779    3732
CTETRA      1388       3     214    2440    2337    2443    4425    4426+
+           4427    4428    4177    4429
CTETRA      1389       3     250     278     251    2403    2235    2236+
+           2086    4430    3973    3526
CTETRA      1390       3    2269    2322    2318    2442    2815    3837+
+           3836    3387    3389    4431
CTETRA      1391       3    1456    2345    1459    2439    3514    3488+
+           1558    3515    3491    3490
CTETRA      1392       3     216    2345    2337    2439    4432    3492+
+           4397    4433    3491    3333
CTETRA      1393       3    2351    2353    2380    2427    2784    3273+
+           2886    3275    3260    4151
CTETRA      1394       3    2301    2364    2365    2439    3338    2830+
+           3328    3331    3485    3332
CTETRA      1395       3    2337    2439    2365    2440    3333    3332+
+           3329    4426    3336    3335
CTETRA      1396       3     277    2403    2402    2440    3069    3068+
+           3066    4302    3723    3477
CTETRA      1397       3     690     691    2363    2426     702    4201+
+           2957    4102    4434    3739
CTETRA      1398       3     675    2281    2388    2389    3989    2965+
+           3964    3117    2966    2968
CTETRA      1399       3     294     299     295    2322    2203    2161+
+           2204    3764    3766    3765
CTETRA      1400       3    2310    2354    2348    2425    3724    2792+
+           3231    3223    3715    3714
CTETRA      1401       3     257     281     258    2320    2250    2249+
+           2107    2675    4248    4435
CTETRA      1402       3     561    2303     565    2377    4384    2616+
+           1043    4385    2878    3201
CTETRA      1403       3    2295    2308    2303    2385    2942    2613+
+           3958    2943    2931    2930
CTETRA      1404       3    2267    2269    2296    2351    2812    2579+
+           3502    2813    2814    3731
CTETRA      1405       3     506     507    2283    2291     862    4436+
+           4437    2905    4416    4316
CTETRA      1406       3     526     527    2304    2308     922    3720+
+           3719    3793    4422    3794
CTETRA      1407       3     294    2318    2320    2322    4438    2659+
+           3762    3764    3837    3437
CTETRA      1408       3     227    2325    2319    2447    4277    3497+
+           4354    4408    4439    3426
CTETRA      1409       3     226    2325     227    2447    4440    4277+
+           2014    4441    4439    4408
CTETRA      1410       3     226    2384    2325    2447    4442    4443+
+           4440    4441    4444    4439
CTETRA      1411       3     226     256     257    2326    2103    2104+
+           2102    4445    4259    2678
CTETRA      1412       3     688    1060     689    2434    1090    1091+
+            699    4188    4190    3283
CTETRA      1413       3     226     257    2325    2326    2102    2677+
+           4440    4445    2678    2680
CTETRA      1414       3     237    2417    2420    2450    3178    3181+
+           3180    4243    4412    3709
CTETRA      1415       3    2368    2371    2405    2457    3380    3363+
+           3378    4196    4213    4197
CTETRA      1416       3    2274    2373    2275    2406    3575    2865+
+           2490    4208    3086    3085
CTETRA      1417       3      60     209      61    1529    1958    1962+
+            773    1818    4401    1817
CTETRA      1418       3      59     207     208    1526    1956    1957+
+           1955    1820    4446    3888
CTETRA      1419       3    2407    2420    2417    2450    3361    3181+
+           3171    3710    3709    4412
CTETRA      1420       3    1512    1513    1516    2372    1682    1691+
+           1690    3382    3816    3370
CTETRA      1421       3     202     203    2344    2362    1942    3453+
+           3452    4447    3455    3454
CTETRA      1422       3    1522    1523    2413    2416    1706    3175+
+           4448    4449    3166    3114
CTETRA      1423       3      62    1535    1532    2435    1814    1736+
+           1815    4450    3785    3963
CTETRA      1424       3     210    2430     241    2435    3898    3905+
+           2054    3900    3788    4339
CTETRA      1425       3     182     213    2443    2445    1975    4451+
+           4452    4453    4353    4126
CTETRA      1426       3     273    2428     274    2445    3243    4313+
+           2154    4037    3403    3892
CTETRA      1427       3    1531    1535    1534    2435    1735    1734+
+           1733    3886    3785    3795
CTETRA      1428       3     241    2428     242    2435    4338    4454+
+           2059    4339    4336    4455
CTETRA      1429       3     182    2443     808    2445    4452    3642+
+           4456    4453    4126    3773
CTETRA      1430       3     211    1535    2435    2445    4457    3785+
+           4458    4459    3786    3787
CTETRA      1431       3    1509    1510    2372    2441    1675    3353+
+           3700    3814    3354    3356
CTETRA      1432       3     673    2373    2415    2451    3579    3340+
+           3926    4193    4082    3968
CTETRA      1433       3    2275    2374    2404    2407    2867    3107+
+           3079    3087    3350    3349
CTETRA      1434       3     206     237    2416    2420    2042    3179+
+           3165    3168    3180    3156
CTETRA      1435       3    2368    2409    2372    2441    3379    3375+
+           3366    3367    3815    3356
CTETRA      1436       3    2406    2407    2409    2419    3088    3377+
+           4413    3921    3581    3384
CTETRA      1437       3     238     239    2413    2421    2050    4460+
+           3182    3184    4379    3185
CTETRA      1438       3     239    2413    2421    2430    4460    3185+
+           4379    4461    3894    3264
CTETRA      1439       3    1516    1519    2419    2420    1698    3154+
+           3368    3371    3155    3157
CTETRA      1440       3      36     186      37    2345    1890    1889+
+            797    4234    4462    4232
CTETRA      1441       3     238    2416    2417    2421    3183    3172+
+           4463    3184    3163    3811
CTETRA      1442       3    2265    2361    2360    2367    2843    2822+
+           3217    2844    2835    2834
CTETRA      1443       3     196     227     197    2447    2012    2016+
+           1924    4464    4408    4407
CTETRA      1444       3    1495    2328    2327    2330    2686    2688+
+           2685    2691    2693    2704
CTETRA      1445       3     238     269     270    2421    2137    2142+
+           2141    3184    4465    3265
CTETRA      1446       3     495    1238     496    2390    4466    4467+
+            829    4299    3947    4380
CTETRA      1447       3     237     269     238    2417    2138    2137+
+           2047    3178    4468    4463
CTETRA      1448       3     227    2319     228    2447    4354    4355+
+           2017    4408    3426    4409
CTETRA      1449       3     197     228    2329    2447    2015    4469+
+           3906    4407    4409    3914
CTETRA      1450       3    2319    2325    2321    2447    3497    3498+
+           2681    3426    4439    3427
CTETRA      1451       3    1492    2329    2330    2423    4470    2692+
+           3915    3917    3910    3188
CTETRA      1452       3    1492    1493    2329    2423    1636    3907+
+           4470    3917    3911    3910
CTETRA      1453       3    1498    1502    1501    2327    1658    1657+
+           1656    2683    4026    3673
CTETRA      1454       3    2321    2384    2347    2447    4471    2920+
+           2897    3427    4444    4024
CTETRA      1455       3    1515    1519    1518    2419    1697    1696+
+           1695    4123    3154    3705
CTETRA      1456       3     196    2423    2347    2447    4472    3501+
+           4473    4464    4025    4024
CTETRA      1457       3     296    2410    2358    2442    3629    3806+
+           3631    4474    4132    3393
CTETRA      1458       3     268     287    2417    2450    1878    3122+
+           4475    4476    4410    4412
CTETRA      1459       3    2359    2362    2368    2457    2823    3638+
+           2840    4195    4214    4196
CTETRA      1460       3    2297    2358    2359    2410    3624    2817+
+           2837    3102    3806    3628
CTETRA      1461       3    2275    2373    2374    2407    2865    2868+
+           2867    3087    3089    3350
CTETRA      1462       3    2264    2294    2269    2322    3436    2567+
+           2816    2803    2666    2815
CTETRA      1463       3    2296    2411    2427    2442    3129    3343+
+           3730    3394    4133    3732
CTETRA      1464       3    2309    2311    2357    2448    2622    3438+
+           3524    4086    3556    3537
CTETRA      1465       3     251    2309    2357    2448    3525    3524+
+           3523    4241    4086    3537
CTETRA      1466       3     218    2309     219    2316    4477    4478+
+           1990    4479    4480    4481
CTETRA      1467       3     219    2309     220    2312    4478    4084+
+           1993    4482    2623    4083
CTETRA      1468       3    2309    2313    2316    2402    3219    2653+
+           4480    3220    3222    4239
CTETRA      1469       3    2309    2313    2312    2316    3219    2626+
+           2623    4480    2653    2645
CTETRA      1470       3     223     254    2317    2396    2093    4483+
+           2647    4003    3727    3716
CTETRA      1471       3     220     221    2446    2448    1996    4287+
+           4247    4085    4288    3562
CTETRA      1472       3    2315    2446    2401    2448    3561    3425+
+           4246    3558    3562    4245
CTETRA      1473       3     222     223    2395    2396    2002    3632+
+           3681    3726    4003    3041
CTETRA      1474       3     221     222    2401    2448    1999    3684+
+           3729    4288    4244    4245
CTETRA      1475       3     201     232    2362    2366    2027    4484+
+           4485    4486    4487    3623
CTETRA      1476       3     230    2360    2328    2424    4488    3191+
+           4489    4490    3194    3193
CTETRA      1477       3    2342    2367    2344    2368    3634    3444+
+           2747    3637    3636    3365
CTETRA      1478       3     231    2360     263    2366    4491    3619+
+           2121    4492    2833    4493
CTETRA      1479       3     263    2360    2362    2366    3619    2824+
+           3614    4493    2833    3623
CTETRA      1480       3    2342    2343    2344    2367    2744    2748+
+           2747    3634    3443    3444
CTETRA      1481       3     667    2327    2299    2333    3661    3666+
+           3416    3662    2706    2700
CTETRA      1482       3     198    1499    1496    2328    3206    1652+
+           3469    3207    3209    4144
CTETRA      1483       3     667    1084    1083    2327    1212    1213+
+           1205    3661    3660    2912
CTETRA      1484       3    2372    2409    2407    2419    3375    3377+
+           3357    3369    3384    3581
CTETRA      1485       3     234    2362     265    2457    4211    4494+
+           2126    4212    4214    4326
CTETRA      1486       3     236    2450    2371    2457    4220    4221+
+           4215    4218    4495    4213
CTETRA      1487       3    2362    2371    2368    2457    3457    3380+
+           3638    4214    4213    4196
CTETRA      1488       3     216    2402    2345    2439    4496    4094+
+           4432    4433    3475    3491
CTETRA      1489       3    1060    2301    2364    2434    4183    3338+
+           4184    4190    3339    3309
CTETRA      1490       3    1450    1451    2337    2443    1547    4497+
+           4342    4498    4499    4429
CTETRA      1491       3     183     214    2337    2443    1972    4427+
+           4119    4500    4428    4429
CTETRA      1492       3      35     184    1454    2337    1883    3467+
+           1868    4118    4120    2719
CTETRA      1493       3     215     216    2337    2440    1981    4397+
+           4396    4501    4502    4426
CTETRA      1494       3    2262    2354    2350    2363    3712    2988+
+           2776    3859    3311    2979
CTETRA      1495       3     671    2274     672    2293    4140    4503+
+            682    3977    4136    4504
CTETRA      1496       3    1273    2278    2281    2324    3094    2562+
+           3548    4001    3998    4000
CTETRA      1497       3    1272    2278    1273    2324    3095    3094+
+           1350    4505    3998    4001
CTETRA      1498       3     512    2278    1272    2324    2536    3095+
+           4506    4507    3998    4505
CTETRA      1499       3    2267    2296    2275    2374    3502    3125+
+           2576    3728    3128    2867
CTETRA      1500       3     512     535    2288    2324     947    4508+
+           2538    4507    4509    4510
CTETRA      1501       3     187     218    2316    2402    1985    4479+
+           4236    4238    4511    4239
CTETRA      1502       3    2313    2345    2316    2402    2753    2752+
+           2653    3222    4094    4239
CTETRA      1503       3     218    2309    2316    2402    4477    4480+
+           4479    4511    3220    4239
CTETRA      1504       3     218     249    2309    2402    2078    4305+
+           4477    4511    3065    3220
CTETRA      1505       3    2259    2266    2265    2299    2472    2474+
+           2471    2937    2585    3758
CTETRA      1506       3     188     189    1466    2312    1900    3647+
+           2643    2641    4512    2642
CTETRA      1507       3    2309    2310    2402    2403    2620    3221+
+           3220    3528    3232    3068
CTETRA      1508       3     189    2312     220    2446    4512    4083+
+           1991    4513    3560    4247
CTETRA      1509       3     691     692    2425    2426     701    3596+
+           4065    4434    4294    3226
CTETRA      1510       3    1464    2314    1059    2426    4514    3590+
+           3602    3601    3227    3604
CTETRA      1511       3    1461    1064    1063    2426    3606    1114+
+           4515    3599    3605    4516
CTETRA      1512       3     690     691    1239    2387     702    1440+
+           1441    2960    4063    4198
CTETRA      1513       3    1461    1063    2302    2426    4515    2598+
+           3597    3599    4516    3600
CTETRA      1514       3    2301    2337    2365    2443    3330    3329+
+           3328    3395    4429    4176
CTETRA      1515       3     690    2302    2363    2364    2596    3737+
+           2957    4103    4098    2827
CTETRA      1516       3    1504    1507    2342    2344    1670    3821+
+           2743    2746    3825    2747
CTETRA      1517       3     201     233     202    2362    2031    2030+
+           1939    4485    4517    4447
CTETRA      1518       3     200     232     201    2366    2028    2027+
+           1936    3464    4487    4486
CTETRA      1519       3     690    2363     691    2387    2957    4201+
+            702    2960    2959    4063
CTETRA      1520       3    2305    2375    2377    2393    2871    2879+
+           2885    3987    3014    3013
CTETRA      1521       3    1238    1241    1240    2390    1287    1286+
+           1285    3947    4072    4518
CTETRA      1522       3    1235    1237    2336    2369    1279    3942+
+           3943    4015    4019    4008
CTETRA      1523       3     554    2284     556    2377    4519    3686+
+           1024    4520    3006    3685
CTETRA      1524       3     238    2417     269    2421    4463    4468+
+           2137    3184    3811    4465
CTETRA      1525       3    1527    1530    1078    2436    1723    4521+
+           3969    3918    3769    3827
CTETRA      1526       3    1519    2416    1522    2418    3152    4449+
+           1705    3711    3151    3930
CTETRA      1527       3     271    2421     289    2429    3262    3267+
+           2257    3247    3263    4522
CTETRA      1528       3     716     717    1515    1073     761    1790+
+           1789    1194    1197    4121
CTETRA      1529       3     671    1081    2406    2409    1198    3920+
+           4523    3099    4524    4413
CTETRA      1530       3     207     238     239    2413    2045    2050+
+           2049    3174    3182    4460
CTETRA      1531       3    2275    2405    2408    2409    3082    3584+
+           3097    3100    3376    3101
CTETRA      1532       3     298    2411    2427    2429    4403    3343+
+           3241    3242    3345    3239
CTETRA      1533       3     239    2421     271    2430    4379    3262+
+           2144    4461    3264    3248
CTETRA      1534       3    2404    2405    2407    2450    3083    3358+
+           3349    4525    3708    3710
CTETRA      1535       3    1512    1073    1086    2409    4122    1224+
+           4284    3381    4526    4527
CTETRA      1536       3     265    2359     286    2457    4028    3625+
+           2252    4326    4195    4306
CTETRA      1537       3     287    2411     288    2417    3121    3347+
+           2185    3122    3124    4528
CTETRA      1538       3     297    2411    2410    2442    4405    3120+
+           4529    4406    4133    4132
CTETRA      1539       3    2319    2331    2358    2424    3202    3213+
+           3212    4230    3215    3216
CTETRA      1540       3     283    2319    2358    2424    4530    3212+
+           4531    4532    4230    3216
CTETRA      1541       3     282    2318    2319    2320    4533    2655+
+           3254    4534    2659    2658
CTETRA      1542       3     283    2318     295    2358    4535    4536+
+           2168    4531    3211    4537
CTETRA      1543       3     295    2358    2318    2442    4537    3211+
+           4536    3767    3393    4431
CTETRA      1544       3     258    2320    2319    2325    4435    2658+
+           3253    4278    2676    3497
CTETRA      1545       3    2294    2318    2319    2331    2656    2655+
+           2654    3496    3210    3202
CTETRA      1546       3    2311    2357    2348    2403    3438    2807+
+           3230    3233    3527    3234
CTETRA      1547       3    1267    2273    1269    2280    2754    2560+
+           1344    3026    2503    3574
CTETRA      1548       3    1480    2341    1483    2346    4173    4163+
+           1614    4162    2761    2767
CTETRA      1549       3     696    2259    2258    2340    3137    2458+
+           3136    3521    3520    2737
CTETRA      1550       3     278    2357    2403    2438    3545    3527+
+           3973    4304    3551    3327
CTETRA      1551       3     697    1251    2260    2379    1428    3962+
+           3141    2894    3409    3143
CTETRA      1552       3    2258    2264    2356    2399    2932    2934+
+           2933    3717    3718    4075
CTETRA      1553       3     189     220     221    2446    1991    1996+
+           1995    4513    4247    4287
CTETRA      1554       3    2329    2330    2423    2447    2692    3188+
+           3910    3914    3913    4025
CTETRA      1555       3     202    1508    1505    2344    4538    1673+
+           3449    3452    4539    3440
CTETRA      1556       3     283    2319    2318    2358    4530    2655+
+           4535    4531    3212    3211
CTETRA      1557       3    1492    2329    1495    2330    4470    2689+
+           1642    3915    2692    2691
CTETRA      1558       3    1492    2330    1495    2422    3915    2691+
+           1642    3916    3187    4540
CTETRA      1559       3    2259    2299    2332    2333    2937    2697+
+           3432    3504    2700    2702
CTETRA      1560       3      34      35    1451    2337     799    1869+
+           1870    4541    4118    4497
CTETRA      1561       3     216     217    2345    2402    1984    4542+
+           4432    4496    4543    4094
CTETRA      1562       3     689    1060    2364    2434    1091    4184+
+           4544    3283    4190    3309
CTETRA      1563       3    2299    2330    2327    2367    2694    2704+
+           3666    3197    3199    3459
CTETRA      1564       3    1452    1060    1061    2301    4182    1092+
+           3954    3481    4183    4022
CTETRA      1565       3     216    2402    2439    2440    4496    3475+
+           4433    4502    3477    3336
CTETRA      1566       3    1450    2337    2301    2443    4342    3330+
+           4341    4498    4429    3395
CTETRA      1567       3     689    2363    2352    2364    2956    2828+
+           3281    4544    2827    2826
CTETRA      1568       3    2263    2276    2277    2369    2785    2563+
+           2984    3857    2849    2851
CTETRA      1569       3    2348    2351    2354    2438    2790    2793+
+           2792    3550    3725    3325
CTETRA      1570       3    1476    1069    2399    2400    3735    4256+
+           3851    4166    4156    3055
CTETRA      1571       3    2315    2355    2323    2398    3609    2798+
+           3046    3048    3611    3049
CTETRA      1572       3     695    2258    2399    2400    3132    3717+
+           4079    4153    4155    3055
CTETRA      1573       3    2315    2397    2396    2401    3047    3045+
+           3845    4246    3064    4165
CTETRA      1574       3    1237    1239    2338    2387    1284    3946+
+           3941    3158    4198    3939
CTETRA      1575       3     519     541    2392    2449     966    3694+
+           4378    3937    3695    3697
CTETRA      1576       3     493    2334     515    2339    4394    4291+
+            888    4395    2736    4293
CTETRA      1577       3    2298    2368    2342    2408    3582    3637+
+           3635    3583    3585    3807
CTETRA      1578       3    2374    2429    2412    2431    3344    4125+
+           3108    3321    3258    3748
CTETRA      1579       3     294     295    2318    2322    2204    4536+
+           4438    3764    3765    3837
CTETRA      1580       3     291    2427     298    2442    4142    3241+
+           2183    3777    3732    4404
CTETRA      1581       3     282     295     283    2318    2206    2168+
+           2207    4533    4536    4535
CTETRA      1582       3    2353    2374    2388    2431    3320    3746+
+           3316    3261    3321    3317
CTETRA      1583       3    2412    2421    2414    2429    3162    3164+
+           3161    4125    3263    3298
CTETRA      1584       3    2428    2430    2429    2431    4337    3249+
+           3240    3257    3300    3258
CTETRA      1585       3     524    2305    2306    2307    4138    2608+
+           4137    2922    2612    2611
CTETRA      1586       3    2279    2282    2281    2324    2997    2512+
+           3090    3999    4017    4000
CTETRA      1587       3    2272    2290    2303    2377    2543    2600+
+           2599    2877    4368    2878
CTETRA      1588       3    1521    1524    1080    2415    1709    4545+
+           3933    3928    4546    3931
CTETRA      1589       3     669    1085     670    2441    1227    1222+
+            686    3834    3831    3819
CTETRA      1590       3     263     285     264    2359    2175    2254+
+           2125    3612    4029    3613
CTETRA      1591       3    2404    2410    2405    2450    3104    3103+
+           3083    4525    4411    3708
CTETRA      1592       3    1509    1513    1512    2372    1683    1682+
+           1681    3700    3816    3382
CTETRA      1593       3     214     215    2337    2440    1978    4396+
+           4427    4425    4501    4426
CTETRA      1594       3     241     272    2428    2430    2146    3244+
+           4338    3905    3250    4337
CTETRA      1595       3     213    2432    2443    2445    4547    4178+
+           4451    4353    4335    4126
CTETRA      1596       3     213    2432     214    2443    4547    4548+
+           1974    4451    4178    4428
CTETRA      1597       3     807    1537     808    2437    1808    1809+
+            811    3639    3656    3640
CTETRA      1598       3     182    1538     212    2445    4549    2632+
+           1971    4453    3774    4550
CTETRA      1599       3       1     182      34     808    1882    1880+
+            800     812    4456    1872
CTETRA      1600       3    2310    2381    2363    2439    3722    3314+
+           3738    3474    3334    4095
CTETRA      1601       3      34     183    2337    2443    1879    4119+
+           4541    4551    4500    4429
CTETRA      1602       3     667     644    2299    2379     684    4229+
+           3416    3414    2892    3140
CTETRA      1603       3    1246    1247    2376    2454    1298    3992+
+           4552    4553    4078    4199
CTETRA      1604       3    2267    2275    2270    2276    2576    2489+
+           2574    3385    2493    2492
CTETRA      1605       3     280     281    2317    2320    2220    4226+
+           3530    3763    4248    2660
CTETRA      1606       3      41    1472    1469    2446    1856    1589+
+           1857    3423    4286    4107
CTETRA      1607       3     295     296    2358    2442    2160    3631+
+           4537    3767    4474    3393
CTETRA      1608       3     219    2309    2312    2316    4478    2623+
+           4482    4481    4480    2645
CTETRA      1609       3     188     219    2312    2316    1988    4482+
+           2641    2644    4481    2645
CTETRA      1610       3    1471    1472    1475    2401    1587    1596+
+           1595    4250    4285    3062
CTETRA      1611       3     241     271     272    2430    2147    2148+
+           2146    3905    3248    3250
CTETRA      1612       3    2262    2356    2264    2425    3145    2934+
+           2469    3713    4058    3553
CTETRA      1613       3    1530    1533    1076    2436    1730    3810+
+           4554    3769    3790    4356
CTETRA      1614       3     272    2429    2428    2430    3245    3240+
+           3244    3250    3249    4337
CTETRA      1615       3     274    2427    2380    2428    4312    4151+
+           4311    4313    3236    3800
CTETRA      1616       3    1525    2415    2413    2452    4555    3113+
+           3879    3881    3885    3882
CTETRA      1617       3     674    2281    2373    2388    3252    3576+
+           3580    4080    2965    3812
CTETRA      1618       3     282    2318     283    2319    4533    4535+
+           2207    3254    2655    4530
CTETRA      1619       3     261    2358    2360    2424    4556    2819+
+           4557    4558    3216    3194
CTETRA      1620       3      50     198     199    1499    1929    1930+
+           1928    1838    3206    3205
CTETRA      1621       3    2258    2259    2321    2340    2458    3431+
+           2739    2737    3520    2738
CTETRA      1622       3    2389    2431    2436    2437    3305    3291+
+           3789    3306    3308    3791
CTETRA      1623       3    2374    2412    2388    2431    3108    3749+
+           3746    3321    3748    3317
CTETRA      1624       3     189     221     190    2446    1995    1994+
+           1903    4513    4287    3424
CTETRA      1625       3     296    2359    2358    2410    3626    2817+
+           3631    3629    3628    3806
CTETRA      1626       3     247     277    2402    2440    2247    3066+
+           4559    4560    4302    3477
CTETRA      1627       3    2265    2266    2296    2297    2474    2578+
+           2577    2581    2580    3126
CTETRA      1628       3     192     224     193    2395    2004    2003+
+           1912    3755    3633    3756
CTETRA      1629       3    2321    2325    2326    2384    3498    2680+
+           2757    4471    4443    4167
CTETRA      1630       3     239     271     240    2430    2144    2143+
+           2053    4461    3248    3904
CTETRA      1631       3     196    2384     226    2447    4561    4442+
+           2013    4464    4444    4441
CTETRA      1632       3     271     289     272    2429    2257    2198+
+           2148    3247    4522    3245
CTETRA      1633       3     193    2326    2384    2395    4251    4167+
+           4253    3756    4168    4169
CTETRA      1634       3     193     224     225    2326    2003    2008+
+           2007    4251    4257    4252
CTETRA      1635       3     225    2326     226    2384    4252    4445+
+           2011    4254    4167    4442
CTETRA      1636       3     505    1258    2291    2308    2901    2904+
+           2903    4562    3956    2928
CTETRA      1637       3    2298    2361    2367    2368    2842    2835+
+           2845    3582    2841    3636
CTETRA      1638       3     501    1250     502    2386    4563    4564+
+            847    4282    4231    4351
CTETRA      1639       3     644    2259     697    2333    4565    3142+
+            705    4227    3504    3503
CTETRA      1640       3     561    2303    2305    2307    4384    2609+
+           2963    4383    2610    2612
CTETRA      1641       3     499    1246    2376    2454    4566    4552+
+           4043    4271    4553    4199
CTETRA      1642       3     695    2258     696    2260    3132    3136+
+            704    3133    2460    3138
CTETRA      1643       3    2387    2390    2391    2455    3865    2999+
+           3858    3878    3872    3874
CTETRA      1644       3     644     697    2259    2379     705    3142+
+           4565    2892    2894    3144
CTETRA      1645       3    2258    2259    2294    2321    2458    3430+
+           3433    2739    3431    2662
CTETRA      1646       3     193    1484    1481    2395    4567    1617+
+           3753    3756    4568    3757
CTETRA      1647       3    1473    1071    1072    2398    4569    1156+
+           4570    4571    3848    3849
CTETRA      1648       3    1480    2395    2341    2400    3075    3040+
+           4173    3078    3077    4172
CTETRA      1649       3     193     194    1484    2384    1915    4572+
+           4567    4253    4573    4171
CTETRA      1650       3     194     195    1487    2384    1918    4574+
+           4575    4573    4576    2919
CTETRA      1651       3     195     226     196    2384    2009    2013+
+           1921    4576    4442    4561
CTETRA      1652       3    2321    2341    2347    2384    2742    2764+
+           2897    4471    4164    2920
CTETRA      1653       3    2321    2347    2332    2447    2897    2896+
+           2895    3427    4024    3428
CTETRA      1654       3     228     229    2329    2424    2020    4186+
+           4469    4577    4187    3196
CTETRA      1655       3    2359    2362    2361    2368    2823    2825+
+           2821    2840    3638    2841
CTETRA      1656       3    2269    2318    2358    2442    3836    3211+
+           3392    3387    4431    3393
CTETRA      1657       3     197     229     198    2329    2019    2018+
+           1927    3906    4186    4578
CTETRA      1658       3     232     263    2362    2366    2120    3614+
+           4484    4487    4493    3623
CTETRA      1659       3    1491    1492    1495    2422    1633    1642+
+           1641    4579    3916    4540
CTETRA      1660       3    1494    1497    1084    2327    1646    3734+
+           3733    2682    2684    3660
CTETRA      1661       3    2279    2324    2288    2339    3999    4510+
+           2527    3577    4018    4580
CTETRA      1662       3     696     697    2259    2382     703    3142+
+           3137    3522    3505    3507
CTETRA      1663       3    1501    1505    1504    2343    1665    1664+
+           1663    3675    3439    2745
CTETRA      1664       3     535    2288    2324    2339    4508    4510+
+           4509    4389    4580    4018
CTETRA      1665       3    1491    1495    1494    2422    1641    1640+
+           1639    4579    4540    3664
CTETRA      1666       3    1488    2382    1489    2422    3510    2909+
+           1626    3511    3513    3761
CTETRA      1667       3    2277    2336    2349    2350    3565    3862+
+           2861    2862    4016    2778
CTETRA      1668       3     499     500     522    2456     841     909+
+            908    4044    4068    4581
CTETRA      1669       3     644     697    1068    2333     705    1130+
+           1129    4227    3503    4033
CTETRA      1670       3    1267    2274    2273    2293    2755    2495+
+           2754    3024    4136    3315
CTETRA      1671       3    2298    2299    2300    2383    3801    2589+
+           3804    3838    3667    3844
CTETRA      1672       3     546    2283    2290    2304    2517    3270+
+           3269    4400    4318    2605
CTETRA      1673       3     564    2304     565    2307    3721    2617+
+            818    4582    2619    2618
CTETRA      1674       3    1263    2293    1265    2394    3979    3978+
+           1336    4203    3028    4207
CTETRA      1675       3    2267    2276    2353    2374    3385    2787+
+           2978    3728    2869    3320
CTETRA      1676       3     674    2281    2274    2373    3252    2518+
+           3251    3580    3576    3575
CTETRA      1677       3     643    2370    2282    2389    2977    2853+
+           2974    4179    2970    2967
CTETRA      1678       3      52    1502     200    1505    1835    3461+
+           1935    1834    1666    4583
CTETRA      1679       3     555    2285    2284    2286    4390    2523+
+           4398    4392    4004    4131
CTETRA      1680       3     732     733    1467    1059     749    1758+
+           1757    1146    1116    3587
CTETRA      1681       3     732    1059    1467    1070    1146    3587+
+           1757    1147    1144    3586
CTETRA      1682       3     714     715    1521    1079     762    1794+
+           1793    1192    1202    4584
CTETRA      1683       3    1518    1521    1079    2418    1702    4584+
+           4585    3702    3929    4586
CTETRA      1684       3      36      37    1457    2345     797    1865+
+           1866    4234    4232    3493
CTETRA      1685       3    1464    1465    1468    2314    1570    1579+
+           1578    4514    3608    2634
CTETRA      1686       3    1465    2302    2313    2314    4110    3470+
+           2651    3608    4099    2630
CTETRA      1687       3    1238    1239    1241    2390    1282    1288+
+           1287    3947    3948    4072
CTETRA      1688       3     689    2352    2363    2369    3281    2828+
+           2956    3282    2863    2980
CTETRA      1689       3    2334    2338    2336    2339    2730    2732+
+           2715    2736    2735    2955
CTETRA      1690       3     459     505     504    1256     857     856+
+            855    1380    4587    4588
CTETRA      1691       3    2271    2290    2283    2291    2544    3270+
+           4364    2545    2547    4316
CTETRA      1692       3     504     505     527    2308     856     924+
+            923    4589    4562    4422
CTETRA      1693       3     451     513     512    1272     881     880+
+            879    1396    4590    4506
CTETRA      1694       3     697    1253    1251    2379    1427    1312+
+           1428    2894    2893    3409
CTETRA      1695       3     692    1059    2314    2426    1110    3590+
+           3593    4294    3604    3227
CTETRA      1696       3     451     512     452    1272     879     878+
+            664    1396    4506    1397
CTETRA      1697       3     731     732    1470    1070     750    1760+
+           1759    1148    1147    3591
CTETRA      1698       3    2264    2323    2355    2399    2794    2798+
+           2797    3718    3052    4074
CTETRA      1699       3     511     512     534    2288     877     945+
+            944    2530    2538    3799
CTETRA      1700       3     451     513    1272    1274     881    4590+
+           1396    1399    4591    1353
CTETRA      1701       3     713     714    1524    1080     760    1796+
+           1795    1193    1191    4545
CTETRA      1702       3     714    1521    1524    1080    1793    1709+
+           1796    1191    3933    4545
CTETRA      1703       3    1524    1074    1080    2415    4592    1188+
+           4545    4546    4192    3931
CTETRA      1704       3     523     524     545    2305     913     980+
+            978    4273    4138    4274
CTETRA      1705       3    1464    1467    1059    2314    1576    3587+
+           3602    4514    3588    3590
CTETRA      1706       3     207     238    2413    2416    2045    3182+
+           3174    3177    3183    3114
CTETRA      1707       3    1516    1520    1519    2420    1700    1699+
+           1698    3371    3159    3155
CTETRA      1708       3    2365    2433    2370    2434    3279    3303+
+           3322    3310    3965    3743
CTETRA      1709       3    1057    2301    1061    2434    2595    4022+
+           1094    4191    3339    4189
CTETRA      1710       3     502    1252     503    2378    4348    4593+
+            850    4350    4349    4594
CTETRA      1711       3     500     501     522    2456     844     911+
+            909    4068    4283    4581
CTETRA      1712       3     544     545     557    2305     976    1017+
+           1016    4275    4274    2961
CTETRA      1713       3     459     505    1256    1258     857    4587+
+           1380    1383    2901    1321
CTETRA      1714       3     460     504     503    1254     854     853+
+            852    1378    4595    3286
CTETRA      1715       3     503     504     526    2378     853     921+
+            920    4594    4596    4347
CTETRA      1716       3     242     273     243    2445    2149    2153+
+           2062    4597    4037    3891
CTETRA      1717       3     274     290    2427    2428    2194    3235+
+           4312    4313    3237    3236
CTETRA      1718       3     273     289     290    2429    2197    2196+
+           2193    3246    4522    3238
CTETRA      1719       3     510    1268     511    2289    3030    3135+
+            874    3031    3033    2532
CTETRA      1720       3    1270    1271    1273    2278    1346    1352+
+           1351    3093    3572    3094
CTETRA      1721       3     453     511    1268    1270     875    3135+
+           1392    1395    4263    1345
CTETRA      1722       3    1268    1271    1270    2278    1347    1346+
+           1345    4264    3572    3093
CTETRA      1723       3     524     563    2305    2307     981    2962+
+           4138    2922    2924    2612
CTETRA      1724       3     738    1449    1452    1061    1744    1539+
+           1748    1095    4021    3954
CTETRA      1725       3     737    1452    1455    1060    1747    1548+
+           1750    1098    4182    4598
CTETRA      1726       3    1455    1062    1060    2364    4100    1101+
+           4598    3486    4101    4184
CTETRA      1727       3    2376    2391    2393    2454    4047    3698+
+           3988    4199    3871    3876
CTETRA      1728       3     521     522     544    2456     907     975+
+            974    4045    4581    4280
CTETRA      1729       3    1256    1259    1258    2308    1323    1322+
+           1321    3295    3297    3956
CTETRA      1730       3     197     198    1493    2329    1927    4599+
+           3908    3906    4578    3907
CTETRA      1731       3     695    2260    1249    2356    3133    3967+
+           1431    3134    2800    3991
CTETRA      1732       3     716    1515    1518    1081    1789    1695+
+           1792    1196    4600    3704
CTETRA      1733       3    1465    1466    1469    2312    1573    1582+
+           1581    2650    2642    4106
CTETRA      1734       3    1462    1466    1465    2316    1574    1573+
+           1572    4097    2646    2652
CTETRA      1735       3     454     509     455    1266     870     869+
+            661    1390    3035    1391
CTETRA      1736       3     197    2329    2423    2447    3906    3910+
+           3909    4407    3914    4025
CTETRA      1737       3     198     229    2328    2329    2018    4185+
+           3207    4578    4186    2690
CTETRA      1738       3    1473    1474    1477    2398    1591    1600+
+           1599    4571    3058    3059
CTETRA      1739       3     695    2399    1069    2400    4079    4256+
+           1139    4153    3055    4156
CTETRA      1740       3     554     555    2284    2286    1028    4398+
+           4519    4601    4392    4131
CTETRA      1741       3    1473    1476    1071    2398    1597    3736+
+           4569    4571    3850    3848
CTETRA      1742       3     226     257     227    2325    2102    2106+
+           2014    4440    2677    4277
CTETRA      1743       3     554     556     557    2377    1024    1019+
+           1023    4520    3685    4372
CTETRA      1744       3     694     695    1247    2356     706    1432+
+           1433    4050    3134    3990
CTETRA      1745       3    1479    1065    1069    2346    4266    1141+
+           4158    4157    4013    4012
CTETRA      1746       3    1476    1479    1069    2400    1604    4158+
+           3735    4166    4159    4156
CTETRA      1747       3     729     730    1476    1071     752    1764+
+           1763    1152    1153    3736
CTETRA      1748       3     459     504     460    1256     855     854+
+            656    1380    4588    1381
CTETRA      1749       3     461     503     502    1252     851     850+
+            849    1376    4593    4348
CTETRA      1750       3     460     504    1254    1256     854    4595+
+           1378    1381    4588    1317
CTETRA      1751       3     502     503     525    2378     850     918+
+            917    4350    4594    4346
CTETRA      1752       3     274     290     275    2427    2194    2192+
+           2195    4312    3235    4141
CTETRA      1753       3    1525    1528    2415    2452    1719    4111+
+           4555    3881    3934    3885
CTETRA      1754       3     289     298     290    2429    2200    2189+
+           2196    4522    3242    3238
CTETRA      1755       3    2373    2374    2407    2412    2868    3350+
+           3089    3341    3108    3170
CTETRA      1756       3    1459    1463    1462    2313    1567    1566+
+           1565    3489    2750    4096
CTETRA      1757       3      38    1463    1460    2345    1862    1568+
+           1863    4602    2751    4233
CTETRA      1758       3      38      39    1463    2316     795    1861+
+           1862    4603    4604    2749
CTETRA      1759       3    1516    1517    1520    2420    1692    1701+
+           1700    3371    4605    3159
CTETRA      1760       3      56     205      57    1517    1946    1950+
+            777    1826    3372    1825
CTETRA      1761       3      57    1517     205    1520    1825    3372+
+           1950    1824    1701    4606
CTETRA      1762       3     735     736    1458    1062     740    1752+
+           1751    1100    1099    3293
CTETRA      1763       3     554     560     555    2286    1047    1048+
+           1028    4601    4366    4392
CTETRA      1764       3    1480    1484    2384    2395    1616    4171+
+           4170    3075    4568    4169
CTETRA      1765       3    1486    1490    1489    2347    1630    1629+
+           1628    2769    3902    2907
CTETRA      1766       3    1259    1261    2291    2385    1328    4128+
+           3955    3957    4129    2929
CTETRA      1767       3    1489    1492    2422    2423    1635    3916+
+           3761    3499    3917    3190
CTETRA      1768       3     228     259     260    2319    2108    2113+
+           2112    4355    3255    4607
CTETRA      1769       3     198    1496    1493    2329    3469    1645+
+           4599    4578    4145    3907
CTETRA      1770       3    1266    1269    1268    2280    1343    1342+
+           1341    4358    3574    4265
CTETRA      1771       3      44    1478     192    1481    1851    4276+
+           1911    1850    1610    3754
CTETRA      1772       3     511     533     532    2289     942     940+
+            941    2532    2534    4608
CTETRA      1773       3     454     510    1266    1268     872    3029+
+           1390    1393    3030    1341
CTETRA      1774       3    1268    1269    1271    2278    1342    1348+
+           1347    4264    2559    3572
CTETRA      1775       3     546     548     559    2290    1039    1040+
+           1038    3269    3271    2602
CTETRA      1776       3     720    1503    1506    1087    1781    1667+
+           1784    1233    3823    3420
CTETRA      1777       3    1503    2342    1082    2343    3820    4148+
+           3495    4135    2744    3670
CTETRA      1778       3    1506    1085    1087    2441    4609    1229+
+           3420    4143    3831    3835
CTETRA      1779       3     667     668    2300    2383     683    3841+
+           3412    4228    3842    3844
CTETRA      1780       3     520     521     543    2393     904     972+
+            971    4381    4270    4268
CTETRA      1781       3     500    1246    1248    2376    3228    1301+
+           3229    3983    4552    3984
CTETRA      1782       3     498     521     520    2449     905     904+
+            903    4370    4369    3938
CTETRA      1783       3    2275    2405    2298    2408    3082    3092+
+           3091    3097    3584    3583
CTETRA      1784       3     206     236     237    2420    2043    2044+
+           2042    3168    4219    3180
CTETRA      1785       3     204     235     236    2371    2036    2041+
+           2040    4225    4216    4215
CTETRA      1786       3     266     286    2450    2457    2159    4344+
+           4343    4327    4306    4495
CTETRA      1787       3     199     230     200    2328    2021    2025+
+           1933    3208    4489    3463
CTETRA      1788       3      49     198      50    1496    1925    1929+
+            784    1840    3469    1839
CTETRA      1789       3      51    1499     199    1502    1837    3205+
+           1932    1836    1659    3747
CTETRA      1790       3     219     249     250    2309    2082    2083+
+           2081    4478    4305    4610
CTETRA      1791       3    1462    1463    1466    2316    1566    1575+
+           1574    4097    2749    2646
CTETRA      1792       3    1458    1459    1462    2302    1556    1565+
+           1564    4093    4092    4240
CTETRA      1793       3     187     218     188    2316    1985    1989+
+           1897    4236    4479    2644
CTETRA      1794       3      38    2316    1463    2345    4603    2749+
+           1862    4602    2752    2751
CTETRA      1795       3     215     247     216    2440    2073    2072+
+           1981    4501    4560    4502
CTETRA      1796       3      39    1466    1463    2316    1860    1575+
+           1861    4604    2646    2749
CTETRA      1797       3    1512    2372    1516    2419    3382    3370+
+           1690    3383    3369    3368
CTETRA      1798       3      56    1514     205    1517    1827    3373+
+           1946    1826    1694    3372
CTETRA      1799       3    1521    1525    1524    2415    1711    1710+
+           1709    3928    4555    4546
CTETRA      1800       3    1515    1518    1081    2419    1695    3704+
+           4600    4123    3705    3707
CTETRA      1801       3    1513    1517    1516    2372    1693    1692+
+           1691    3816    2859    3370
CTETRA      1802       3    1512    1516    1515    2419    1690    1689+
+           1688    3383    3368    4123
CTETRA      1803       3    2344    2368    2362    2371    3365    3638+
+           3454    3447    3380    3457
CTETRA      1804       3    1512    1073    2409    2419    4122    4526+
+           3381    3383    4124    3384
CTETRA      1805       3     717    1512    1515    1073    1787    1688+
+           1790    1197    4122    4121
CTETRA      1806       3     288    2417    2411    2421    4528    3124+
+           3347    3266    3811    3346
CTETRA      1807       3     675    1273    1271    2281    1407    1352+
+           1408    3989    3548    3573
CTETRA      1808       3     549     550     560    2287    1001    1052+
+           1049    4611    4260    4367
CTETRA      1809       3     216    2439    2337    2440    4433    3333+
+           4397    4502    3336    4426
CTETRA      1810       3     185     217     186    2345    1983    1982+
+           1891    4235    4542    4462
CTETRA      1811       3     548    2287     559    2290    4329    4360+
+           1040    3271    4362    2602
CTETRA      1812       3     218     248     249    2402    2079    2080+
+           2078    4511    4612    3065
CTETRA      1813       3     456     507     457    1262     864     863+
+            659    1386    4415    1387
CTETRA      1814       3     738    1057    1449    1061    1096    2591+
+           1744    1095    1094    4021
CTETRA      1815       3     456     508    1262    1264     866    4418+
+           1386    1389    4419    1333
CTETRA      1816       3     461     503    1252    1254     851    4593+
+           1376    1379    3286    1313
CTETRA      1817       3     462     502     501    1250     848     847+
+            846    1374    4564    4563
CTETRA      1818       3     501     502     524    2386     847     915+
+            914    4282    4351    4139
CTETRA      1819       3     228    2319    2329    2447    4355    3912+
+           4469    4409    3426    3914
CTETRA      1820       3     196    2347    1487    2384    4473    2917+
+           4613    4561    2920    2919
CTETRA      1821       3     237     268     269    2417    2135    2139+
+           2138    3178    4475    4468
CTETRA      1822       3     185     216     217    2345    1979    1984+
+           1983    4235    4432    4542
CTETRA      1823       3    1456    1460    1459    2345    1560    1559+
+           1558    3514    4233    3488
CTETRA      1824       3     217     248     218    2402    2075    2079+
+           1987    4543    4612    4511
CTETRA      1825       3    2301    2365    2433    2443    3328    3279+
+           3397    3395    4176    3396
CTETRA      1826       3    1465    1466    2312    2316    1573    2642+
+           2650    2652    2646    2645
CTETRA      1827       3     185    2337     216    2345    2717    4397+
+           1979    4235    3492    4432
CTETRA      1828       3     196     197    2423    2447    1924    3909+
+           4472    4464    4407    4025
CTETRA      1829       3     806     807    1450    2301     810    1873+
+           1875    2593    4340    4341
CTETRA      1830       3     736    1060    1455    1062    1103    4598+
+           1749    1099    1101    4100
CTETRA      1831       3     737    1452    1060    1061    1747    4182+
+           1098    1097    3954    1092
CTETRA      1832       3    1264    1267    1266    2394    1339    1338+
+           1337    4420    3027    4359
CTETRA      1833       3     535    2285    2288    2339    4387    3571+
+           4508    4389    4041    4580
CTETRA      1834       3     709    1536    1075    1077    1803    3651+
+           1165    1172    3652    1169
CTETRA      1835       3     643    2389    1075    2444    4179    3648+
+           1162    4180    3406    3646
CTETRA      1836       3     712    1527    1530    1078    1797    1723+
+           1800    1177    3969    4521
CTETRA      1837       3     711    1530    1076    1078    1799    4554+
+           1184    1182    4521    1183
CTETRA      1838       3    1244    1247    1246    2454    1299    1298+
+           1297    4614    4078    4553
CTETRA      1839       3     499    1244    1246    2454    4615    1297+
+           4566    4271    4614    4553
CTETRA      1840       3     498    2449    1242    2454    4370    4375+
+           4616    4371    3875    4377
CTETRA      1841       3     643    1075    1057    2444    1162    1161+
+           1089    4180    3646    3644
CTETRA      1842       3     671     672    2274    2406     682    4503+
+           4140    4523    3922    4208
CTETRA      1843       3     669    1087    1085    2441    1230    1229+
+           1227    3834    3835    3831
CTETRA      1844       3    1515    1081    1073    2419    4600    1195+
+           4121    4123    3707    4124
CTETRA      1845       3    2404    2417    2410    2450    4014    3123+
+           3104    4525    4412    4411
CTETRA      1846       3     198     229     199    2328    2018    2022+
+           1930    3207    4185    3208
CTETRA      1847       3     464     499     465    1246     840     839+
+            651    1370    4566    1371
CTETRA      1848       3      48     197     198    1493    1922    1927+
+           1926    1842    3908    4599
CTETRA      1849       3     228    2319     260    2424    4355    4607+
+           2112    4577    4230    4617
CTETRA      1850       3     734     735    1461    1063     742    1754+
+           1753    1105    1104    4515
CTETRA      1851       3     715    1518    1521    1079    1791    1702+
+           1794    1202    4585    4584
CTETRA      1852       3    1510    2371    1514    2372    3446    2855+
+           1686    3353    2858    2857
CTETRA      1853       3    1510    1511    1514    2371    1678    1687+
+           1686    3446    3448    2855
CTETRA      1854       3     204     234     235    2371    2037    2038+
+           2036    4225    4210    4216
CTETRA      1855       3     236     266    2450    2457    2133    4343+
+           4220    4218    4327    4495
CTETRA      1856       3      55    1511     204    1514    1829    4224+
+           1943    1828    1687    4223
CTETRA      1857       3     204     205    1514    2371    1948    3373+
+           4223    4225    3374    2855
CTETRA      1858       3     733     734    1464    1064     743    1756+
+           1755    1115    1117    3603
CTETRA      1859       3     691    1064    1059    2426    1113    1112+
+           1109    4434    3605    3604
CTETRA      1860       3     457     507    1260    1262     863    4414+
+           1384    1387    4415    1329
CTETRA      1861       3     691    1063    1064    2426    1111    1114+
+           1113    4434    4516    3605
CTETRA      1862       3    2321    2325    2384    2447    3498    4443+
+           4471    3427    4439    4444
CTETRA      1863       3    1464    2302    2314    2426    3598    4099+
+           4514    3601    3600    3227
CTETRA      1864       3    1455    1458    1062    2302    1555    3293+
+           4100    4091    4093    2597
CTETRA      1865       3     736    1455    1458    1062    1749    1555+
+           1752    1099    4100    3293
CTETRA      1866       3     457     506     458    1260     861     860+
+            658    1384    4618    1385
CTETRA      1867       3     554    2286    2284    2377    4601    4131+
+           4519    4520    4010    3006
CTETRA      1868       3     496    1240     497    2390    4619    4620+
+            832    4380    4518    4296
CTETRA      1869       3     643     688    2369    2434     698    4621+
+           2976    4333    4188    3285
CTETRA      1870       3     463     501     500    1248     845     844+
+            843    1372    4622    3229
CTETRA      1871       3     500    1248     501    2386    3229    4622+
+            844    3985    2938    4282
CTETRA      1872       3     462     502    1250    1252     848    4564+
+           1374    1377    4348    1309
CTETRA      1873       3     216     247     248    2402    2072    2077+
+           2076    4496    4559    4612
CTETRA      1874       3     507     508    2283    2394     865    4321+
+           4436    4623    4322    4324
CTETRA      1875       3    2262    2425    2387    2455    3713    3861+
+           3004    3877    4059    3878
CTETRA      1876       3     248     277     249    2402    2248    2240+
+           2080    4612    3066    3065
CTETRA      1877       3     216     248     217    2402    2076    2075+
+           1984    4496    4612    4543
CTETRA      1878       3     246     277     247    2440    2246    2247+
+           2074    4624    4302    4560
CTETRA      1879       3    1519    1523    1522    2416    1707    1706+
+           1705    3152    3166    4449
CTETRA      1880       3      59    1523     207    1526    1821    3176+
+           1956    1820    1715    4446
CTETRA      1881       3     673    1079    1080    2418    1185    1190+
+           1189    3925    4586    3932
CTETRA      1882       3     736     737    1455    1060     741    1750+
+           1749    1103    1098    4598
CTETRA      1883       3     470     494    1234    1236     824    2725+
+           1357    1361    2720    1276
CTETRA      1884       3     288     298     289    2429    2186    2200+
+           2199    3348    3242    4522
CTETRA      1885       3    1483    1487    1486    2347    1623    1622+
+           1621    2768    2917    2769
CTETRA      1886       3     196    1490    2347    2423    4625    3902+
+           4473    4472    3903    3501
CTETRA      1887       3     561     565    2303    2307    1043    2616+
+           4384    4383    2618    2610
CTETRA      1888       3     456     508     507    1262     866     865+
+            864    1386    4418    4415
CTETRA      1889       3     717     718    1512    1086     768    1788+
+           1787    1226    1225    4284
CTETRA      1890       3    1240    1243    1242    2390    1291    1290+
+           1289    4518    4035    4376
CTETRA      1891       3     496     519     518    2390     899     898+
+            897    4380    4295    4300
CTETRA      1892       3    1242    1245    1244    2454    1295    1294+
+           1293    4377    4071    4614
CTETRA      1893       3     498     520     519    2449     903     901+
+            902    4370    3938    3937
CTETRA      1894       3      46     196      47    1487    1920    1919+
+            787    1846    4613    1845
CTETRA      1895       3     497    2390    1242    2449    4296    4376+
+           4626    4297    4298    4375
CTETRA      1896       3    1459    1463    2313    2345    1567    2750+
+           3489    3488    2751    2753
CTETRA      1897       3     277     292     278    2438    2242    2232+
+           2238    4301    4423    4304
CTETRA      1898       3     249     278     250    2403    2239    2235+
+           2083    3067    3973    4430
CTETRA      1899       3     692    2425    2355    2455    3596    3554+
+           3595    4039    4059    4057
CTETRA      1900       3     202     233     203    2362    2030    2034+
+           1942    4447    4517    3455
CTETRA      1901       3    1507    2344    1510    2441    3825    3351+
+           1677    3826    3355    3354
CTETRA      1902       3     234     265     235    2457    2126    2130+
+           2038    4212    4326    4217
CTETRA      1903       3    2373    2388    2374    2412    3812    3746+
+           2868    3341    3749    3108
CTETRA      1904       3     265     286     266    2457    2252    2159+
+           2131    4326    4306    4327
CTETRA      1905       3     203     233     234    2362    2034    2035+
+           2033    3455    4517    4211
CTETRA      1906       3    2404    2407    2417    2450    3349    3171+
+           4014    4525    3710    4412
CTETRA      1907       3      47     196     197    1490    1919    1924+
+           1923    1844    4625    4255
CTETRA      1908       3     196     197    1490    2423    1924    4255+
+           4625    4472    3909    3903
CTETRA      1909       3    2405    2450    2410    2457    3708    4411+
+           3103    4197    4495    4307
CTETRA      1910       3     276    2438     277    2440    4627    4301+
+           2241    4310    3742    4302
CTETRA      1911       3     214    2432     245    2440    4548    4116+
+           2065    4425    4175    4309
CTETRA      1912       3    1453    1457    1456    2439    1553    1552+
+           1551    3479    3480    3515
CTETRA      1913       3    2337    2440    2365    2443    4426    3335+
+           3329    4429    4177    4176
CTETRA      1914       3    2371    2420    2405    2450    3364    3362+
+           3363    4221    3709    3708
CTETRA      1915       3      36     184     185    1454    1887    1888+
+           1886    1867    3467    2513
CTETRA      1916       3      38     187    2316    2345    1892    4236+
+           4603    4602    4237    2752
CTETRA      1917       3     224    2317    2326    2395    2649    2758+
+           4257    3633    3038    4168
CTETRA      1918       3     264     285     265    2359    2254    2253+
+           2128    3613    4029    4028
CTETRA      1919       3    1517    2372    2371    2420    2859    2858+
+           2856    4605    3360    3364
CTETRA      1920       3    1503    1504    1507    2342    1661    1670+
+           1669    3820    2743    3821
CTETRA      1921       3     669    2408    2342    2441    3975    3807+
+           3833    3834    3809    3808
CTETRA      1922       3     719    1506    1085    1087    1783    4609+
+           1219    1232    3420    1229
CTETRA      1923       3     667     644    1084    2333     684    1214+
+           1212    3662    4227    3663
CTETRA      1924       3    1522    1523    1526    2413    1706    1715+
+           1714    4448    3175    3880
CTETRA      1925       3    1081    2406    2409    2419    3920    4413+
+           4524    3707    3921    3384
CTETRA      1926       3     671    2406    2275    2409    4523    3085+
+           3096    3099    4413    3100
CTETRA      1927       3     713    1524    1074    1080    1795    4592+
+           1178    1193    4545    1188
CTETRA      1928       3     517     539     538    2335     960     958+
+            959    3676    3690    2729
CTETRA      1929       3     514     536     553    2285     952    1013+
+           1014    4386    2521    3567
CTETRA      1930       3     552     553     555    2285    1010    1054+
+           1053    3568    3567    4390
CTETRA      1931       3     492     535     513    2324     950     948+
+            883    2672    4509    4628
CTETRA      1932       3     262     285     263    2359    2176    2175+
+           2122    3617    4029    3612
CTETRA      1933       3     552    2285    2286    2288    3568    4004+
+           4391    3569    3571    2529
CTETRA      1934       3     251     279     252    2357    2237    2245+
+           2089    3523    3546    3533
CTETRA      1935       3     673    1080    1074    2415    1189    1188+
+           1187    3926    3931    4192
CTETRA      1936       3     536     555     553    2285    1032    1054+
+           1013    2521    4390    3567
CTETRA      1937       3     534     552     551    2288    1009    1007+
+           1008    3799    3569    2539
CTETRA      1938       3     551     552     560    2286    1007    1055+
+           1051    4365    4391    4366
CTETRA      1939       3    1521    1522    1525    2415    1703    1712+
+           1711    3928    3927    4555
CTETRA      1940       3     643    1275     676    2282    1404    1405+
+            677    2974    4209    2971
CTETRA      1941       3     536     537     558    2284     951    1030+
+           1031    2520    2519    4399
CTETRA      1942       3    1268    1269    2278    2280    1342    2559+
+           4264    4265    3574    2505
CTETRA      1943       3     259     282     283    2319    2209    2207+
+           2210    3255    3254    4530
CTETRA      1944       3     492     493     515    2339     819     888+
+            887    4629    4395    4293
CTETRA      1945       3     534     553     552    2288    1011    1010+
+           1009    3799    3570    3569
CTETRA      1946       3     515     538     537    2334     956     955+
+            954    4291    2709    2708
CTETRA      1947       3     514     537     536    2285     953     951+
+            952    4386    2522    2521
CTETRA      1948       3     514     515     537    2285     885     954+
+            953    4386    4292    2522
CTETRA      1949       3     236     237    2420    2450    2044    3180+
+           4219    4220    4243    3709
CTETRA      1950       3     506    1258    1260    2291    2902    1325+
+           4618    2905    2904    4417
CTETRA      1951       3     452     511     453    1270     876     875+
+            663    1394    4263    1395
CTETRA      1952       3     726     727    1485    1067     744    1770+
+           1769    1125    1127    3072
CTETRA      1953       3     493     494     516    2334     823     891+
+            890    4394    2722    2727
CTETRA      1954       3     464     500     499    1246     842     841+
+            840    1370    3228    4566
CTETRA      1955       3     499    1246     500    2376    4566    3228+
+            841    4043    4552    3983
CTETRA      1956       3     462     501     463    1250     846     845+
+            653    1374    4563    1375
CTETRA      1957       3     205    1517    2371    2420    3372    2856+
+           3374    4222    4605    3364
CTETRA      1958       3     463     501    1248    1250     845    4622+
+           1372    1375    4563    1305
CTETRA      1959       3    2407    2416    2417    2420    3169    3172+
+           3171    3361    3156    3181
CTETRA      1960       3     291     298     299    2442    2183    2180+
+           2182    3777    4404    3768
CTETRA      1961       3     286    2410     287    2450    3627    3119+
+           2158    4344    4411    4410
CTETRA      1962       3    1462    2313    1463    2316    4096    2750+
+           1566    4097    2653    2749
CTETRA      1963       3    1468    2315    2312    2446    2635    2640+
+           3607    4104    3561    3560
CTETRA      1964       3     727     728    1482    1065     748    1768+
+           1767    1128    1142    4161
CTETRA      1965       3     292     293    2438    2442    2225    4630+
+           4423    4424    4631    3778
CTETRA      1966       3     554     555     558    2284    1028    1026+
+           1027    4519    4398    4399
CTETRA      1967       3    1257    2379    2300    2385    3415    3139+
+           3413    3953    2944    2948
CTETRA      1968       3     449     470     493    1234     645     822+
+            821    1358    1357    4393
CTETRA      1969       3    1065    1067    2340    2346    1124    3071+
+           4334    4013    3073    2762
CTETRA      1970       3     196     226     227    2447    2013    2014+
+           2012    4464    4441    4408
CTETRA      1971       3     692     693    1243    2455     707    1436+
+           1437    4039    4053    4036
CTETRA      1972       3    2310    2313    2402    2439    2627    3222+
+           3221    3474    3473    3475
CTETRA      1973       3     183     214     215    2337    1972    1978+
+           1977    4119    4427    4396
CTETRA      1974       3    1455    1459    2302    2439    1557    4092+
+           4091    3487    3490    3472
CTETRA      1975       3    2321    2347    2340    2382    2897    2763+
+           2738    2898    2900    3519
CTETRA      1976       3     507    2283    2291    2394    4436    4316+
+           4416    4623    4324    4204
CTETRA      1977       3     530     549     548    2287     999     998+
+            997    4328    4611    4329
CTETRA      1978       3     214     246     215    2440    2070    2069+
+           1978    4425    4624    4501
CTETRA      1979       3     801    1274     802    2324    1401    1402+
+            804    2674    2673    4632
CTETRA      1980       3     711     712    1530    1078     758    1800+
+           1799    1182    1177    4521
CTETRA      1981       3     801    1235    1234    2339    1448    1280+
+           1359    4633    4005    2734
CTETRA      1982       3    2260    2356    2375    2376    2800    2990+
+           2925    2927    3993    2874
CTETRA      1983       3     512    1272     513    2324    4506    4590+
+            880    4507    4505    4628
CTETRA      1984       3     191     222     192    2395    1997    2001+
+           1909    3682    3681    3755
CTETRA      1985       3    1468    2314    2312    2315    2634    2629+
+           3607    2635    2637    2640
CTETRA      1986       3     712    1074    1527    1078    1175    4634+
+           1797    1177    1176    3969
CTETRA      1987       3      57     205     206    1520    1950    1951+
+           1949    1824    4606    4635
CTETRA      1988       3    1262    1265    1264    2394    1335    1334+
+           1333    4332    4207    4420
CTETRA      1989       3     201    2362    2344    2366    4485    3454+
+           3451    4486    3623    3442
CTETRA      1990       3    1488    1489    1492    2422    1626    1635+
+           1634    3511    3761    3916
CTETRA      1991       3     265    2362    2359    2457    4494    2823+
+           4028    4326    4214    4195
CTETRA      1992       3    1258    1259    1261    2291    1322    1328+
+           1327    2904    3955    4128
CTETRA      1993       3     492     513    1274    2324     883    4591+
+           2670    2672    4628    2673
CTETRA      1994       3     713    1524    1527    1074    1795    1716+
+           1798    1178    4592    4634
CTETRA      1995       3    1527    1078    1074    2451    3969    1176+
+           4634    3970    3830    4194
CTETRA      1996       3    1262    1263    1265    2394    1330    1336+
+           1335    4332    4203    4207
CTETRA      1997       3    1500    1501    1504    2343    1654    1663+
+           1662    3669    3675    2745
CTETRA      1998       3     724     725    1491    1068     747    1774+
+           1773    1135    1138    4636
CTETRA      1999       3     495     517    2335    2390     894    3676+
+           4290    4299    3678    3677
CTETRA      2000       3     517     518     539    2392     895     962+
+            960    3679    4146    3691
CTETRA      2001       3     559    2290    2286    2377    2602    4363+
+           4361    3200    4368    4010
CTETRA      2002       3    1518    1079    1081    2418    4585    1201+
+           3704    3702    4586    3703
CTETRA      2003       3     728    1479    1482    1065    1765    1611+
+           1768    1142    4266    4161
CTETRA      2004       3     725     726    1488    1066     746    1772+
+           1771    1137    1126    4637
CTETRA      2005       3    2413    2414    2421    2430    3111    3164+
+           3185    3894    3299    3264
CTETRA      2006       3     220     252     221    2448    2088    2087+
+           1996    4085    3536    4288
CTETRA      2007       3     252     279     253    2357    2245    2217+
+           2092    3533    3546    3539
CTETRA      2008       3     250     251    2309    2403    2086    3525+
+           4610    4430    3526    3528
CTETRA      2009       3     246     276     277    2440    2229    2241+
+           2246    4624    4310    4302
CTETRA      2010       3    2277    2375    2349    2377    2989    3011+
+           2861    3018    2879    3007
CTETRA      2011       3     207     239     208    2413    2049    2048+
+           1957    3174    4460    3889
CTETRA      2012       3     672     673    2274    2406     680    3578+
+           4503    3922    3924    4208
CTETRA      2013       3    2263    2277    2350    2369    2984    2862+
+           2986    3857    2851    2981
CTETRA      2014       3     296     297    2410    2442    2164    4529+
+           3629    4474    4406    4132
CTETRA      2015       3     498     499     521    2454     838     906+
+            905    4371    4271    4272
CTETRA      2016       3    1249    2376    2260    2386    3994    2927+
+           3967    2939    3986    3951
CTETRA      2017       3    2262    2356    2425    2455    3145    4058+
+           3713    3877    4054    4059
CTETRA      2018       3     543     544     557    2305     973    1016+
+           1015    4267    4275    2961
CTETRA      2019       3     501     523     522    2456     912     910+
+            911    4283    4279    4581
CTETRA      2020       3     251     278     279    2357    2236    2234+
+           2237    3523    3545    3546
CTETRA      2021       3     694    1247    1245    2453    1433    1300+
+           1434    4052    4077    4060
CTETRA      2022       3    1507    1511    1510    2344    1679    1678+
+           1677    3825    3445    3351
CTETRA      2023       3     201     232     233    2362    2027    2032+
+           2031    4485    4484    4517
CTETRA      2024       3    2271    2293    2292    2394    2557    2556+
+           2551    3034    3028    4205
CTETRA      2025       3     506     529     528    2283     929     928+
+            927    4437    4638    2515
CTETRA      2026       3     203     234     204    2371    2033    2037+
+           1945    3456    4210    4225
CTETRA      2027       3     232     264     233    2362    2124    2123+
+           2032    4484    3615    4517
CTETRA      2028       3     195     196    1487    2384    1921    4613+
+           4574    4576    4561    2919
CTETRA      2029       3    2330    2332    2333    2422    2698    2702+
+           2701    3187    3186    3665
CTETRA      2030       3      46     195     196    1487    1916    1921+
+           1920    1846    4574    4613
CTETRA      2031       3      47     197      48    1490    1923    1922+
+            786    1844    4255    1843
CTETRA      2032       3    2328    2330    2360    2367    2693    3192+
+           3191    3460    3199    2834
CTETRA      2033       3      40      41    1469    2446     793    1857+
+           1858    4109    3423    4107
CTETRA      2034       3     675    1078    1076    2436    1180    1183+
+           1168    3828    3827    4356
CTETRA      2035       3     205     236     206    2420    2039    2043+
+           1951    4222    4219    3168
CTETRA      2036       3      59     208      60    1526    1955    1959+
+            774    1820    3888    1819
CTETRA      2037       3     554     561     565    2377    1022    1043+
+           1044    4520    4385    3201
CTETRA      2038       3     526    2308    2307    2378    3793    2615+
+           3792    4347    2881    4319
CTETRA      2039       3      60    1526     208    1529    1819    3888+
+           1959    1818    1722    4402
CTETRA      2040       3     453     510     454    1268     873     872+
+            662    1392    3030    1393
CTETRA      2041       3    1515    1516    1519    2419    1689    1698+
+           1697    4123    3368    3154
CTETRA      2042       3     548     560     559    2287    1050    1046+
+           1040    4329    4367    4360
CTETRA      2043       3    1507    1508    1511    2344    1671    1680+
+           1679    3825    4539    3445
CTETRA      2044       3     207     208    1526    2413    1957    3888+
+           4446    3174    3889    3880
CTETRA      2045       3      54    1508     203    1511    1831    4639+
+           1940    1830    1680    3458
CTETRA      2046       3     538     539     558    2284     958    1033+
+           1034    2707    3688    4399
CTETRA      2047       3     203    1511    1508    2344    3458    1680+
+           4639    3453    3445    4539
CTETRA      2048       3     203     204    1511    2371    1945    4224+
+           3458    3456    4225    3448
CTETRA      2049       3      37     187      38    2345    1893    1892+
+            796    4232    4237    4602
CTETRA      2050       3    1452    1456    1455    2439    1550    1549+
+           1548    3483    3515    3487
CTETRA      2051       3     735    1458    1461    1063    1751    1562+
+           1754    1104    3294    4515
CTETRA      2052       3    1452    1455    1060    2364    1548    4598+
+           4182    3484    3486    4184
CTETRA      2053       3    1252    1253    1255    2378    1310    1316+
+           1315    4349    3418    3417
CTETRA      2054       3    1449    1452    1061    2301    1539    3954+
+           4021    2594    3481    4022
CTETRA      2055       3     458     506    1258    1260     860    2902+
+           1382    1385    4618    1325
CTETRA      2056       3     506     507     529    2283     862     930+
+            929    4437    4436    4638
CTETRA      2057       3    1234    1235    1237    2338    1280    1279+
+           1278    2733    3944    3941
CTETRA      2058       3     718    1509    1512    1086    1785    1681+
+           1788    1225    4640    4284
CTETRA      2059       3    1264    1265    1267    2394    1334    1340+
+           1339    4420    4207    3027
CTETRA      2060       3     507    2291    1262    2394    4416    4331+
+           4415    4623    4204    4332
CTETRA      2061       3     504     527     526    2308     923     922+
+            921    4589    4422    3793
CTETRA      2062       3     670    1086    2409    2441    1220    4527+
+           3817    3819    3832    3815
CTETRA      2063       3     671    1081     672    2406    1198    1199+
+            682    4523    3920    3922
CTETRA      2064       3     561     563     562    2307     813     814+
+            815    4383    2924    2923
CTETRA      2065       3     644    1058    1084    2333    1131    1215+
+           1214    4227    4030    3663
CTETRA      2066       3    1239    2338    2387    2390    3946    3939+
+           4198    3948    3940    3865
CTETRA      2067       3     716    1073    1515    1081    1194    4121+
+           1789    1196    1195    4600
CTETRA      2068       3     517     539    2335    2392     960    3690+
+           3676    3679    3691    3680
CTETRA      2069       3     231     263     232    2366    2121    2120+
+           2029    4492    4493    4487
CTETRA      2070       3    1491    1058    1068    2422    4641    1132+
+           4636    4579    4032    3512
CTETRA      2071       3    1488    1491    1068    2422    1632    4636+
+           3508    3511    4579    3512
CTETRA      2072       3     721    1500    1082    1083    1779    3494+
+           1208    1210    2911    1207
CTETRA      2073       3    1488    1068    1066    2382    3508    1136+
+           4637    3510    3509    3518
CTETRA      2074       3     561     562     565    2307     815    1056+
+           1043    4383    2923    2618
CTETRA      2075       3     550     551     560    2287    1004    1051+
+           1052    4260    2540    4367
CTETRA      2076       3    2279    2286    2285    2288    2526    4004+
+           3563    2527    2529    3571
CTETRA      2077       3     552     555     560    2286    1053    1048+
+           1055    4391    4392    4366
CTETRA      2078       3     465     499     498    1244     839     838+
+            837    1368    4615    4642
CTETRA      2079       3     463     500     464    1248     843     842+
+            652    1372    3229    1373
CTETRA      2080       3     539     540     558    2284     961    1037+
+           1033    3688    4643    4399
CTETRA      2081       3     644    2259    2299    2379    4565    2937+
+           4229    2892    3144    3140
CTETRA      2082       3     498    1244     499    2454    4642    4615+
+            838    4371    4614    4271
CTETRA      2083       3     720    1082    1503    1087    1209    3495+
+           1781    1233    1231    3823
CTETRA      2084       3    1450    1451    1454    2337    1547    1546+
+           1545    4342    4497    2719
CTETRA      2085       3     254     280    2317    2396    2215    3530+
+           4483    3727    3541    3716
CTETRA      2086       3    1453    2301    2337    2439    3482    3330+
+           3478    3479    3331    3333
CTETRA      2087       3     183     213     214    2443    1973    1974+
+           1972    4500    4451    4428
CTETRA      2088       3    1275    2281    2282    2324    3547    2512+
+           4209    4002    4000    4017
CTETRA      2089       3      60     208     209    1529    1959    1960+
+           1958    1818    4402    4401
CTETRA      2090       3     253     280     254    2396    2216    2215+
+           2095    3540    3541    3727
CTETRA      2091       3      42     191      43    1475    1904    1908+
+            791    1854    4289    1853
CTETRA      2092       3     540     541     556    2392     964    1036+
+           1035    4147    3694    3687
CTETRA      2093       3      41      42    1472    2401     792    1855+
+           1856    3422    3744    4285
CTETRA      2094       3    1480    1483    2341    2384    1614    4163+
+           4173    4170    2918    4164
CTETRA      2095       3     466     497     467    1242     834     833+
+            649    1366    4626    1367
CTETRA      2096       3    1479    1480    1483    2346    1605    1614+
+           1613    4157    4162    2767
CTETRA      2097       3      34    1451     808    2443    1870    1871+
+           1872    4551    4499    3642
CTETRA      2098       3    2428    2435    2431    2437    4336    3288+
+           3257    3401    3784    3308
CTETRA      2099       3     807     808    1451    2443     811    1871+
+           1874    3641    3642    4499
CTETRA      2100       3     734    1461    1464    1064    1753    1569+
+           1756    1117    3606    3603
CTETRA      2101       3    1462    1465    2302    2313    1572    4110+
+           4240    4096    2651    3470
CTETRA      2102       3      35    1454    1451    2337    1868    1546+
+           1869    4118    2719    4497
CTETRA      2103       3     185    1457    2337    2345    2514    2718+
+           2717    4235    3493    3492
CTETRA      2104       3    1518    1522    1521    2418    1704    1703+
+           1702    3702    3930    3929
CTETRA      2105       3     216     247    2402    2440    2072    4559+
+           4496    4502    4560    3477
CTETRA      2106       3     807    1451    1450    2443    1874    1547+
+           1873    3641    4499    4498
CTETRA      2107       3     528    2283     546    2304    2515    2517+
+            991    4317    4318    4400
CTETRA      2108       3    2278    2280    2279    2289    2505    2504+
+           2501    2996    2995    2994
CTETRA      2109       3     669    1261    1259    2385    1419    1328+
+           1420    3960    4129    3957
CTETRA      2110       3     515     516     538    2334     889     957+
+            956    4291    2727    2709
CTETRA      2111       3     688     689    2369    2434     699    3282+
+           4621    4188    3283    3285
CTETRA      2112       3    1471    1475    1474    2397    1595    1594+
+           1593    4087    3061    3056
CTETRA      2113       3     186     217     187    2345    1982    1986+
+           1894    4462    4542    4237
CTETRA      2114       3    1266    1267    1269    2280    1338    1344+
+           1343    4358    3026    3574
CTETRA      2115       3    1249    2260    1251    2386    3967    3962+
+           1308    2939    3951    2940
CTETRA      2116       3     669     670    1261    2292     686    1418+
+           1419    3959    4134    4127
CTETRA      2117       3     691    1059     692    2426    1109    1110+
+            701    4434    3604    4294
CTETRA      2118       3     543    2305     557    2393    4267    2961+
+           1015    4268    3987    4374
CTETRA      2119       3     691     692    1241    2455     701    1438+
+           1439    4064    4039    4040
CTETRA      2120       3     542     543     557    2393     970    1015+
+           1018    4644    4268    4374
CTETRA      2121       3     731    1470    1473    1072    1759    1590+
+           1762    1159    3853    4570
CTETRA      2122       3      52     200     201    1505    1935    1936+
+           1934    1834    4583    3450
CTETRA      2123       3    1244    1245    1247    2454    1294    1300+
+           1299    4614    4071    4078
CTETRA      2124       3    1489    1493    1492    2423    1637    1636+
+           1635    3499    3911    3917
CTETRA      2125       3     730     731    1473    1072     753    1762+
+           1761    1160    1159    4570
CTETRA      2126       3    2373    2412    2407    2418    3341    3170+
+           3089    3342    3149    4112
CTETRA      2127       3     457     507     506    1260     863     862+
+            861    1384    4414    4618
CTETRA      2128       3     692    1070     693    2355    1145    1154+
+            707    3595    4090    4055
CTETRA      2129       3    1509    1086    1085    2441    4640    1221+
+           4645    3814    3832    3831
CTETRA      2130       3     692    1059    1070    2314    1110    1144+
+           1145    3593    3590    3589
CTETRA      2131       3    1470    1473    1072    2398    1590    4570+
+           3853    3855    4571    3849
CTETRA      2132       3     293     299     294    2322    2202    2203+
+           2201    3543    3766    3764
CTETRA      2133       3     670    1086     671    2409    1220    1223+
+            685    3817    4527    3099
CTETRA      2134       3     275     291     276    2380    2191    2226+
+           2227    4117    3776    4308
CTETRA      2135       3     256     281     257    2326    2251    2250+
+           2104    4259    4249    2678
CTETRA      2136       3    1500    1503    1082    2343    1660    3495+
+           3494    3669    4135    3670
CTETRA      2137       3     229     230    2328    2424    2023    4489+
+           4185    4187    4490    3193
CTETRA      2138       3     295     299     296    2442    2161    2162+
+           2160    3767    3768    4474
CTETRA      2139       3     670     671    2408    2409     685    3098+
+           3818    3817    3099    3101
CTETRA      2140       3    2413    2415    2414    2452    3113    3112+
+           3111    3882    3885    3796
CTETRA      2141       3     268     288     269    2417    2188    2187+
+           2139    4475    4528    4468
CTETRA      2142       3     208    2413     239    2430    3889    4460+
+           2048    3895    3894    4461
CTETRA      2143       3    2360    2361    2362    2366    2822    2825+
+           2824    2833    2832    3623
CTETRA      2144       3     715    1518    1079    1081    1791    4585+
+           1202    1203    3704    1201
CTETRA      2145       3     532     533     550    2289     940    1005+
+           1003    4608    2534    4261
CTETRA      2146       3     670     671    1263    2292     685    1416+
+           1417    4134    3981    3980
CTETRA      2147       3     288     297     298    2411    2184    2181+
+           2186    3347    4405    4403
CTETRA      2148       3     562     564     565    2307     984     818+
+           1056    2923    4582    2618
CTETRA      2149       3     510     511     532    2289     874     941+
+            939    3031    2532    4608
CTETRA      2150       3    2365    2381    2380    2440    2891    2890+
+           2887    3335    3337    3741
CTETRA      2151       3    1530    1076    1078    2436    4554    1183+
+           4521    3769    4356    3827
CTETRA      2152       3     712     713    1527    1074     757    1798+
+           1797    1175    1178    4634
CTETRA      2153       3     452     512    1270    1272     878    4646+
+           1394    1397    4506    1349
CTETRA      2154       3    2270    2298    2292    2408    3803    3802+
+           2554    3813    3583    3976
CTETRA      2155       3    2310    2348    2311    2425    3231    3230+
+           2621    3223    3714    3555
CTETRA      2156       3     506    2283     528    2291    4437    2515+
+            927    2905    4316    4315
CTETRA      2157       3     533     551     550    2289    1006    1004+
+           1005    2534    2541    4261
CTETRA      2158       3     509    1264    1266    2394    4647    1337+
+           3035    4325    4420    4359
CTETRA      2159       3     531     550     549    2287    1002    1001+
+           1000    3020    4260    4611
CTETRA      2160       3    1260    1261    1263    2291    1326    1332+
+           1331    4417    4128    4202
CTETRA      2161       3     516     517     538    2335     892     959+
+            957    2728    3676    2729
CTETRA      2162       3    1236    1237    1239    2338    1277    1284+
+           1283    4007    3941    3946
CTETRA      2163       3    1240    1241    1243    2390    1286    1292+
+           1291    4518    4072    4035
CTETRA      2164       3     276     292     277    2438    2228    2242+
+           2241    4627    4423    4301
CTETRA      2165       3     465     498     466    1244     837     836+
+            650    1368    4642    1369
CTETRA      2166       3     220     250     251    2309    2085    2086+
+           2084    4084    4610    3525
CTETRA      2167       3     234     264     265    2362    2127    2128+
+           2126    4211    3615    4494
CTETRA      2168       3     520     543     542    2393     971     970+
+            969    4381    4268    4644
CTETRA      2169       3     693     694    1245    2453     708    1434+
+           1435    4051    4052    4060
CTETRA      2170       3    2271    2272    2286    2290    2484    4009+
+           2548    2544    2543    4363
CTETRA      2171       3     524     563     545    2305     981     979+
+            980    4138    2962    4274
CTETRA      2172       3     554     557     561    2377    1023    1021+
+           1022    4520    4372    4385
CTETRA      2173       3    1485    2346    1486    2347    2921    2766+
+           1619    2906    2765    2769
CTETRA      2174       3     200     231     232    2366    2024    2029+
+           2028    3464    4492    4487
CTETRA      2175       3     693    1072    1071    2355    1157    1156+
+           1155    4055    3847    3846
CTETRA      2176       3     194    1487    1484    2384    4575    1624+
+           4572    4573    2919    4171
CTETRA      2177       3     196    2347    2384    2447    4473    2920+
+           4561    4464    4024    4444
CTETRA      2178       3      40    1466     189    2312    1859    3647+
+           1898    4108    2642    4512
CTETRA      2179       3     669    2292    1261    2385    3959    4127+
+           1419    3960    2947    4129
CTETRA      2180       3      61     211      62    2435    1965    1964+
+            772    4648    4458    4450
CTETRA      2181       3     691    2425     692    2455    4065    3596+
+            701    4064    4059    4039
CTETRA      2182       3     495    2338    1238    2390    4006    3945+
+           4466    4299    3940    3947
CTETRA      2183       3     719    1506    1509    1085    1783    1674+
+           1786    1219    4609    4645
CTETRA      2184       3     718     719    1509    1085     767    1786+
+           1785    1218    1219    4645
CTETRA      2185       3     718    1085    1509    1086    1218    4645+
+           1785    1225    1221    4640
CTETRA      2186       3    2285    2334    2336    2339    2711    2715+
+           2714    4041    2736    2955
CTETRA      2187       3    2271    2286    2287    2290    2548    2525+
+           2992    2544    4363    4362
CTETRA      2188       3     671    1073    1081    2409    1200    1195+
+           1198    3099    4526    4524
CTETRA      2189       3     260    2319     283    2424    4607    4530+
+           2243    4617    4230    4532
CTETRA      2190       3     205     206    1520    2420    1951    4635+
+           4606    4222    3168    3159
CTETRA      2191       3     541     542     556    2393     967    1020+
+           1036    3692    4644    4373
CTETRA      2192       3    1242    1243    1245    2454    1290    1296+
+           1295    4377    4034    4071
CTETRA      2193       3     496    1238    1240    2390    4467    1285+
+           4619    4380    3947    4518
CTETRA      2194       3      37      38    1460    2345     796    1863+
+           1864    4232    4602    4233
CTETRA      2195       3     230     260     261    2424    2115    2116+
+           2114    4490    4617    4558
CTETRA      2196       3      34    2337    1451    2443    4541    4497+
+           1870    4551    4429    4499
CTETRA      2197       3    1501    1502    1505    2343    1657    1666+
+           1665    3675    4027    3439
CTETRA      2198       3     214    2432    2440    2443    4548    4175+
+           4425    4428    4178    4177
CTETRA      2199       3    1527    1074    2415    2451    4634    4192+
+           3971    3970    4194    3968
CTETRA      2200       3    1518    1519    1522    2418    1696    1705+
+           1704    3702    3711    3930
CTETRA      2201       3     669    1082    2342    2383    1228    4148+
+           3833    3843    3672    3839
CTETRA      2202       3     672    1267    1265    2293    1413    1340+
+           1414    4504    3024    3978
CTETRA      2203       3     671     672    1265    2293     682    1414+
+           1415    3977    4504    3978
CTETRA      2204       3    2296    2358    2410    2442    3391    3806+
+           3805    3394    3393    4132
CTETRA      2205       3     520     542     541    2393     969     967+
+            968    4381    4644    3692
CTETRA      2206       3     733    1464    1059    1064    1755    3602+
+           1116    1115    3603    1112
CTETRA      2207       3    1527    1528    1531    2436    1717    1726+
+           1725    3918    4023    3770
CTETRA      2208       3     726    1485    1488    1066    1769    1625+
+           1772    1126    3516    4637
CTETRA      2209       3     469     495     494    1236     827     826+
+            825    1360    2721    2720
CTETRA      2210       3     802    1275     643    2282    1403    1404+
+            805    2950    4209    2974
CTETRA      2211       3     675    2436    2388    2451    3828    3782+
+           3964    3829    3781    3750
CTETRA      2212       3     264    2359     265    2362    3613    4028+
+           2128    3615    2823    4494
CTETRA      2213       3     538    2284    2334    2335    2707    2710+
+           2709    2729    3689    2712
CTETRA      2214       3     505    1256    1258    2308    4587    1321+
+           2901    4562    3295    3956
CTETRA      2215       3     505    2291     527    2308    2903    4421+
+            924    4562    2928    4422
CTETRA      2216       3     502    1250    1252    2386    4564    1309+
+           4348    4351    4231    4352
CTETRA      2217       3     236     266     267    2450    2133    2134+
+           2132    4220    4343    4242
CTETRA      2218       3     211     212    1535    2445    1969    2631+
+           4457    4459    4550    3786
CTETRA      2219       3     669     670    2408    2441     686    3818+
+           3975    3834    3819    3809
CTETRA      2220       3     492     535    2324    2339     950    4509+
+           2672    4629    4389    4018
CTETRA      2221       3     802    1274    1275    2324    1402    1354+
+           1403    4632    2673    4002
CTETRA      2222       3     449     492     450     801     820     884+
+            666     803    2671    1400
CTETRA      2223       3    1506    1509    1085    2441    1674    4645+
+           4609    4143    3814    3831
CTETRA      2224       3     668     669    1259    2385     687    1420+
+           1421    3972    3960    3957
CTETRA      2225       3    1505    2344    2343    2366    3440    2748+
+           3439    4649    3442    3441
CTETRA      2226       3     667    2300    2299    2383    3412    2589+
+           3416    4228    3844    3667
CTETRA      2227       3     514     553     535    2285    1014    1012+
+            949    4386    3567    4387
CTETRA      2228       3     806     642     709    1075     809     755+
+           1805    3645    1164    1165
CTETRA      2229       3     512     535     534    2288     947     946+
+            945    2538    4508    3799
CTETRA      2230       3     492     514     535    2339     886     949+
+            950    4629    4388    4389
CTETRA      2231       3    2311    2396    2357    2448    3552    3534+
+           3438    3556    3538    3537
CTETRA      2232       3     545     563     557    2305     979    1025+
+           1017    4274    2962    2961
CTETRA      2233       3     466     498     497    1242     836     835+
+            834    1366    4616    4626
CTETRA      2234       3    1452    1453    1456    2439    1540    1551+
+           1550    3483    3479    3515
CTETRA      2235       3     500    2386     501    2456    3985    4282+
+            844    4068    4069    4283
CTETRA      2236       3     497    1242     498    2449    4626    4616+
+            835    4297    4375    4370
CTETRA      2237       3    1468    1469    1472    2446    1580    1589+
+           1588    4104    4107    4286
CTETRA      2238       3     556    2377    2392    2393    3685    3010+
+           3687    4373    3013    3693
CTETRA      2239       3     732    1467    1470    1070    1757    1583+
+           1760    1147    3586    3591
CTETRA      2240       3     465     499    1244    1246     839    4615+
+           1368    1371    4566    1297
CTETRA      2241       3     212     243     213    2445    2060    2064+
+           2063    4550    3891    4353
CTETRA      2242       3     690    2302    1063    2426    2596    2598+
+           1108    4102    3600    4516
CTETRA      2243       3    1456    1457    1460    2345    1552    1561+
+           1560    3514    3493    4233
CTETRA      2244       3     249     250    2309    2403    2083    4610+
+           4305    3067    4430    3528
CTETRA      2245       3    2428    2431    2433    2437    3257    3304+
+           3402    3401    3308    3307
CTETRA      2246       3    1235    2336    2338    2339    3943    2732+
+           3944    4005    2955    2735
CTETRA      2247       3      57     206      58    1520    1949    1953+
+            776    1824    4635    1823
CTETRA      2248       3    1470    1471    1474    2398    1584    1593+
+           1592    3855    3856    3058
CTETRA      2249       3      40     190      41    2446    1902    1901+
+            793    4109    3424    3423
CTETRA      2250       3     187    2345     217    2402    4237    4542+
+           1986    4238    4094    4543
CTETRA      2251       3      42    1475    1472    2401    1854    1596+
+           1855    3744    3062    4285
CTETRA      2252       3     214     245     246    2440    2065    2071+
+           2070    4425    4309    4624
CTETRA      2253       3     806    1450    1449    2301    1875    1543+
+           1746    2593    4341    2594
CTETRA      2254       3     184     185    1454    2337    1888    2513+
+           3467    4120    2717    2719
CTETRA      2255       3    1449    1450    1453    2301    1543    1542+
+           1541    2594    4341    3482
CTETRA      2256       3     237     268    2417    2450    2135    4475+
+           3178    4243    4476    4412
CTETRA      2257       3     231     262     263    2360    2117    2122+
+           2121    4491    3618    3619
CTETRA      2258       3     527    2291     528    2304    4421    4315+
+            925    3720    4149    4317
CTETRA      2259       3     689    1062     690    2364    1102    1107+
+            700    4544    4101    4103
CTETRA      2260       3    1502    2343    2327    2366    4027    3674+
+           4026    3465    3441    3468
CTETRA      2261       3     509    2280     531    2394    4262    3019+
+            936    4325    3022    3021
CTETRA      2262       3     557    2305     561    2377    2961    2963+
+           1021    4372    2885    4385
CTETRA      2263       3    1252    1255    1254    2378    1315    1314+
+           1313    4349    3417    4650
CTETRA      2264       3     508     530     529    2283     933     931+
+            932    4321    4320    4638
CTETRA      2265       3     455     509    1264    1266     869    4647+
+           1388    1391    3035    1337
CTETRA      2266       3     191     221     222    2401    1998    1999+
+           1997    3683    3729    3684
CTETRA      2267       3    1260    1263    1262    2291    1331    1330+
+           1329    4417    4202    4331
CTETRA      2268       3     455     508     456    1264     867     866+
+            660    1388    4419    1389
CTETRA      2269       3      52     202      53    1505    1938    1937+
+            781    1834    3449    1833
CTETRA      2270       3    1258    1261    1260    2291    1327    1326+
+           1325    2904    4128    4417
CTETRA      2271       3     504    2308     526    2378    4589    3793+
+            921    4596    2881    4347
CTETRA      2272       3     469     495    1236    1238     827    2721+
+           1360    1363    4466    1281
CTETRA      2273       3    1494    1495    2330    2422    1640    2691+
+           2703    3664    4540    3187
CTETRA      2274       3    1497    1498    1501    2327    1647    1656+
+           1655    2684    2683    3673
CTETRA      2275       3     501    1248    1250    2386    4622    1305+
+           4563    4282    2938    4231
CTETRA      2276       3     536     558     555    2284    1031    1026+
+           1032    2520    4399    4398
CTETRA      2277       3    2291    2303    2304    2308    2601    2606+
+           4149    2928    2613    3794
CTETRA      2278       3     498    1242    1244    2454    4616    1293+
+           4642    4371    4377    4614
CTETRA      2279       3     213     244     214    2432    2068    2066+
+           1974    4547    4115    4548
CTETRA      2280       3     509    2280    1266    2289    4262    4358+
+           3035    3036    2995    3032
CTETRA      2281       3      61    1529     209    1532    1817    4401+
+           1962    1816    1729    4357
CTETRA      2282       3     493     516     515    2334     890     889+
+            888    4394    2727    4291
CTETRA      2283       3     541     556    2392    2393    1036    3687+
+           3694    3692    4373    3693
CTETRA      2284       3     467     496     468    1240     831     830+
+            648    1364    4619    1365
CTETRA      2285       3     710    1533    1536    1077    1801    1737+
+           1804    1173    4651    3652
CTETRA      2286       3    1234    1237    1236    2338    1278    1277+
+           1276    2733    3941    4007
CTETRA      2287       3    2277    2285    2284    2335    3564    2523+
+           4130    4020    2713    3689
CTETRA      2288       3     245     276     246    2440    2230    2229+
+           2071    4309    4310    4624
CTETRA      2289       3     807    1537    2437    2444    1808    3656+
+           3639    4150    3658    3407
CTETRA      2290       3     715     716    1518    1081     763    1792+
+           1791    1203    1196    3704
CTETRA      2291       3     276    2380     291    2438    4308    3776+
+           2226    4627    3740    3775
CTETRA      2292       3    2327    2367    2343    2383    3459    3443+
+           3674    2916    3668    3671
CTETRA      2293       3    1494    1495    1498    2327    1640    1649+
+           1648    2682    2685    2683
CTETRA      2294       3     245     275     276    2380    2231    2227+
+           2230    4114    4117    4308
CTETRA      2295       3     183     215     184    2337    1977    1976+
+           1885    4119    4396    4120
CTETRA      2296       3    1489    1490    1493    2423    1629    1638+
+           1637    3499    3903    3911
CTETRA      2297       3     727    1065    1482    1067    1128    4161+
+           1767    1127    1124    4160
CTETRA      2298       3    2407    2418    2416    2419    4112    3151+
+           3169    3581    3706    3153
CTETRA      2299       3    1471    2401    2315    2446    4250    4246+
+           2636    4105    3425    3561
CTETRA      2300       3     261     283     284    2358    2174    2170+
+           2173    4556    4531    3630
CTETRA      2301       3      46     194     195    1487    1917    1918+
+           1916    1846    4575    4574
CTETRA      2302       3     524     525     562    2307     916     983+
+            982    2922    4345    2923
CTETRA      2303       3     695    1065    2340    2346    1121    4334+
+           4174    4011    4013    2762
CTETRA      2304       3    2278    2288    2279    2324    2537    2527+
+           2501    3998    4510    3999
CTETRA      2305       3    1495    1496    1499    2328    1643    1652+
+           1651    2686    4144    3209
CTETRA      2306       3     193     225     194    2384    2007    2006+
+           1915    4253    4254    4573
CTETRA      2307       3      40    1469    1466    2312    1858    1582+
+           1859    4108    4106    2642
CTETRA      2308       3      38     188      39    2316    1896    1895+
+            795    4603    2644    4604
CTETRA      2309       3      62     212      63    1535    1968    1967+
+            771    1814    2631    1813
CTETRA      2310       3    1473    1477    1476    2398    1599    1598+
+           1597    4571    3059    3850
CTETRA      2311       3      62     211    1535    2435    1964    4457+
+           1814    4450    4458    3785
CTETRA      2312       3     470     494     493    1234     824     823+
+            822    1357    2725    4393
CTETRA      2313       3    1504    1508    1507    2344    1672    1671+
+           1670    2746    4539    3825
CTETRA      2314       3     233     264     234    2362    2123    2127+
+           2035    4517    3615    4211
CTETRA      2315       3      53     203      54    1508    1941    1940+
+            780    1832    4639    1831
CTETRA      2316       3    2277    2349    2284    2377    2861    3008+
+           4130    3018    3007    3006
CTETRA      2317       3     642    1449     738    1057    1745    1744+
+            754    1163    2591    1096
CTETRA      2318       3     643    1057     688    2434    1089    1088+
+            698    4333    4191    4188
CTETRA      2319       3     688     689    1235    2369     699    1444+
+           1445    4621    3282    4015
CTETRA      2320       3     272     289     273    2429    2198    2197+
+           2151    3245    4522    3246
CTETRA      2321       3     806     709    1536    1075    1805    1803+
+           1806    3645    1165    3651
CTETRA      2322       3    1533    1077    1076    2389    4651    1171+
+           3810    3659    3649    3118
CTETRA      2323       3    1234    1236    2334    2338    1276    2723+
+           2726    2733    4007    2730
CTETRA      2324       3      34     182     183    2443    1880    1881+
+           1879    4551    4452    4500
CTETRA      2325       3     207    1526    1523    2413    4446    1715+
+           3176    3174    3880    3175
CTETRA      2326       3    1521    1080    1079    2418    3933    1190+
+           4584    3929    3932    4586
CTETRA      2327       3      34     808     182    2443    1872    4456+
+           1880    4551    3642    4452
CTETRA      2328       3     230     261    2360    2424    2114    4557+
+           4488    4490    4558    3194
CTETRA      2329       3    1509    1510    1513    2372    1675    1684+
+           1683    3700    3353    3816
CTETRA      2330       3     711    1530    1533    1076    1799    1730+
+           1802    1184    4554    3810
CTETRA      2331       3     554     559     560    2286    1045    1046+
+           1047    4601    4361    4366
CTETRA      2332       3     235     266     236    2457    2129    2133+
+           2041    4217    4327    4218
CTETRA      2333       3     672     673    1267    2274     680    1412+
+           1413    4503    3578    2755
CTETRA      2334       3     259     283     260    2319    2210    2243+
+           2113    3255    4530    4607
CTETRA      2335       3     461     502     462    1252     849     848+
+            654    1376    4348    1377
CTETRA      2336       3    2319    2329    2330    2424    3912    2692+
+           3203    4230    3196    3195
CTETRA      2337       3     504    1254    1256    2378    4595    1317+
+           4588    4596    4650    4076
CTETRA      2338       3     710    1076    1533    1077    1174    3810+
+           1801    1173    1171    4651
CTETRA      2339       3     282     294     295    2318    2205    2204+
+           2206    4533    4438    4536
CTETRA      2340       3     676    1076    1077    2389    1167    1171+
+           1170    2973    3118    3649
CTETRA      2341       3     676    1077    1075    2389    1170    1169+
+           1166    2973    3649    3648
CTETRA      2342       3    1488    1492    1491    2422    1634    1633+
+           1632    3511    3916    4579
CTETRA      2343       3     672    2274    1267    2293    4503    2755+
+           1413    4504    4136    3024
CTETRA      2344       3      49    1493     198    1496    1841    4599+
+           1925    1840    1645    3469
CTETRA      2345       3     548     549     560    2287     998    1049+
+           1050    4329    4611    4367
CTETRA      2346       3     673    1269    1267    2274    1411    1344+
+           1412    3578    2756    2755
CTETRA      2347       3     287    2410     297    2411    3119    4529+
+           2166    3121    3120    4405
CTETRA      2348       3    1269    2273    2274    2281    2560    2495+
+           2756    2561    2509    2518
CTETRA      2349       3    2277    2282    2279    2336    2564    2997+
+           2507    3565    2951    3566
CTETRA      2350       3    1509    2409    1086    2441    3701    4527+
+           4640    3814    3815    3832
CTETRA      2351       3     534     535     553    2288     946    1012+
+           1011    3799    4508    3570
CTETRA      2352       3     535    2285     553    2288    4387    3567+
+           1012    4508    3571    3570
CTETRA      2353       3     242     272     273    2428    2150    2151+
+           2149    4454    3244    3243
CTETRA      2354       3    2404    2407    2412    2417    3349    3170+
+           3110    4014    3171    3173
CTETRA      2355       3      47    1487     196    1490    1845    4613+
+           1919    1844    1631    4625
CTETRA      2356       3    1531    2435    1534    2436    3886    3795+
+           1733    3770    3292    3771
CTETRA      2357       3     511     534     533    2288     944     943+
+            942    2530    3799    2531
CTETRA      2358       3     807    2437    2443    2444    3639    3408+
+           3641    4150    3407    3399
CTETRA      2359       3     497    1240    1242    2390    4620    1289+
+           4626    4296    4518    4376
CTETRA      2360       3     467     497     496    1240     833     832+
+            831    1364    4620    4619
CTETRA      2361       3     466     498    1242    1244     836    4616+
+           1366    1369    4642    1293
CTETRA      2362       3     182     808    1538    2445    4456    1810+
+           4549    4453    3773    3774
CTETRA      2363       3    2309    2311    2310    2403    2622    2621+
+           2620    3528    3233    3232
CTETRA      2364       3     669    2342    2298    2383    3833    3635+
+           3974    3843    3839    3838
CTETRA      2365       3      62     211     212    1535    1964    1969+
+           1968    1814    4457    2631
CTETRA      2366       3     187     217     218    2402    1986    1987+
+           1985    4238    4543    4511
CTETRA      2367       3      58     207      59    1523    1952    1956+
+            775    1822    3176    1821
CTETRA      2368       3    1522    2413    1525    2415    4448    3879+
+           1712    3927    3113    4555
CTETRA      2369       3     207     237     238    2416    2046    2047+
+           2045    3177    3179    3183
CTETRA      2370       3      44     192     193    1481    1911    1912+
+           1910    1850    3754    3753
CTETRA      2371       3      43    1475     191    1478    1853    4289+
+           1908    1852    1603    4652
CTETRA      2372       3     212    1538    1535    2445    2632    1743+
+           2631    4550    3774    3786
CTETRA      2373       3      61     210     211    2435    1961    1966+
+           1965    4648    3900    4458
CTETRA      2374       3    1531    1532    1535    2435    1727    1736+
+           1735    3886    3963    3785
CTETRA      2375       3     230     262     231    2360    2118    2117+
+           2026    4488    3618    4491
CTETRA      2376       3     201    2344    1505    2366    3451    3440+
+           3450    4486    3442    4649
CTETRA      2377       3    1476    1477    1480    2400    1598    1607+
+           1606    4166    3076    3078
CTETRA      2378       3     200     230     231    2328    2025    2026+
+           2024    3463    4489    4653
CTETRA      2379       3    1476    1480    1479    2400    1606    1605+
+           1604    4166    3078    4159
CTETRA      2380       3    2264    2348    2311    2357    2771    3230+
+           2796    2805    2807    3438
CTETRA      2381       3     244     274    2380    2432    2156    4311+
+           4113    4115    4314    3318
CTETRA      2382       3    1477    1478    1481    2395    1601    1610+
+           1609    3074    4088    3757
CTETRA      2383       3     261     283    2358    2424    2174    4531+
+           4556    4558    4532    3216
CTETRA      2384       3      50     199      51    1499    1928    1932+
+            783    1838    3205    1837
CTETRA      2385       3    1465    2313    2312    2314    2651    2626+
+           2650    3608    2630    2629
CTETRA      2386       3    1266    2280    1268    2289    4358    4265+
+           1341    3032    2995    3033
CTETRA      2387       3     531     532     550    2289     937    1003+
+           1002    4206    4608    4261
CTETRA      2388       3      51     199     200    1502    1932    1933+
+           1931    1836    3747    3461
CTETRA      2389       3     214     244     245    2432    2066    2067+
+           2065    4548    4115    4116
CTETRA      2390       3      52     201     202    1505    1934    1939+
+           1938    1834    3450    3449
CTETRA      2391       3     455     509     508    1264     869     868+
+            867    1388    4647    4419
CTETRA      2392       3    1254    1255    1257    2378    1314    1320+
+           1319    4650    3417    3961
CTETRA      2393       3     667    1257    1255    2379    1423    1320+
+           1424    3414    3415    3419
CTETRA      2394       3    1254    1257    1256    2378    1319    1318+
+           1317    4650    3961    4076
CTETRA      2395       3    2390    2449    2391    2454    4298    3869+
+           2999    3870    3875    3871
CTETRA      2396       3    1071    2355    2398    2399    3846    3611+
+           3848    3852    4074    3051
CTETRA      2397       3     671    2275    2270    2408    3096    2489+
+           3982    3098    3097    3813
CTETRA      2398       3    1468    1472    1471    2446    1588    1587+
+           1586    4104    4286    4105
CTETRA      2399       3     188     220     189    2312    1992    1991+
+           1900    2641    4083    4512
CTETRA      2400       3     458     506     505    1258     860     859+
+            858    1382    2902    2901
CTETRA      2401       3      39     188     189    1466    1895    1900+
+           1899    1860    2643    3647
CTETRA      2402       3     546     559     565    2304    1038    1042+
+           1041    4400    2604    2617
CTETRA      2403       3      41     190      42    2401    1901    1905+
+            792    3422    3421    3744
CTETRA      2404       3     222     252     253    2396    2091    2092+
+           2090    3726    3535    3540
CTETRA      2405       3     505     528     527    2291     926     925+
+            924    2903    4315    4421
CTETRA      2406       3    1533    1077    2389    2444    4651    3649+
+           3659    3657    3650    3406
CTETRA      2407       3    1471    1475    2397    2401    1595    3061+
+           4087    4250    3062    3064
CTETRA      2408       3      40    2312     189    2446    4108    4512+
+           1898    4109    3560    4513
CTETRA      2409       3     525     526     564    2307     919     986+
+            985    4345    3792    4582
CTETRA      2410       3     286     296     297    2410    2167    2164+
+           2165    3627    3629    4529
CTETRA      2411       3      58    1520     206    1523    1823    4635+
+           1953    1822    1708    3167
CTETRA      2412       3     673     674    2373    2451     681    3580+
+           3579    4193    4081    4082
CTETRA      2413       3     215     246     247    2440    2069    2074+
+           2073    4501    4624    4560
CTETRA      2414       3     675    1076    2389    2436    1168    3118+
+           3117    3828    4356    3789
CTETRA      2415       3     296     299     297    2442    2162    2163+
+           2164    4474    3768    4406
CTETRA      2416       3     241     272     242    2428    2146    2150+
+           2059    4338    3244    4454
CTETRA      2417       3    1519    1523    2416    2420    1707    3166+
+           3152    3155    3160    3156
CTETRA      2418       3     205    1520    1517    2420    4606    1701+
+           3372    4222    3159    4605
CTETRA      2419       3    1522    1526    1525    2413    1714    1713+
+           1712    4448    3880    3879
CTETRA      2420       3     696    1067    1066    2340    1123    1122+
+           1118    3521    3071    3517
CTETRA      2421       3     727    1482    1485    1067    1767    1618+
+           1770    1127    4160    3072
CTETRA      2422       3    1272    1273    1275    2324    1350    1356+
+           1355    4505    4001    4002
CTETRA      2423       3     492    2324     801    2339    2672    2674+
+           2671    4629    4018    4633
CTETRA      2424       3     493     801    1234    2339    4654    1359+
+           4393    4395    4633    2734
CTETRA      2425       3     557    2305    2377    2393    2961    2885+
+           4372    4374    3987    3013
CTETRA      2426       3     290     298     291    2427    2189    2183+
+           2190    3235    3241    4142
CTETRA      2427       3     673    1074     674    2451    1187    1181+
+            681    4193    4194    4081
CTETRA      2428       3     672    1081    1079    2418    1199    1201+
+           1186    3923    3703    4586
CTETRA      2429       3     210     241     211    2435    2054    2058+
+           1966    3900    4339    4458
CTETRA      2430       3     675     676    1273    2281     678    1406+
+           1407    3989    2972    3548
CTETRA      2431       3     209     240     210    2430    2051    2055+
+           1963    3897    3904    3898
CTETRA      2432       3    1483    1484    1487    2384    1615    1624+
+           1623    2918    4171    2919
CTETRA      2433       3     802    1275    2282    2324    1403    4209+
+           2950    4632    4002    4017
CTETRA      2434       3    1524    1528    1527    2415    1718    1717+
+           1716    4546    4111    3971
CTETRA      2435       3     696    2259     697    2260    3137    3142+
+            703    3138    2459    3141
CTETRA      2436       3     193    2384    1484    2395    4253    4171+
+           4567    3756    4169    4568
CTETRA      2437       3    2302    2310    2363    2439    3471    3738+
+           3737    3472    3474    4095
CTETRA      2438       3     230     261     262    2360    2114    2119+
+           2118    4488    4557    3618
CTETRA      2439       3     726    1485    1066    1067    1769    3516+
+           1126    1125    3072    1122
CTETRA      2440       3     199     229     230    2328    2022    2023+
+           2021    3208    4185    4489
CTETRA      2441       3     505     506     528    2291     859     927+
+            926    2903    2905    4315
CTETRA      2442       3    1461    1462    1465    2302    1563    1572+
+           1571    3597    4240    4110
CTETRA      2443       3    2271    2287    2280    2394    2992    2993+
+           2558    3034    3023    3022
CTETRA      2444       3    2262    2349    2268    2375    2775    2774+
+           2773    3015    3011    2935
CTETRA      2445       3    2265    2318    2331    2358    3760    3210+
+           3218    3390    3211    3213
CTETRA      2446       3     261    2358     284    2360    4556    3630+
+           2173    4557    2819    3621
CTETRA      2447       3    1247    2453    2376    2454    4077    3996+
+           3992    4078    4048    4199
CTETRA      2448       3     260     283     261    2424    2243    2174+
+           2116    4617    4532    4558
CTETRA      2449       3     193     224    2326    2395    2003    4257+
+           4251    3756    3633    4168
CTETRA      2450       3    1485    2340    2347    2382    3070    2763+
+           2906    2908    3519    2900
CTETRA      2451       3     225     256     226    2326    2099    2103+
+           2011    4252    4259    4445
CTETRA      2452       3      45    1481     193    1484    1849    3753+
+           1914    1848    1617    4567
CTETRA      2453       3     255     281     256    2326    2218    2251+
+           2101    4258    4249    4259
CTETRA      2454       3     253     279     280    2357    2217    2213+
+           2216    3539    3546    3531
CTETRA      2455       3    2271    2287    2283    2290    2992    4330+
+           4364    2544    4362    3270
CTETRA      2456       3     292     299     293    2442    2223    2202+
+           2225    4424    3768    4631
CTETRA      2457       3      44     193      45    1481    1910    1914+
+            789    1850    3753    1849
CTETRA      2458       3     192    1481    1478    2395    3754    1610+
+           4276    3755    3757    4088
CTETRA      2459       3     224     256     225    2326    2100    2099+
+           2008    4257    4259    4252
CTETRA      2460       3     191     192    1478    2395    1909    4276+
+           4652    3682    3755    4088
CTETRA      2461       3      37     186     187    2345    1889    1894+
+           1893    4232    4462    4237
CTETRA      2462       3     689    2364    2352    2434    4544    2826+
+           3281    3283    3309    3284
CTETRA      2463       3       1      63     182    1538     770    1970+
+           1882    1811    1812    4549
CTETRA      2464       3     670    1263    1261    2292    1417    1332+
+           1418    4134    3980    4127
CTETRA      2465       3    1455    1456    1459    2439    1549    1558+
+           1557    3487    3515    3490
CTETRA      2466       3    1533    1537    1536    2444    1739    1738+
+           1737    3657    3658    3653
CTETRA      2467       3     213     244    2432    2445    2068    4115+
+           4547    4353    3893    4335
CTETRA      2468       3     218     249     219    2309    2078    2082+
+           1990    4477    4305    4478
CTETRA      2469       3    2271    2291    2283    2394    2545    4316+
+           4364    3034    4204    4324
CTETRA      2470       3      38     187     188    2316    1892    1897+
+           1896    4603    4236    2644
CTETRA      2471       3      63     212     182    1538    1967    1971+
+           1970    1812    2632    4549
CTETRA      2472       3    1491    1494    1058    2422    1639    4031+
+           4641    4579    3664    4032
CTETRA      2473       3    2322    2351    2348    2438    3386    2790+
+           2804    3549    3725    3550
CTETRA      2474       3     269     288     270    2421    2187    2255+
+           2142    4465    3266    3265
CTETRA      2475       3    1497    1500    1083    2327    1653    2911+
+           3559    2684    2913    2912
CTETRA      2476       3     723     724    1494    1058     745    1776+
+           1775    1134    1133    4031
CTETRA      2477       3     244     274     275    2380    2156    2195+
+           2244    4113    4311    4117
CTETRA      2478       3     220     251     252    2448    2084    2089+
+           2088    4085    4241    3536
CTETRA      2479       3     692    2314    1070    2355    3593    3589+
+           1145    3595    3594    4090
CTETRA      2480       3    1236    1239    1238    2338    1283    1282+
+           1281    4007    3946    3945
CTETRA      2481       3    1509    1512    1086    2409    1681    4284+
+           4640    3701    3381    4527
CTETRA      2482       3    1503    1504    2342    2343    1661    2743+
+           3820    4135    2745    2744
CTETRA      2483       3     258     281     282    2320    2249    2221+
+           2208    4435    4248    4534
CTETRA      2484       3      53     202     203    1508    1937    1942+
+           1941    1832    4538    4639
CTETRA      2485       3     254     280     255    2317    2215    2219+
+           2098    4483    3530    2648
CTETRA      2486       3    1506    1507    1510    2441    1668    1677+
+           1676    4143    3826    3354
CTETRA      2487       3     495    1236    1238    2338    2721    1281+
+           4466    4006    4007    3945
CTETRA      2488       3    2266    2268    2270    2295    2479    2846+
+           2573    2587    2572    3130
CTETRA      2489       3      39     188    1466    2316    1895    2643+
+           1860    4604    2644    2646
CTETRA      2490       3     691    2425    2363    2426    4065    3860+
+           4201    4434    3226    3739
CTETRA      2491       3     293    2322    2438    2442    3543    3549+
+           4630    4631    3389    3778
CTETRA      2492       3    1471    2314    2315    2398    2633    2637+
+           2636    3856    3610    3048
CTETRA      2493       3     694    2356    2355    2399    4050    4056+
+           4073    4303    4075    4074
CTETRA      2494       3    1474    1475    1478    2397    1594    1603+
+           1602    3056    3061    4089
CTETRA      2495       3     223    2317    2395    2396    2647    3038+
+           3632    4003    3716    3041
CTETRA      2496       3     495     517     516    2335     894     892+
+            893    4290    3676    2728
CTETRA      2497       3     493    1234     494    2334    4393    2725+
+            823    4394    2726    2722
CTETRA      2498       3     492     801     493    2339    2671    4654+
+            819    4629    4633    4395
CTETRA      2499       3     449     493     801    1234     821    4654+
+            803    1358    4393    1359
CTETRA      2500       3      40     189     190    2446    1898    1903+
+           1902    4109    4513    3424
CTETRA      2501       3     450     801     492    1274    1400    2671+
+            884    1398    1401    2670
CTETRA      2502       3      41    2401    1472    2446    3422    4285+
+           1856    3423    3425    4286
CTETRA      2503       3     269    2417     288    2421    4468    4528+
+           2187    4465    3811    3266
CTETRA      2504       3    1500    1082    1083    2383    3494    1207+
+           2911    2914    3672    2915
CTETRA      2505       3     230     231    2328    2360    2026    4653+
+           4489    4488    4491    3191
CTETRA      2506       3     200    1505    1502    2366    4583    1666+
+           3461    3464    4649    3465
CTETRA      2507       3     564     566     565    2304     816     817+
+            818    3721    4655    2617
CTETRA      2508       3     673     674    1269    2274     681    1410+
+           1411    3578    3251    2756
CTETRA      2509       3     203    2362     234    2371    3455    4211+
+           2033    3456    3457    4210
CTETRA      2510       3     503    1252    1254    2378    4593    1313+
+           3286    4594    4349    4650
CTETRA      2511       3     527     528     566    2304     925     990+
+            988    3720    4317    4655
CTETRA      2512       3     284     296     285    2359    2171    2179+
+           2177    3620    3626    4029
CTETRA      2513       3     694    1071    1069    2399    1151    1150+
+           1140    4303    3852    4256
CTETRA      2514       3     695     696    1249    2260     704    1430+
+           1431    3133    3138    3967
CTETRA      2515       3    2317    2321    2320    2326    2664    2663+
+           2660    2758    2757    2679
CTETRA      2516       3     644    2299    2259    2333    4229    2937+
+           4565    4227    2700    3504
CTETRA      2517       3    2375    2391    2376    2453    3017    4047+
+           2874    3868    3867    3996
CTETRA      2518       3     528     529     547    2283     928     994+
+            993    2515    4638    2516
CTETRA      2519       3     695    1065     696    2340    1121    1120+
+            704    4174    4334    3521
CTETRA      2520       3     513    1272    1274    2324    4590    1353+
+           4591    4628    4505    2673
CTETRA      2521       3     496     497     519    2390     832     900+
+            899    4380    4296    4295
CTETRA      2522       3     503    1254     504    2378    3286    4595+
+            853    4594    4650    4596
CTETRA      2523       3     530     548     547    2283     997     995+
+            996    4320    3268    2516
CTETRA      2524       3     468     496    1238    1240     830    4467+
+           1362    1365    4619    1285
CTETRA      2525       3    2349    2392    2377    2393    3001    3010+
+           3007    3012    3693    3013
CTETRA      2526       3     278     292     293    2438    2232    2225+
+           2233    4304    4423    4630
CTETRA      2527       3     252    2357     253    2396    3533    3539+
+           2092    3535    3534    3540
CTETRA      2528       3     293     299    2322    2442    2202    3766+
+           3543    4631    3768    3389
CTETRA      2529       3     278     293    2322    2438    2233    3543+
+           3542    4304    4630    3549
CTETRA      2530       3    2279    2288    2285    2339    2527    3571+
+           3563    3577    4580    4041
CTETRA      2531       3     529     530     547    2283     931     996+
+            994    4638    4320    2516
CTETRA      2532       3     280     293     294    2322    2212    2201+
+           2214    3529    3543    3764
CTETRA      2533       3     283     295     284    2358    2168    2169+
+           2170    4531    4537    3630
CTETRA      2534       3     801    2324     802    2339    2674    4632+
+            804    4633    4018    2953
CTETRA      2535       3     261     284     262    2360    2173    2172+
+           2119    4557    3621    3618
CTETRA      2536       3    1464    2302    1465    2314    3598    4110+
+           1570    4514    4099    3608
CTETRA      2537       3     284     295     296    2358    2169    2160+
+           2171    3630    4537    3631
CTETRA      2538       3     691    1241    1239    2387    1439    1288+
+           1440    4063    4062    4198
CTETRA      2539       3    1242    2390    1243    2454    4376    4035+
+           1290    4377    3870    4034
CTETRA      2540       3     674     675    1271    2281     679    1408+
+           1409    3252    3989    3573
CTETRA      2541       3     211     241     242    2435    2058    2059+
+           2057    4458    4339    4455
CTETRA      2542       3     242    2435    2428    2445    4455    4336+
+           4454    4597    3787    3403
CTETRA      2543       3     506    1260     507    2291    4618    4414+
+            862    2905    4417    4416
CTETRA      2544       3    1534    1538    1537    2437    1742    1741+
+           1740    3655    3772    3656
CTETRA      2545       3      61     209     210    2435    1962    1963+
+           1961    4648    3899    3900
CTETRA      2546       3     206    1523    1520    2420    3167    1708+
+           4635    3168    3160    3159
CTETRA      2547       3     507    1262     508    2394    4415    4418+
+            865    4623    4332    4322
CTETRA      2548       3    2431    2435    2436    2437    3288    3292+
+           3291    3308    3784    3791
CTETRA      2549       3      58     206     207    1523    1953    1954+
+           1952    1822    3167    3176
CTETRA      2550       3     543     544    2305    2456     973    4275+
+           4267    4269    4280    4066
CTETRA      2551       3     497     498     519    2449     835     902+
+            900    4297    4370    3937
CTETRA      2552       3     542     557     556    2393    1018    1019+
+           1020    4644    4374    4373
CTETRA      2553       3    2332    2347    2382    2423    2896    2900+
+           2899    3189    3501    3500
CTETRA      2554       3    2371    2450    2405    2457    4221    3708+
+           3363    4213    4495    4197
CTETRA      2555       3    1513    1514    1517    2372    1685    1694+
+           1693    3816    2857    2859
CTETRA      2556       3     276    2380    2438    2440    4308    3740+
+           4627    4310    3741    3742
CTETRA      2557       3     802     688    1235    2369    1447    1445+
+           1446    2975    4621    4015
CTETRA      2558       3      45     193     194    1484    1914    1915+
+           1913    1848    4567    4572
CTETRA      2559       3    1534    1535    1538    2437    1734    1743+
+           1742    3655    3783    3772
CTETRA      2560       3     554     565     559    2377    1044    1042+
+           1045    4520    3201    3200
CTETRA      2561       3    1485    1488    1066    2382    1625    4637+
+           3516    2908    3510    3518
CTETRA      2562       3     208    1529    1526    2452    4402    1722+
+           3888    3890    3935    3883
CTETRA      2563       3    2432    2433    2443    2445    3280    3396+
+           4178    4335    3405    4126
CTETRA      2564       3    1073    1081    2409    2419    1195    4524+
+           4526    4124    3707    3384
CTETRA      2565       3     527     566     564    2304     988     816+
+            987    3720    4655    3721
CTETRA      2566       3    2263    2350    2352    2369    2986    2985+
+           2779    3857    2981    2863
CTETRA      2567       3    2305    2386    2376    2456    3997    3986+
+           2872    4066    4069    4046
CTETRA      2568       3     192     223     224    2395    2000    2005+
+           2004    3755    3632    3633
CTETRA      2569       3     671    1086    1073    2409    1223    1224+
+           1200    3099    4527    4526
CTETRA      2570       3    1497    1083    1084    2327    3559    1213+
+           3734    2684    2912    3660
CTETRA      2571       3     667    2327    1083    2383    3661    2912+
+           1205    4228    2916    2915
CTETRA      2572       3     526    2304     564    2307    3719    3721+
+            986    3792    2619    4582
CTETRA      2573       3     667    1083     668    2383    1205    1204+
+            683    4228    2915    3842
CTETRA      2574       3     551    2286    2287    2288    4365    2525+
+           2540    2539    2529    2528
CTETRA      2575       3      43     191     192    1478    1908    1909+
+           1907    1852    4652    4276
CTETRA      2576       3    1494    1495    2327    2330    1640    2685+
+           2682    2703    2691    2704
CTETRA      2577       3    1498    1499    1502    2328    1650    1659+
+           1658    2687    3209    3462
CTETRA      2578       3     667     668    1257    2300     683    1422+
+           1423    3412    3841    3413
CTETRA      2579       3     184     216     185    2337    1980    1979+
+           1888    4120    4397    2717
CTETRA      2580       3     262     284     285    2359    2172    2177+
+           2176    3617    3620    4029
CTETRA      2581       3    2265    2269    2294    2318    2481    2567+
+           2566    3760    3836    2656
CTETRA      2582       3     668    1259    1257    2385    1421    1324+
+           1422    3972    3957    3953
CTETRA      2583       3     668    1082     669    2383    1206    1228+
+            687    3842    3672    3843
CTETRA      2584       3     255    2317     281    2326    2648    4226+
+           2218    4258    2758    4249
CTETRA      2585       3     499    2376     500    2456    4043    3983+
+            841    4044    4046    4068
CTETRA      2586       3     228    2329    2319    2424    4469    3912+
+           4355    4577    3196    4230
CTETRA      2587       3     530     531     549    2287     934    1000+
+            999    4328    3020    4611
CTETRA      2588       3    1250    1251    1253    2386    1306    1312+
+           1311    4231    2940    3411
CTETRA      2589       3     524     525    2307    2378     916    4345+
+           2922    4382    4346    4319
CTETRA      2590       3     522     523     544    2456     910     977+
+            975    4581    4279    4280
CTETRA      2591       3     667    1255     644    2379    1424    1425+
+            684    3414    3419    2892
CTETRA      2592       3     644    1255    1253    2379    1425    1316+
+           1426    2892    3419    2893
CTETRA      2593       3     524    2307    2306    2378    2922    2611+
+           4137    4382    4319    2880
CTETRA      2594       3     199    1502    1499    2328    3747    1659+
+           3205    3208    3462    3209
CTETRA      2595       3     722     723    1497    1084     766    1778+
+           1777    1216    1217    3734
CTETRA      2596       3     499     522     521    2456     908     907+
+            906    4044    4581    4045
CTETRA      2597       3     501     524     523    2386     914     913+
+            912    4282    4139    4281
CTETRA      2598       3    1246    1247    1249    2376    1298    1304+
+           1303    4552    3992    3994
CTETRA      2599       3    1492    1496    1495    2329    1644    1643+
+           1642    4470    4145    2689
CTETRA      2600       3    1246    1249    1248    2376    1303    1302+
+           1301    4552    3994    3984
CTETRA      2601       3     724    1491    1058    1068    1773    4641+
+           1133    1135    4636    1132
CTETRA      2602       3     251     278    2357    2403    2236    3545+
+           3523    3526    3973    3527
CTETRA      2603       3    1248    2376    1249    2386    3984    3994+
+           1302    2938    3986    2939
CTETRA      2604       3     467     497    1240    1242     833    4620+
+           1364    1367    4626    1289
CTETRA      2605       3     518     519     541    2392     898     966+
+            965    4146    4378    3694
CTETRA      2606       3    1485    1489    1488    2382    1627    1626+
+           1625    2908    2909    3510
CTETRA      2607       3    2259    2265    2261    2294    2471    2470+
+           2462    3430    2566    2565
CTETRA      2608       3    1464    1468    1467    2314    1578    1577+
+           1576    4514    2634    3588
CTETRA      2609       3     244     274    2432    2445    2156    4314+
+           4115    3893    3892    4335
CTETRA      2610       3     802    2324    2282    2339    4632    4017+
+           2950    2953    4018    2954
CTETRA      2611       3    2332    2382    2422    2423    2899    3513+
+           3186    3189    3500    3190
CTETRA      2612       3     694    1069     695    2399    1140    1139+
+            706    4303    4256    4079
CTETRA      2613       3     182     213     183    2443    1975    1973+
+           1881    4452    4451    4500
CTETRA      2614       3     725    1066    1488    1068    1137    4637+
+           1771    1138    1136    3508
CTETRA      2615       3     528     546     566    2304     991     989+
+            990    4317    4400    4655
CTETRA      2616       3     709     710    1536    1077     756    1804+
+           1803    1172    1173    3652
CTETRA      2617       3     674    1078     675    2451    1179    1180+
+            679    4081    3830    3829
CTETRA      2618       3    2317    2322    2323    2357    2665    2669+
+           2668    3532    2806    2808
CTETRA      2619       3     696    1066     697    2382    1118    1119+
+            703    3522    3518    3505
CTETRA      2620       3     198    2328    1496    2329    3207    4144+
+           3469    4578    2690    4145
CTETRA      2621       3     731    1070    1470    1072    1148    3591+
+           1759    1159    1158    3853
CTETRA      2622       3     733    1464    1467    1059    1755    1576+
+           1758    1116    3602    3587
CTETRA      2623       3     258     282    2319    2320    2208    3254+
+           3253    4435    4534    2658
CTETRA      2624       3     247     277     248    2402    2247    2248+
+           2077    4559    3066    4612
CTETRA      2625       3     693    1070    1072    2355    1154    1158+
+           1157    4055    4090    3847
CTETRA      2626       3     692    2355     693    2455    3595    4055+
+            707    4039    4057    4053
CTETRA      2627       3     227     258    2319    2325    2105    3253+
+           4354    4277    4278    3497
CTETRA      2628       3     696     697    1251    2260     703    1428+
+           1429    3138    3141    3962
CTETRA      2629       3     695     696    2258    2340     704    3136+
+           3132    4174    3521    2737
CTETRA      2630       3     223     254     255    2317    2093    2098+
+           2097    2647    4483    2648
CTETRA      2631       3     697    1068    2333    2382    1130    4033+
+           3503    3505    3509    3506
CTETRA      2632       3     668    1083    1082    2383    1204    1207+
+           1206    3842    2915    3672
CTETRA      2633       3    2390    2392    2391    2449    3003    3002+
+           2999    4298    3697    3869
CTETRA      2634       3    1458    1462    1461    2302    1564    1563+
+           1562    4093    4240    3597
CTETRA      2635       3    1485    1486    1489    2347    1619    1628+
+           1627    2906    2769    2907
CTETRA      2636       3    1497    1501    1500    2327    1655    1654+
+           1653    2684    3673    2913
CTETRA      2637       3     730    1473    1071    1072    1761    4569+
+           1153    1160    4570    1156
CTETRA      2638       3     231    2328    2360    2366    4653    3191+
+           4491    4492    3466    2833
CTETRA      2639       3     228     258     259    2319    2109    2110+
+           2108    4355    3253    3255
CTETRA      2640       3    2328    2360    2366    2367    3191    2833+
+           3466    3460    2834    2836
CTETRA      2641       3     724    1491    1494    1058    1773    1639+
+           1776    1133    4641    4031
CTETRA      2642       3    2299    2327    2330    2333    3666    2704+
+           2694    2700    2706    2701
CTETRA      2643       3     695    1249    1247    2356    1431    1304+
+           1432    3134    3991    3990
CTETRA      2644       3     643     676    1075    2389     677    1166+
+           1162    4179    2973    3648
CTETRA      2645       3    1524    1525    1528    2415    1710    1719+
+           1718    4546    4555    4111
CTETRA      2646       3     672    1079     673    2418    1186    1185+
+            680    3923    4586    3925
CTETRA      2647       3     221     252     222    2448    2087    2091+
+           1999    4288    3536    4244
CTETRA      2648       3     211     242     243    2445    2057    2062+
+           2061    4459    4597    3891
CTETRA      2649       3     728    1479    1065    1069    1765    4266+
+           1142    1143    4158    1141
CTETRA      2650       3     276     291     292    2438    2226    2224+
+           2228    4627    3775    4423
CTETRA      2651       3    1525    1526    1529    2452    1713    1722+
+           1721    3881    3883    3935
CTETRA      2652       3     291     299     292    2442    2182    2223+
+           2224    3777    3768    4424
CTETRA      2653       3    1486    1487    1490    2347    1622    1631+
+           1630    2769    2917    3902
CTETRA      2654       3     689     690    2363    2364     700    2957+
+           2956    4544    4103    2827
CTETRA      2655       3    1470    1474    1473    2398    1592    1591+
+           1590    3855    3058    4571
CTETRA      2656       3     279    2322     280    2357    3544    3529+
+           2213    3546    2806    3531
CTETRA      2657       3      46    1484     194    1487    1847    4572+
+           1917    1846    1624    4575
CTETRA      2658       3    1492    1493    1496    2329    1636    1645+
+           1644    4470    3907    4145
CTETRA      2659       3     197     228     229    2329    2015    2020+
+           2019    3906    4469    4186
CTETRA      2660       3     228     260     229    2424    2112    2111+
+           2020    4577    4617    4187
CTETRA      2661       3     229     260     230    2424    2111    2115+
+           2023    4187    4617    4490
CTETRA      2662       3     280    2320    2317    2322    3763    2660+
+           3530    3529    3437    2665
CTETRA      2663       3    1498    1502    2327    2328    1658    4026+
+           2683    2687    3462    2688
CTETRA      2664       3    2323    2395    2397    2400    3039    3044+
+           3043    3053    3077    4200
CTETRA      2665       3     806    1057     642    1075    2592    1163+
+            809    3645    1161    1164
CTETRA      2666       3     495    2335    2338    2390    4290    2731+
+           4006    4299    3677    3940
CTETRA      2667       3     806    1536     807    2444    1806    1807+
+            810    3643    3653    4150
CTETRA      2668       3     273     290    2428    2429    2193    3237+
+           3243    3246    3238    3240
CTETRA      2669       3    2321    2326    2341    2384    2757    2760+
+           2742    4471    4167    4164
CTETRA      2670       3     192     222     223    2395    2001    2002+
+           2000    3755    3681    3632
CTETRA      2671       3     251    2357     252    2448    3523    3533+
+           2089    4241    3537    3536
CTETRA      2672       3    1459    1460    1463    2345    1559    1568+
+           1567    3488    4233    2751
CTETRA      2673       3     643    2369    2370    2434    2976    2854+
+           2977    4333    3285    3743
CTETRA      2674       3     280     294     281    2320    2214    2222+
+           2220    3763    3762    4248
CTETRA      2675       3     224    2317     255    2326    2649    2648+
+           2096    4257    2758    4258
CTETRA      2676       3    1485    1066    1067    2340    3516    1122+
+           3072    3070    3517    3071
CTETRA      2677       3     226    2326    2325    2384    4445    2680+
+           4440    4442    4167    4443
CTETRA      2678       3      48     198      49    1493    1926    1925+
+            785    1842    4599    1841
CTETRA      2679       3     689    1060    1062    2364    1091    1101+
+           1102    4544    4184    4101
CTETRA      2680       3     188     218     219    2316    1989    1990+
+           1988    2644    4479    4481
CTETRA      2681       3    1480    1481    1484    2395    1608    1617+
+           1616    3075    3757    4568
CTETRA      2682       3    1082    2343    2342    2383    3670    2744+
+           4148    3672    3671    3839
CTETRA      2683       3     196    1490    1487    2347    4625    1631+
+           4613    4473    3902    2917
CTETRA      2684       3      45     194      46    1484    1913    1917+
+            788    1848    4572    1847
CTETRA      2685       3     208    2430     209    2452    3895    3897+
+           1960    3890    3896    3901
CTETRA      2686       3    2262    2263    2350    2354    2465    2986+
+           2776    3712    2791    2988
CTETRA      2687       3      53    1505     202    1508    1833    3449+
+           1937    1832    1673    4538
CTETRA      2688       3     725    1488    1491    1068    1771    1632+
+           1774    1138    3508    4636
CTETRA      2689       3     281     294     282    2320    2222    2205+
+           2221    4248    3762    4534
CTETRA      2690       3     202     203    1508    2344    1942    4639+
+           4538    3452    3453    4539
CTETRA      2691       3     286    2410    2450    2457    3627    4411+
+           4344    4306    4307    4495
CTETRA      2692       3    2359    2405    2410    2457    3616    3103+
+           3628    4195    4197    4307
CTETRA      2693       3    1502    1505    2343    2366    1666    3439+
+           4027    3465    4649    3441
CTETRA      2694       3     201     202    2344    2362    1939    3452+
+           3451    4485    4447    3454
CTETRA      2695       3     200     201    1505    2366    1936    3450+
+           4583    3464    4486    4649
CTETRA      2696       3     502    2378     524    2386    4350    4382+
+            915    4351    4070    4139
CTETRA      2697       3    1504    1505    1508    2344    1664    1673+
+           1672    2746    3440    4539
CTETRA      2698       3     295    2318    2322    2442    4536    3837+
+           3765    3767    4431    3389
CTETRA      2699       3     690    1063     691    2426    1108    1111+
+            702    4102    4516    4434
CTETRA      2700       3     232     263     264    2362    2120    2125+
+           2124    4484    3614    3615
CTETRA      2701       3      51     200      52    1502    1931    1935+
+            782    1836    3461    1835
CTETRA      2702       3     674    1271    1269    2281    1409    1348+
+           1410    3252    3573    2561
CTETRA      2703       3    1465    1469    1468    2312    1581    1580+
+           1579    2650    4106    3607
CTETRA      2704       3     188     219     220    2312    1988    1993+
+           1992    2641    4482    4083
CTETRA      2705       3    2323    2397    2398    2400    3043    3050+
+           3049    3053    4200    3054
CTETRA      2706       3     802    2336    2282    2369    2952    2951+
+           2950    2975    4008    2850
CTETRA      2707       3    1522    2413    2415    2416    4448    3113+
+           3927    4449    3114    3116
CTETRA      2708       3     287     297     288    2411    2166    2184+
+           2185    3121    4405    3347
CTETRA      2709       3     674     675    2281    2388     679    3989+
+           3252    4080    3964    2965
CTETRA      2710       3    2413    2414    2430    2452    3111    3299+
+           3894    3882    3796    3896
CTETRA      2711       3     468     496     495    1238     830     829+
+            828    1362    4467    4466
CTETRA      2712       3     268     287     288    2417    1878    2185+
+           2188    4475    3122    4528
CTETRA      2713       3     257    2320     258    2325    2675    4435+
+           2107    2677    2676    4278
CTETRA      2714       3     208     239     240    2430    2048    2053+
+           2052    3895    4461    3904
CTETRA      2715       3    1525    1529    1528    2452    1721    1720+
+           1719    3881    3935    3934
CTETRA      2716       3     242    2428     273    2445    4454    3243+
+           2149    4597    3403    4037
CTETRA      2717       3    1533    1536    1077    2444    1737    3652+
+           4651    3657    3653    3650
CTETRA      2718       3     722    1497    1083    1084    1777    3559+
+           1211    1216    3734    1213
CTETRA      2719       3     282     294    2318    2320    2205    4438+
+           4533    4534    3762    2659
CTETRA      2720       3     512    2288    2278    2324    2538    2537+
+           2536    4507    4510    3998
CTETRA      2721       3     285     296     286    2359    2179    2167+
+           2178    4029    3626    3625
CTETRA      2722       3     671    2274    2275    2406    4140    2490+
+           3096    4523    4208    3085
CTETRA      2723       3     509     532     531    2289     938     937+
+            936    3036    4608    4206
CTETRA      2724       3     669    1082    1087    2342    1228    1231+
+           1230    3833    4148    3824
CTETRA      2725       3     714    1079    1521    1080    1192    4584+
+           1793    1191    1190    3933
CTETRA      2726       3     511    1270     512    2278    4263    4646+
+            877    2535    3093    2536
CTETRA      2727       3     450     492     513    1274     884     883+
+            882    1398    2670    4591
CTETRA      2728       3     494     495     516    2334     826     893+
+            891    2722    2724    2727
CTETRA      2729       3     517    2390     518    2392    3678    4300+
+            895    3679    3003    4146
CTETRA      2730       3     208     240     209    2430    2052    2051+
+           1960    3895    3904    3897
CTETRA      2731       3     206     207    1523    2416    1954    3176+
+           3167    3165    3177    3166
CTETRA      2732       3     237     267     268    2450    2136    1876+
+           2135    4243    4242    4476
CTETRA      2733       3     286     297     287    2410    2165    2166+
+           2158    3627    4529    3119
CTETRA      2734       3      61    1532     209    2435    1816    4357+
+           1962    4648    3963    3899
CTETRA      2735       3     273     290     274    2428    2193    2194+
+           2154    3243    3237    4313
CTETRA      2736       3     267     286     287    2450    2157    2158+
+           1877    4242    4344    4410
CTETRA      2737       3    1506    1510    1509    2441    1676    1675+
+           1674    4143    3354    3814
CTETRA      2738       3     284    2358    2359    2360    3630    2817+
+           3620    3621    2819    2818
CTETRA      2739       3    2350    2354    2352    2363    2988    2987+
+           2985    2979    3311    2828
CTETRA      2740       3     219     250     220    2309    2081    2085+
+           1993    4478    4610    4084
CTETRA      2741       3     237     238    2416    2417    2047    3183+
+           3179    3178    4463    3172
CTETRA      2742       3     279     293     280    2322    2211    2212+
+           2213    3544    3543    3529
CTETRA      2743       3    2342    2368    2344    2441    3637    3365+
+           2747    3808    3367    3355
CTETRA      2744       3    1530    1534    1533    2436    1732    1731+
+           1730    3769    3771    3790
CTETRA      2745       3      54     204      55    1511    1944    1943+
+            779    1830    4224    1829
CTETRA      2746       3     194     225     195    2384    2006    2010+
+           1918    4573    4254    4576
CTETRA      2747       3    1522    2416    2415    2418    4449    3116+
+           3927    3930    3151    3150
CTETRA      2748       3     469     494     470    1236     825     824+
+            646    1360    2720    1361
CTETRA      2749       3    1516    2372    1517    2420    3370    2859+
+           1692    3371    3360    4605
CTETRA      2750       3     195     225     226    2384    2010    2011+
+           2009    4576    4254    4442
CTETRA      2751       3      61      62    1532    2435     772    1815+
+           1816    4648    4450    3963
CTETRA      2752       3     267     287     268    2450    1877    1878+
+           1876    4242    4410    4476
CTETRA      2753       3     540     556    2284    2392    1035    3686+
+           4643    4147    3687    3009
CTETRA      2754       3    2370    2433    2389    2444    3303    3302+
+           2970    4181    3400    3406
CTETRA      2755       3     288     289    2421    2429    2199    3267+
+           3266    3348    4522    3263
CTETRA      2756       3     808    1537    1538    2437    1809    1741+
+           1810    3640    3656    3772
CTETRA      2757       3     238     270     239    2421    2141    2140+
+           2050    3184    3265    4379
CTETRA      2758       3     182     212     213    2445    1971    2063+
+           1975    4453    4550    4353
CTETRA      2759       3     551     552    2286    2288    1007    4391+
+           4365    2539    3569    2529
CTETRA      2760       3      34     183      35    2337    1879    1884+
+            799    4541    4119    4118
CTETRA      2761       3     518     540     539    2392     963     961+
+            962    4146    4147    3691
CTETRA      2762       3      36     185     186    2345    1886    1891+
+           1890    4234    4235    4462
CTETRA      2763       3       1     182     808    1538    1882    4456+
+            812    1811    4549    1810
CTETRA      2764       3    2412    2431    2414    2451    3748    3287+
+           3161    3752    3751    3780
CTETRA      2765       3     468     495     469    1238     828     827+
+            647    1362    4466    1363
CTETRA      2766       3     450     513     451    1274     882     881+
+            665    1398    4591    1399
CTETRA      2767       3     452     512     511    1270     878     877+
+            876    1394    4646    4263
CTETRA      2768       3     492     515     514    2339     887     885+
+            886    4629    4293    4388
CTETRA      2769       3     209    1532    1529    2452    4357    1729+
+           4401    3901    3936    3935
CTETRA      2770       3    1528    1532    1531    2452    1728    1727+
+           1726    3934    3936    3887
CTETRA      2771       3     449     493     492     801     821     819+
+            820     803    4654    2671
CTETRA      2772       3     801     802    1235    2339     804    1446+
+           1448    4633    2953    4005
CTETRA      2773       3     211    2435     242    2445    4458    4455+
+           2057    4459    3787    4597
CTETRA      2774       3     211     243     212    2445    2061    2060+
+           1969    4459    3891    4550
CTETRA      2775       3    1272    1275    1274    2324    1355    1354+
+           1353    4505    4002    2673
CTETRA      2776       3     257     281    2320    2326    2250    4248+
+           2675    2678    4249    2679
CTETRA      2777       3    1479    1483    1482    2346    1613    1612+
+           1611    4157    2767    2910
CTETRA      2778       3     200    2328     231    2366    3463    4653+
+           2024    3464    3466    4492
CTETRA      2779       3     191    1478    1475    2395    4652    1603+
+           4289    3682    4088    3060
CTETRA      2780       3    2258    2323    2399    2400    3434    3052+
+           3717    4155    3053    3055
CTETRA      2781       3    2274    2276    2275    2373    2494    2493+
+           2490    3575    2866    2865
CTETRA      2782       3     730    1473    1476    1071    1761    1597+
+           1764    1153    4569    3736
CTETRA      2783       3     694    2355    1071    2399    4073    3846+
+           1151    4303    4074    3852
CTETRA      2784       3     807    1450    2301    2443    1873    4341+
+           4340    3641    4498    3395
CTETRA      2785       3    1450    1454    1453    2337    1545    1544+
+           1542    4342    2719    3478
CTETRA      2786       3    1458    1461    1063    2302    1562    4515+
+           3294    4093    3597    2598
CTETRA      2787       3     512     513     535    2324     880     948+
+            947    4507    4628    4509
CTETRA      2788       3     508    1264     509    2394    4419    4647+
+            868    4322    4420    4325
CTETRA      2789       3     507     508     529    2283     865     932+
+            930    4436    4321    4638
CTETRA      2790       3     504    1256    2308    2378    4588    3295+
+           4589    4596    4076    2881
CTETRA      2791       3     643    1057    2434    2444    1089    4191+
+           4333    4180    3644    3966
CTETRA      2792       3     802     643     688    2369     805     698+
+           1447    2975    2976    4621
CTETRA      2793       3     508     531     530    2394     935     934+
+            933    4322    3021    4323
CTETRA      2794       3     504    1256     505    2308    4588    4587+
+            856    4589    3295    4562
CTETRA      2795       3    1524    1527    1074    2415    1716    4634+
+           4592    4546    3971    4192
CTETRA      2796       3     734    1063    1461    1064    1105    4515+
+           1753    1117    1114    3606
CTETRA      2797       3    1250    1253    1252    2386    1311    1310+
+           1309    4231    3411    4352
CTETRA      2798       3    1495    1499    1498    2328    1651    1650+
+           1649    2686    3209    2687
CTETRA      2799       3     503     526     525    2378     920     919+
+            918    4594    4347    4346
CTETRA      2800       3     525     564     562    2307     985     984+
+            983    4345    4582    2923
CTETRA      2801       3    2283    2291    2290    2304    4316    2547+
+           3270    4318    4149    2605
CTETRA      2802       3     539     540    2284    2392     961    4643+
+           3688    3691    4147    3009
CTETRA      2803       3     521     544     543    2456     974     973+
+            972    4045    4280    4269
CTETRA      2804       3     512    1270    1272    2278    4646    1349+
+           4506    2536    3093    3095
CTETRA      2805       3     502     525     524    2378     917     916+
+            915    4350    4346    4382
CTETRA      2806       3     540     556     558    2284    1035    1029+
+           1037    4643    3686    4399
CTETRA      2807       3     689    1237    1235    2369    1443    1279+
+           1444    3282    4019    4015
CTETRA      2808       3     554     558     556    2284    1027    1029+
+           1024    4519    4399    3686
CTETRA      2809       3     690    1239    1237    2387    1441    1284+
+           1442    2960    4198    3158
CTETRA      2810       3     546     565     566    2304    1041     817+
+            989    4400    2617    4655
CTETRA      2811       3     723    1058    1494    1084    1134    4031+
+           1775    1217    1215    3733
CTETRA      2812       3     509     510     532    2289     871     939+
+            938    3036    3031    4608
CTETRA      2813       3     554     559    2286    2377    1045    4361+
+           4601    4520    3200    4010
CTETRA      2814       3    2335    2349    2336    2390    3699    3862+
+           2716    3677    3000    3864
$*  Mesh Collector: RBE3 Collector(1)
$*  Mesh: auto_mmc_1_mesh
RBE3        2815             645  1234561.000000     123     493     492+
+            449     470
RBE3        2816             646  1234561.000000     123     494     493+
+            470     469
RBE3        2817             647  1234561.000000     123     495     494+
+            469     468
RBE3        2818             648  1234561.000000     123     496     495+
+            468     467
RBE3        2819             649  1234561.000000     123     497     496+
+            467     466
RBE3        2820             650  1234561.000000     123     498     497+
+            466     465
RBE3        2821             651  1234561.000000     123     499     498+
+            465     464
RBE3        2822             652  1234561.000000     123     500     499+
+            464     463
RBE3        2823             653  1234561.000000     123     501     500+
+            463     462
RBE3        2824             654  1234561.000000     123     502     501+
+            462     461
RBE3        2825             655  1234561.000000     123     503     502+
+            461     460
RBE3        2826             656  1234561.000000     123     504     503+
+            460     459
RBE3        2827             657  1234561.000000     123     505     504+
+            459     458
RBE3        2828             658  1234561.000000     123     506     505+
+            458     457
RBE3        2829             659  1234561.000000     123     507     506+
+            457     456
RBE3        2830             660  1234561.000000     123     508     507+
+            456     455
RBE3        2831             661  1234561.000000     123     509     508+
+            455     454
RBE3        2832             662  1234561.000000     123     510     509+
+            454     453
RBE3        2833             663  1234561.000000     123     511     510+
+            453     452
RBE3        2834             664  1234561.000000     123     512     511+
+            452     451
RBE3        2835             665  1234561.000000     123     513     512+
+            451     450
RBE3        2836             666  1234561.000000     123     492     513+
+            450     449
RBE3        2837             813  1234561.000000     123     561     563+
+            562
RBE3        2838             814  1234561.000000     123     561     563+
+            562
RBE3        2839             815  1234561.000000     123     561     563+
+            562
RBE3        2840             816  1234561.000000     123     564     566+
+            565
RBE3        2841             817  1234561.000000     123     564     566+
+            565
RBE3        2842             818  1234561.000000     123     564     566+
+            565
RBE3        2843             819  1234561.000000     123     515     514+
+            492     493
RBE3        2844             820  1234561.000000     123     492     513+
+            450     449
RBE3        2845             821  1234561.000000     123     493     492+
+            449     470
RBE3        2846             822  1234561.000000     123     493     492+
+            449     470
RBE3        2847             823  1234561.000000     123     516     515+
+            493     494
RBE3        2848             824  1234561.000000     123     494     493+
+            470     469
RBE3        2849             825  1234561.000000     123     495     494+
+            469     468
RBE3        2850             826  1234561.000000     123     517     516+
+            494     495
RBE3        2851             827  1234561.000000     123     495     494+
+            469     468
RBE3        2852             828  1234561.000000     123     495     494+
+            469     468
RBE3        2853             829  1234561.000000     123     518     517+
+            495     496
RBE3        2854             830  1234561.000000     123     496     495+
+            468     467
RBE3        2855             831  1234561.000000     123     496     495+
+            468     467
RBE3        2856             832  1234561.000000     123     519     518+
+            496     497
RBE3        2857             833  1234561.000000     123     497     496+
+            467     466
RBE3        2858             834  1234561.000000     123     498     497+
+            466     465
RBE3        2859             835  1234561.000000     123     520     519+
+            497     498
RBE3        2860             836  1234561.000000     123     498     497+
+            466     465
RBE3        2861             837  1234561.000000     123     498     497+
+            466     465
RBE3        2862             838  1234561.000000     123     521     520+
+            498     499
RBE3        2863             839  1234561.000000     123     499     498+
+            465     464
RBE3        2864             840  1234561.000000     123     500     499+
+            464     463
RBE3        2865             841  1234561.000000     123     522     521+
+            499     500
RBE3        2866             842  1234561.000000     123     500     499+
+            464     463
RBE3        2867             843  1234561.000000     123     501     500+
+            463     462
RBE3        2868             844  1234561.000000     123     523     522+
+            500     501
RBE3        2869             845  1234561.000000     123     501     500+
+            463     462
RBE3        2870             846  1234561.000000     123     501     500+
+            463     462
RBE3        2871             847  1234561.000000     123     524     523+
+            501     502
RBE3        2872             848  1234561.000000     123     502     501+
+            462     461
RBE3        2873             849  1234561.000000     123     502     501+
+            462     461
RBE3        2874             850  1234561.000000     123     525     524+
+            502     503
RBE3        2875             851  1234561.000000     123     503     502+
+            461     460
RBE3        2876             852  1234561.000000     123     504     503+
+            460     459
RBE3        2877             853  1234561.000000     123     526     525+
+            503     504
RBE3        2878             854  1234561.000000     123     504     503+
+            460     459
RBE3        2879             855  1234561.000000     123     504     503+
+            460     459
RBE3        2880             856  1234561.000000     123     527     526+
+            504     505
RBE3        2881             857  1234561.000000     123     505     504+
+            459     458
RBE3        2882             858  1234561.000000     123     506     505+
+            458     457
RBE3        2883             859  1234561.000000     123     528     527+
+            505     506
RBE3        2884             860  1234561.000000     123     506     505+
+            458     457
RBE3        2885             861  1234561.000000     123     506     505+
+            458     457
RBE3        2886             862  1234561.000000     123     529     528+
+            506     507
RBE3        2887             863  1234561.000000     123     507     506+
+            457     456
RBE3        2888             864  1234561.000000     123     507     506+
+            457     456
RBE3        2889             865  1234561.000000     123     530     529+
+            507     508
RBE3        2890             866  1234561.000000     123     508     507+
+            456     455
RBE3        2891             867  1234561.000000     123     509     508+
+            455     454
RBE3        2892             868  1234561.000000     123     531     530+
+            508     509
RBE3        2893             869  1234561.000000     123     509     508+
+            455     454
RBE3        2894             870  1234561.000000     123     509     508+
+            455     454
RBE3        2895             871  1234561.000000     123     532     531+
+            509     510
RBE3        2896             872  1234561.000000     123     510     509+
+            454     453
RBE3        2897             873  1234561.000000     123     511     510+
+            453     452
RBE3        2898             874  1234561.000000     123     533     532+
+            510     511
RBE3        2899             875  1234561.000000     123     511     510+
+            453     452
RBE3        2900             876  1234561.000000     123     512     511+
+            452     451
RBE3        2901             877  1234561.000000     123     534     533+
+            511     512
RBE3        2902             878  1234561.000000     123     512     511+
+            452     451
RBE3        2903             879  1234561.000000     123     512     511+
+            452     451
RBE3        2904             880  1234561.000000     123     535     534+
+            512     513
RBE3        2905             881  1234561.000000     123     513     512+
+            451     450
RBE3        2906             882  1234561.000000     123     492     513+
+            450     449
RBE3        2907             883  1234561.000000     123     514     535+
+            513     492
RBE3        2908             884  1234561.000000     123     492     513+
+            450     449
RBE3        2909             885  1234561.000000     123     537     536+
+            514     515
RBE3        2910             886  1234561.000000     123     514     535+
+            513     492
RBE3        2911             887  1234561.000000     123     515     514+
+            492     493
RBE3        2912             888  1234561.000000     123     516     515+
+            493     494
RBE3        2913             889  1234561.000000     123     538     537+
+            515     516
RBE3        2914             890  1234561.000000     123     516     515+
+            493     494
RBE3        2915             891  1234561.000000     123     516     515+
+            493     494
RBE3        2916             892  1234561.000000     123     539     538+
+            516     517
RBE3        2917             893  1234561.000000     123     517     516+
+            494     495
RBE3        2918             894  1234561.000000     123     517     516+
+            494     495
RBE3        2919             895  1234561.000000     123     540     539+
+            517     518
RBE3        2920             896  1234561.000000     123     518     517+
+            495     496
RBE3        2921             897  1234561.000000     123     519     518+
+            496     497
RBE3        2922             898  1234561.000000     123     541     540+
+            518     519
RBE3        2923             899  1234561.000000     123     519     518+
+            496     497
RBE3        2924             900  1234561.000000     123     520     519+
+            497     498
RBE3        2925             901  1234561.000000     123     542     541+
+            519     520
RBE3        2926             902  1234561.000000     123     520     519+
+            497     498
RBE3        2927             903  1234561.000000     123     520     519+
+            497     498
RBE3        2928             904  1234561.000000     123     543     542+
+            520     521
RBE3        2929             905  1234561.000000     123     521     520+
+            498     499
RBE3        2930             906  1234561.000000     123     522     521+
+            499     500
RBE3        2931             907  1234561.000000     123     544     543+
+            521     522
RBE3        2932             908  1234561.000000     123     522     521+
+            499     500
RBE3        2933             909  1234561.000000     123     522     521+
+            499     500
RBE3        2934             910  1234561.000000     123     545     544+
+            522     523
RBE3        2935             911  1234561.000000     123     523     522+
+            500     501
RBE3        2936             912  1234561.000000     123     523     522+
+            500     501
RBE3        2937             913  1234561.000000     123     563     545+
+            523     524
RBE3        2938             914  1234561.000000     123     524     523+
+            501     502
RBE3        2939             915  1234561.000000     123     524     523+
+            501     502
RBE3        2940             916  1234561.000000     123     562     563+
+            524     525
RBE3        2941             917  1234561.000000     123     525     524+
+            502     503
RBE3        2942             918  1234561.000000     123     526     525+
+            503     504
RBE3        2943             919  1234561.000000     123     564     562+
+            525     526
RBE3        2944             920  1234561.000000     123     526     525+
+            503     504
RBE3        2945             921  1234561.000000     123     526     525+
+            503     504
RBE3        2946             922  1234561.000000     123     566     564+
+            526     527
RBE3        2947             923  1234561.000000     123     527     526+
+            504     505
RBE3        2948             924  1234561.000000     123     528     527+
+            505     506
RBE3        2949             925  1234561.000000     123     546     566+
+            527     528
RBE3        2950             926  1234561.000000     123     528     527+
+            505     506
RBE3        2951             927  1234561.000000     123     529     528+
+            506     507
RBE3        2952             928  1234561.000000     123     547     546+
+            528     529
RBE3        2953             929  1234561.000000     123     529     528+
+            506     507
RBE3        2954             930  1234561.000000     123     529     528+
+            506     507
RBE3        2955             931  1234561.000000     123     548     547+
+            529     530
RBE3        2956             932  1234561.000000     123     530     529+
+            507     508
RBE3        2957             933  1234561.000000     123     530     529+
+            507     508
RBE3        2958             934  1234561.000000     123     549     548+
+            530     531
RBE3        2959             935  1234561.000000     123     531     530+
+            508     509
RBE3        2960             936  1234561.000000     123     532     531+
+            509     510
RBE3        2961             937  1234561.000000     123     550     549+
+            531     532
RBE3        2962             938  1234561.000000     123     532     531+
+            509     510
RBE3        2963             939  1234561.000000     123     532     531+
+            509     510
RBE3        2964             940  1234561.000000     123     551     550+
+            532     533
RBE3        2965             941  1234561.000000     123     533     532+
+            510     511
RBE3        2966             942  1234561.000000     123     533     532+
+            510     511
RBE3        2967             943  1234561.000000     123     552     551+
+            533     534
RBE3        2968             944  1234561.000000     123     534     533+
+            511     512
RBE3        2969             945  1234561.000000     123     535     534+
+            512     513
RBE3        2970             946  1234561.000000     123     553     552+
+            534     535
RBE3        2971             947  1234561.000000     123     535     534+
+            512     513
RBE3        2972             948  1234561.000000     123     514     535+
+            513     492
RBE3        2973             949  1234561.000000     123     536     553+
+            535     514
RBE3        2974             950  1234561.000000     123     514     535+
+            513     492
RBE3        2975             951  1234561.000000     123     537     536+
+            514     515
RBE3        2976             952  1234561.000000     123     536     553+
+            535     514
RBE3        2977             953  1234561.000000     123     537     536+
+            514     515
RBE3        2978             954  1234561.000000     123     538     537+
+            515     516
RBE3        2979             955  1234561.000000     123     538     537+
+            515     516
RBE3        2980             956  1234561.000000     123     538     537+
+            515     516
RBE3        2981             957  1234561.000000     123     538     537+
+            515     516
RBE3        2982             958  1234561.000000     123     539     538+
+            516     517
RBE3        2983             959  1234561.000000     123     539     538+
+            516     517
RBE3        2984             960  1234561.000000     123     539     538+
+            516     517
RBE3        2985             961  1234561.000000     123     540     539+
+            517     518
RBE3        2986             962  1234561.000000     123     540     539+
+            517     518
RBE3        2987             963  1234561.000000     123     541     540+
+            518     519
RBE3        2988             964  1234561.000000     123     541     540+
+            518     519
RBE3        2989             965  1234561.000000     123     541     540+
+            518     519
RBE3        2990             966  1234561.000000     123     542     541+
+            519     520
RBE3        2991             967  1234561.000000     123     542     541+
+            519     520
RBE3        2992             968  1234561.000000     123     542     541+
+            519     520
RBE3        2993             969  1234561.000000     123     542     541+
+            519     520
RBE3        2994             970  1234561.000000     123     543     542+
+            520     521
RBE3        2995             971  1234561.000000     123     543     542+
+            520     521
RBE3        2996             972  1234561.000000     123     544     543+
+            521     522
RBE3        2997             973  1234561.000000     123     544     543+
+            521     522
RBE3        2998             974  1234561.000000     123     544     543+
+            521     522
RBE3        2999             975  1234561.000000     123     545     544+
+            522     523
RBE3        3000             976  1234561.000000     123     545     544+
+            522     523
RBE3        3001             977  1234561.000000     123     545     544+
+            522     523
RBE3        3002             978  1234561.000000     123     545     544+
+            522     523
RBE3        3003             979  1234561.000000     123     563     545+
+            523     524
RBE3        3004             980  1234561.000000     123     563     545+
+            523     524
RBE3        3005             981  1234561.000000     123     562     563+
+            524     525
RBE3        3006             982  1234561.000000     123     562     563+
+            524     525
RBE3        3007             983  1234561.000000     123     564     562+
+            525     526
RBE3        3008             984  1234561.000000     123     564     562+
+            525     526
RBE3        3009             985  1234561.000000     123     564     562+
+            525     526
RBE3        3010             986  1234561.000000     123     564     562+
+            525     526
RBE3        3011             987  1234561.000000     123     566     564+
+            526     527
RBE3        3012             988  1234561.000000     123     546     566+
+            527     528
RBE3        3013             989  1234561.000000     123     546     566+
+            527     528
RBE3        3014             990  1234561.000000     123     546     566+
+            527     528
RBE3        3015             991  1234561.000000     123     547     546+
+            528     529
RBE3        3016             992  1234561.000000     123     547     546+
+            528     529
RBE3        3017             993  1234561.000000     123     547     546+
+            528     529
RBE3        3018             994  1234561.000000     123     547     546+
+            528     529
RBE3        3019             995  1234561.000000     123     548     547+
+            529     530
RBE3        3020             996  1234561.000000     123     548     547+
+            529     530
RBE3        3021             997  1234561.000000     123     548     547+
+            529     530
RBE3        3022             998  1234561.000000     123     549     548+
+            530     531
RBE3        3023             999  1234561.000000     123     549     548+
+            530     531
RBE3        3024            1000  1234561.000000     123     550     549+
+            531     532
RBE3        3025            1001  1234561.000000     123     550     549+
+            531     532
RBE3        3026            1002  1234561.000000     123     550     549+
+            531     532
RBE3        3027            1003  1234561.000000     123     550     549+
+            531     532
RBE3        3028            1004  1234561.000000     123     551     550+
+            532     533
RBE3        3029            1005  1234561.000000     123     551     550+
+            532     533
RBE3        3030            1006  1234561.000000     123     551     550+
+            532     533
RBE3        3031            1007  1234561.000000     123     552     551+
+            533     534
RBE3        3032            1008  1234561.000000     123     552     551+
+            533     534
RBE3        3033            1009  1234561.000000     123     553     552+
+            534     535
RBE3        3034            1010  1234561.000000     123     553     552+
+            534     535
RBE3        3035            1011  1234561.000000     123     553     552+
+            534     535
RBE3        3036            1012  1234561.000000     123     536     553+
+            535     514
RBE3        3037            1013  1234561.000000     123     536     553+
+            535     514
RBE3        3038            1014  1234561.000000     123     536     553+
+            535     514
RBE3        3039            1015  1234561.000000     123     557     543+
+            544     545
RBE3        3040            1016  1234561.000000     123     557     543+
+            544     545
RBE3        3041            1017  1234561.000000     123     557     543+
+            544     545
RBE3        3042            1018  1234561.000000     123     542     543+
+            557     556
RBE3        3043            1019  1234561.000000     123     542     543+
+            557     556
RBE3        3044            1020  1234561.000000     123     556     540+
+            541     542
RBE3        3045            1021  1234561.000000     123     545     563+
+            561     557
RBE3        3046            1022  1234561.000000     123     561     565+
+            559     554
RBE3        3047            1023  1234561.000000     123     557     561+
+            554     556
RBE3        3048            1024  1234561.000000     123     557     561+
+            554     556
RBE3        3049            1025  1234561.000000     123     545     563+
+            561     557
RBE3        3050            1026  1234561.000000     123     537     558+
+            555     536
RBE3        3051            1027  1234561.000000     123     555     558+
+            556     554
RBE3        3052            1028  1234561.000000     123     559     560+
+            555     554
RBE3        3053            1029  1234561.000000     123     539     540+
+            556     558
RBE3        3054            1030  1234561.000000     123     539     558+
+            537     538
RBE3        3055            1031  1234561.000000     123     537     558+
+            555     536
RBE3        3056            1032  1234561.000000     123     555     552+
+            553     536
RBE3        3057            1033  1234561.000000     123     539     558+
+            537     538
RBE3        3058            1034  1234561.000000     123     539     558+
+            537     538
RBE3        3059            1035  1234561.000000     123     556     540+
+            541     542
RBE3        3060            1036  1234561.000000     123     556     540+
+            541     542
RBE3        3061            1037  1234561.000000     123     539     540+
+            556     558
RBE3        3062            1038  1234561.000000     123     559     546+
+            547     548
RBE3        3063            1039  1234561.000000     123     559     546+
+            547     548
RBE3        3064            1040  1234561.000000     123     559     546+
+            547     548
RBE3        3065            1041  1234561.000000     123     566     546+
+            559     565
RBE3        3066            1042  1234561.000000     123     566     546+
+            559     565
RBE3        3067            1043  1234561.000000     123     564     565+
+            561     562
RBE3        3068            1044  1234561.000000     123     561     565+
+            559     554
RBE3        3069            1045  1234561.000000     123     561     565+
+            559     554
RBE3        3070            1046  1234561.000000     123     549     560+
+            559     548
RBE3        3071            1047  1234561.000000     123     559     560+
+            555     554
RBE3        3072            1048  1234561.000000     123     551     552+
+            555     560
RBE3        3073            1049  1234561.000000     123     551     560+
+            549     550
RBE3        3074            1050  1234561.000000     123     549     560+
+            559     548
RBE3        3075            1051  1234561.000000     123     551     560+
+            549     550
RBE3        3076            1052  1234561.000000     123     551     560+
+            549     550
RBE3        3077            1053  1234561.000000     123     555     552+
+            553     536
RBE3        3078            1054  1234561.000000     123     555     552+
+            553     536
RBE3        3079            1055  1234561.000000     123     551     552+
+            555     560
RBE3        3080            1056  1234561.000000     123     564     565+
+            561     562
$*  Mesh Collector: RBE3 Collector(2)
$*  Mesh: auto_mmc_2_mesh
RBE3        3081             770  1234561.000000     123     182       1+
+             63     212
RBE3        3082             771  1234561.000000     123     212      63+
+             62     211
RBE3        3083             772  1234561.000000     123     211      62+
+             61     210
RBE3        3084             773  1234561.000000     123     210      61+
+             60     209
RBE3        3085             774  1234561.000000     123     209      60+
+             59     208
RBE3        3086             775  1234561.000000     123     208      59+
+             58     207
RBE3        3087             776  1234561.000000     123     207      58+
+             57     206
RBE3        3088             777  1234561.000000     123     206      57+
+             56     205
RBE3        3089             778  1234561.000000     123     205      56+
+             55     204
RBE3        3090             779  1234561.000000     123     204      55+
+             54     203
RBE3        3091             780  1234561.000000     123     203      54+
+             53     202
RBE3        3092             781  1234561.000000     123     202      53+
+             52     201
RBE3        3093             782  1234561.000000     123     201      52+
+             51     200
RBE3        3094             783  1234561.000000     123     200      51+
+             50     199
RBE3        3095             784  1234561.000000     123     199      50+
+             49     198
RBE3        3096             785  1234561.000000     123     198      49+
+             48     197
RBE3        3097             786  1234561.000000     123     197      48+
+             47     196
RBE3        3098             787  1234561.000000     123     196      47+
+             46     195
RBE3        3099             788  1234561.000000     123     195      46+
+             45     194
RBE3        3100             789  1234561.000000     123     194      45+
+             44     193
RBE3        3101             790  1234561.000000     123     193      44+
+             43     192
RBE3        3102             791  1234561.000000     123     192      43+
+             42     191
RBE3        3103             792  1234561.000000     123     191      42+
+             41     190
RBE3        3104             793  1234561.000000     123     190      41+
+             40     189
RBE3        3105             794  1234561.000000     123     189      40+
+             39     188
RBE3        3106             795  1234561.000000     123     188      39+
+             38     187
RBE3        3107             796  1234561.000000     123     187      38+
+             37     186
RBE3        3108             797  1234561.000000     123     186      37+
+             36     185
RBE3        3109             798  1234561.000000     123     185      36+
+             35     184
RBE3        3110             799  1234561.000000     123     184      35+
+             34     183
RBE3        3111             800  1234561.000000     123     183      34+
+              1     182
RBE3        3112            1876  1234561.000000     123     268     267+
+            287
RBE3        3113            1877  1234561.000000     123     268     267+
+            287
RBE3        3114            1878  1234561.000000     123     268     267+
+            287
RBE3        3115            1879  1234561.000000     123     184      35+
+             34     183
RBE3        3116            1880  1234561.000000     123     183      34+
+              1     182
RBE3        3117            1881  1234561.000000     123     214     183+
+            182     213
RBE3        3118            1882  1234561.000000     123     182       1+
+             63     212
RBE3        3119            1883  1234561.000000     123     185      36+
+             35     184
RBE3        3120            1884  1234561.000000     123     184      35+
+             34     183
RBE3        3121            1885  1234561.000000     123     215     184+
+            183     214
RBE3        3122            1886  1234561.000000     123     185      36+
+             35     184
RBE3        3123            1887  1234561.000000     123     185      36+
+             35     184
RBE3        3124            1888  1234561.000000     123     216     185+
+            184     215
RBE3        3125            1889  1234561.000000     123     186      37+
+             36     185
RBE3        3126            1890  1234561.000000     123     186      37+
+             36     185
RBE3        3127            1891  1234561.000000     123     217     186+
+            185     216
RBE3        3128            1892  1234561.000000     123     187      38+
+             37     186
RBE3        3129            1893  1234561.000000     123     187      38+
+             37     186
RBE3        3130            1894  1234561.000000     123     218     187+
+            186     217
RBE3        3131            1895  1234561.000000     123     189      40+
+             39     188
RBE3        3132            1896  1234561.000000     123     188      39+
+             38     187
RBE3        3133            1897  1234561.000000     123     219     188+
+            187     218
RBE3        3134            1898  1234561.000000     123     190      41+
+             40     189
RBE3        3135            1899  1234561.000000     123     189      40+
+             39     188
RBE3        3136            1900  1234561.000000     123     220     189+
+            188     219
RBE3        3137            1901  1234561.000000     123     190      41+
+             40     189
RBE3        3138            1902  1234561.000000     123     190      41+
+             40     189
RBE3        3139            1903  1234561.000000     123     221     190+
+            189     220
RBE3        3140            1904  1234561.000000     123     191      42+
+             41     190
RBE3        3141            1905  1234561.000000     123     191      42+
+             41     190
RBE3        3142            1906  1234561.000000     123     222     191+
+            190     221
RBE3        3143            1907  1234561.000000     123     192      43+
+             42     191
RBE3        3144            1908  1234561.000000     123     192      43+
+             42     191
RBE3        3145            1909  1234561.000000     123     223     192+
+            191     222
RBE3        3146            1910  1234561.000000     123     194      45+
+             44     193
RBE3        3147            1911  1234561.000000     123     193      44+
+             43     192
RBE3        3148            1912  1234561.000000     123     224     193+
+            192     223
RBE3        3149            1913  1234561.000000     123     195      46+
+             45     194
RBE3        3150            1914  1234561.000000     123     194      45+
+             44     193
RBE3        3151            1915  1234561.000000     123     225     194+
+            193     224
RBE3        3152            1916  1234561.000000     123     195      46+
+             45     194
RBE3        3153            1917  1234561.000000     123     195      46+
+             45     194
RBE3        3154            1918  1234561.000000     123     226     195+
+            194     225
RBE3        3155            1919  1234561.000000     123     196      47+
+             46     195
RBE3        3156            1920  1234561.000000     123     196      47+
+             46     195
RBE3        3157            1921  1234561.000000     123     227     196+
+            195     226
RBE3        3158            1922  1234561.000000     123     197      48+
+             47     196
RBE3        3159            1923  1234561.000000     123     197      48+
+             47     196
RBE3        3160            1924  1234561.000000     123     228     197+
+            196     227
RBE3        3161            1925  1234561.000000     123     199      50+
+             49     198
RBE3        3162            1926  1234561.000000     123     198      49+
+             48     197
RBE3        3163            1927  1234561.000000     123     229     198+
+            197     228
RBE3        3164            1928  1234561.000000     123     200      51+
+             50     199
RBE3        3165            1929  1234561.000000     123     199      50+
+             49     198
RBE3        3166            1930  1234561.000000     123     230     199+
+            198     229
RBE3        3167            1931  1234561.000000     123     201      52+
+             51     200
RBE3        3168            1932  1234561.000000     123     200      51+
+             50     199
RBE3        3169            1933  1234561.000000     123     231     200+
+            199     230
RBE3        3170            1934  1234561.000000     123     201      52+
+             51     200
RBE3        3171            1935  1234561.000000     123     201      52+
+             51     200
RBE3        3172            1936  1234561.000000     123     232     201+
+            200     231
RBE3        3173            1937  1234561.000000     123     202      53+
+             52     201
RBE3        3174            1938  1234561.000000     123     202      53+
+             52     201
RBE3        3175            1939  1234561.000000     123     233     202+
+            201     232
RBE3        3176            1940  1234561.000000     123     204      55+
+             54     203
RBE3        3177            1941  1234561.000000     123     203      54+
+             53     202
RBE3        3178            1942  1234561.000000     123     234     203+
+            202     233
RBE3        3179            1943  1234561.000000     123     205      56+
+             55     204
RBE3        3180            1944  1234561.000000     123     204      55+
+             54     203
RBE3        3181            1945  1234561.000000     123     235     204+
+            203     234
RBE3        3182            1946  1234561.000000     123     206      57+
+             56     205
RBE3        3183            1947  1234561.000000     123     205      56+
+             55     204
RBE3        3184            1948  1234561.000000     123     236     205+
+            204     235
RBE3        3185            1949  1234561.000000     123     206      57+
+             56     205
RBE3        3186            1950  1234561.000000     123     206      57+
+             56     205
RBE3        3187            1951  1234561.000000     123     237     206+
+            205     236
RBE3        3188            1952  1234561.000000     123     207      58+
+             57     206
RBE3        3189            1953  1234561.000000     123     207      58+
+             57     206
RBE3        3190            1954  1234561.000000     123     238     207+
+            206     237
RBE3        3191            1955  1234561.000000     123     209      60+
+             59     208
RBE3        3192            1956  1234561.000000     123     208      59+
+             58     207
RBE3        3193            1957  1234561.000000     123     239     208+
+            207     238
RBE3        3194            1958  1234561.000000     123     210      61+
+             60     209
RBE3        3195            1959  1234561.000000     123     209      60+
+             59     208
RBE3        3196            1960  1234561.000000     123     240     209+
+            208     239
RBE3        3197            1961  1234561.000000     123     211      62+
+             61     210
RBE3        3198            1962  1234561.000000     123     210      61+
+             60     209
RBE3        3199            1963  1234561.000000     123     241     210+
+            209     240
RBE3        3200            1964  1234561.000000     123     211      62+
+             61     210
RBE3        3201            1965  1234561.000000     123     211      62+
+             61     210
RBE3        3202            1966  1234561.000000     123     242     211+
+            210     241
RBE3        3203            1967  1234561.000000     123     212      63+
+             62     211
RBE3        3204            1968  1234561.000000     123     212      63+
+             62     211
RBE3        3205            1969  1234561.000000     123     243     212+
+            211     242
RBE3        3206            1970  1234561.000000     123     182       1+
+             63     212
RBE3        3207            1971  1234561.000000     123     213     182+
+            212     243
RBE3        3208            1972  1234561.000000     123     214     183+
+            182     213
RBE3        3209            1973  1234561.000000     123     214     183+
+            182     213
RBE3        3210            1974  1234561.000000     123     245     214+
+            213     244
RBE3        3211            1975  1234561.000000     123     213     182+
+            212     243
RBE3        3212            1976  1234561.000000     123     216     185+
+            184     215
RBE3        3213            1977  1234561.000000     123     215     184+
+            183     214
RBE3        3214            1978  1234561.000000     123     246     215+
+            214     245
RBE3        3215            1979  1234561.000000     123     217     186+
+            185     216
RBE3        3216            1980  1234561.000000     123     216     185+
+            184     215
RBE3        3217            1981  1234561.000000     123     247     216+
+            215     246
RBE3        3218            1982  1234561.000000     123     218     187+
+            186     217
RBE3        3219            1983  1234561.000000     123     217     186+
+            185     216
RBE3        3220            1984  1234561.000000     123     248     217+
+            216     247
RBE3        3221            1985  1234561.000000     123     218     187+
+            186     217
RBE3        3222            1986  1234561.000000     123     218     187+
+            186     217
RBE3        3223            1987  1234561.000000     123     249     218+
+            217     248
RBE3        3224            1988  1234561.000000     123     219     188+
+            187     218
RBE3        3225            1989  1234561.000000     123     219     188+
+            187     218
RBE3        3226            1990  1234561.000000     123     250     219+
+            218     249
RBE3        3227            1991  1234561.000000     123     221     190+
+            189     220
RBE3        3228            1992  1234561.000000     123     220     189+
+            188     219
RBE3        3229            1993  1234561.000000     123     251     220+
+            219     250
RBE3        3230            1994  1234561.000000     123     221     190+
+            189     220
RBE3        3231            1995  1234561.000000     123     221     190+
+            189     220
RBE3        3232            1996  1234561.000000     123     252     221+
+            220     251
RBE3        3233            1997  1234561.000000     123     222     191+
+            190     221
RBE3        3234            1998  1234561.000000     123     222     191+
+            190     221
RBE3        3235            1999  1234561.000000     123     253     222+
+            221     252
RBE3        3236            2000  1234561.000000     123     224     193+
+            192     223
RBE3        3237            2001  1234561.000000     123     223     192+
+            191     222
RBE3        3238            2002  1234561.000000     123     254     223+
+            222     253
RBE3        3239            2003  1234561.000000     123     225     194+
+            193     224
RBE3        3240            2004  1234561.000000     123     224     193+
+            192     223
RBE3        3241            2005  1234561.000000     123     255     224+
+            223     254
RBE3        3242            2006  1234561.000000     123     225     194+
+            193     224
RBE3        3243            2007  1234561.000000     123     225     194+
+            193     224
RBE3        3244            2008  1234561.000000     123     256     225+
+            224     255
RBE3        3245            2009  1234561.000000     123     226     195+
+            194     225
RBE3        3246            2010  1234561.000000     123     226     195+
+            194     225
RBE3        3247            2011  1234561.000000     123     257     226+
+            225     256
RBE3        3248            2012  1234561.000000     123     227     196+
+            195     226
RBE3        3249            2013  1234561.000000     123     227     196+
+            195     226
RBE3        3250            2014  1234561.000000     123     258     227+
+            226     257
RBE3        3251            2015  1234561.000000     123     229     198+
+            197     228
RBE3        3252            2016  1234561.000000     123     228     197+
+            196     227
RBE3        3253            2017  1234561.000000     123     259     228+
+            227     258
RBE3        3254            2018  1234561.000000     123     230     199+
+            198     229
RBE3        3255            2019  1234561.000000     123     229     198+
+            197     228
RBE3        3256            2020  1234561.000000     123     260     229+
+            228     259
RBE3        3257            2021  1234561.000000     123     230     199+
+            198     229
RBE3        3258            2022  1234561.000000     123     230     199+
+            198     229
RBE3        3259            2023  1234561.000000     123     261     230+
+            229     260
RBE3        3260            2024  1234561.000000     123     232     201+
+            200     231
RBE3        3261            2025  1234561.000000     123     231     200+
+            199     230
RBE3        3262            2026  1234561.000000     123     262     231+
+            230     261
RBE3        3263            2027  1234561.000000     123     233     202+
+            201     232
RBE3        3264            2028  1234561.000000     123     232     201+
+            200     231
RBE3        3265            2029  1234561.000000     123     263     232+
+            231     262
RBE3        3266            2030  1234561.000000     123     234     203+
+            202     233
RBE3        3267            2031  1234561.000000     123     233     202+
+            201     232
RBE3        3268            2032  1234561.000000     123     264     233+
+            232     263
RBE3        3269            2033  1234561.000000     123     234     203+
+            202     233
RBE3        3270            2034  1234561.000000     123     234     203+
+            202     233
RBE3        3271            2035  1234561.000000     123     265     234+
+            233     264
RBE3        3272            2036  1234561.000000     123     235     204+
+            203     234
RBE3        3273            2037  1234561.000000     123     235     204+
+            203     234
RBE3        3274            2038  1234561.000000     123     266     235+
+            234     265
RBE3        3275            2039  1234561.000000     123     237     206+
+            205     236
RBE3        3276            2040  1234561.000000     123     236     205+
+            204     235
RBE3        3277            2041  1234561.000000     123     267     236+
+            235     266
RBE3        3278            2042  1234561.000000     123     237     206+
+            205     236
RBE3        3279            2043  1234561.000000     123     237     206+
+            205     236
RBE3        3280            2044  1234561.000000     123     268     237+
+            236     267
RBE3        3281            2045  1234561.000000     123     239     208+
+            207     238
RBE3        3282            2046  1234561.000000     123     238     207+
+            206     237
RBE3        3283            2047  1234561.000000     123     269     238+
+            237     268
RBE3        3284            2048  1234561.000000     123     240     209+
+            208     239
RBE3        3285            2049  1234561.000000     123     239     208+
+            207     238
RBE3        3286            2050  1234561.000000     123     270     239+
+            238     269
RBE3        3287            2051  1234561.000000     123     240     209+
+            208     239
RBE3        3288            2052  1234561.000000     123     240     209+
+            208     239
RBE3        3289            2053  1234561.000000     123     271     240+
+            239     270
RBE3        3290            2054  1234561.000000     123     241     210+
+            209     240
RBE3        3291            2055  1234561.000000     123     241     210+
+            209     240
RBE3        3292            2056  1234561.000000     123     272     241+
+            240     271
RBE3        3293            2057  1234561.000000     123     242     211+
+            210     241
RBE3        3294            2058  1234561.000000     123     242     211+
+            210     241
RBE3        3295            2059  1234561.000000     123     273     242+
+            241     272
RBE3        3296            2060  1234561.000000     123     213     182+
+            212     243
RBE3        3297            2061  1234561.000000     123     243     212+
+            211     242
RBE3        3298            2062  1234561.000000     123     274     243+
+            242     273
RBE3        3299            2063  1234561.000000     123     213     182+
+            212     243
RBE3        3300            2064  1234561.000000     123     244     213+
+            243     274
RBE3        3301            2065  1234561.000000     123     245     214+
+            213     244
RBE3        3302            2066  1234561.000000     123     245     214+
+            213     244
RBE3        3303            2067  1234561.000000     123     245     214+
+            213     244
RBE3        3304            2068  1234561.000000     123     245     214+
+            213     244
RBE3        3305            2069  1234561.000000     123     247     216+
+            215     246
RBE3        3306            2070  1234561.000000     123     246     215+
+            214     245
RBE3        3307            2071  1234561.000000     123     246     215+
+            214     245
RBE3        3308            2072  1234561.000000     123     248     217+
+            216     247
RBE3        3309            2073  1234561.000000     123     247     216+
+            215     246
RBE3        3310            2074  1234561.000000     123     247     216+
+            215     246
RBE3        3311            2075  1234561.000000     123     249     218+
+            217     248
RBE3        3312            2076  1234561.000000     123     248     217+
+            216     247
RBE3        3313            2077  1234561.000000     123     277     249+
+            248     247
RBE3        3314            2078  1234561.000000     123     249     218+
+            217     248
RBE3        3315            2079  1234561.000000     123     249     218+
+            217     248
RBE3        3316            2080  1234561.000000     123     277     249+
+            248     247
RBE3        3317            2081  1234561.000000     123     250     219+
+            218     249
RBE3        3318            2082  1234561.000000     123     250     219+
+            218     249
RBE3        3319            2083  1234561.000000     123     250     219+
+            218     249
RBE3        3320            2084  1234561.000000     123     252     221+
+            220     251
RBE3        3321            2085  1234561.000000     123     251     220+
+            219     250
RBE3        3322            2086  1234561.000000     123     251     220+
+            219     250
RBE3        3323            2087  1234561.000000     123     252     221+
+            220     251
RBE3        3324            2088  1234561.000000     123     252     221+
+            220     251
RBE3        3325            2089  1234561.000000     123     252     221+
+            220     251
RBE3        3326            2090  1234561.000000     123     253     222+
+            221     252
RBE3        3327            2091  1234561.000000     123     253     222+
+            221     252
RBE3        3328            2092  1234561.000000     123     253     222+
+            221     252
RBE3        3329            2093  1234561.000000     123     255     224+
+            223     254
RBE3        3330            2094  1234561.000000     123     254     223+
+            222     253
RBE3        3331            2095  1234561.000000     123     254     223+
+            222     253
RBE3        3332            2096  1234561.000000     123     256     225+
+            224     255
RBE3        3333            2097  1234561.000000     123     255     224+
+            223     254
RBE3        3334            2098  1234561.000000     123     255     224+
+            223     254
RBE3        3335            2099  1234561.000000     123     256     225+
+            224     255
RBE3        3336            2100  1234561.000000     123     256     225+
+            224     255
RBE3        3337            2101  1234561.000000     123     257     256+
+            255     281
RBE3        3338            2102  1234561.000000     123     257     226+
+            225     256
RBE3        3339            2103  1234561.000000     123     257     226+
+            225     256
RBE3        3340            2104  1234561.000000     123     257     256+
+            255     281
RBE3        3341            2105  1234561.000000     123     258     227+
+            226     257
RBE3        3342            2106  1234561.000000     123     258     227+
+            226     257
RBE3        3343            2107  1234561.000000     123     258     227+
+            226     257
RBE3        3344            2108  1234561.000000     123     260     229+
+            228     259
RBE3        3345            2109  1234561.000000     123     259     228+
+            227     258
RBE3        3346            2110  1234561.000000     123     259     228+
+            227     258
RBE3        3347            2111  1234561.000000     123     260     229+
+            228     259
RBE3        3348            2112  1234561.000000     123     260     229+
+            228     259
RBE3        3349            2113  1234561.000000     123     260     229+
+            228     259
RBE3        3350            2114  1234561.000000     123     261     230+
+            229     260
RBE3        3351            2115  1234561.000000     123     261     230+
+            229     260
RBE3        3352            2116  1234561.000000     123     261     230+
+            229     260
RBE3        3353            2117  1234561.000000     123     263     232+
+            231     262
RBE3        3354            2118  1234561.000000     123     262     231+
+            230     261
RBE3        3355            2119  1234561.000000     123     262     231+
+            230     261
RBE3        3356            2120  1234561.000000     123     264     233+
+            232     263
RBE3        3357            2121  1234561.000000     123     263     232+
+            231     262
RBE3        3358            2122  1234561.000000     123     263     232+
+            231     262
RBE3        3359            2123  1234561.000000     123     265     234+
+            233     264
RBE3        3360            2124  1234561.000000     123     264     233+
+            232     263
RBE3        3361            2125  1234561.000000     123     265     264+
+            263     285
RBE3        3362            2126  1234561.000000     123     265     234+
+            233     264
RBE3        3363            2127  1234561.000000     123     265     234+
+            233     264
RBE3        3364            2128  1234561.000000     123     265     264+
+            263     285
RBE3        3365            2129  1234561.000000     123     266     235+
+            234     265
RBE3        3366            2130  1234561.000000     123     266     235+
+            234     265
RBE3        3367            2131  1234561.000000     123     285     286+
+            266     265
RBE3        3368            2132  1234561.000000     123     268     237+
+            236     267
RBE3        3369            2133  1234561.000000     123     267     236+
+            235     266
RBE3        3370            2134  1234561.000000     123     287     267+
+            266     286
RBE3        3371            2135  1234561.000000     123     268     237+
+            236     267
RBE3        3372            2136  1234561.000000     123     268     237+
+            236     267
RBE3        3373            2137  1234561.000000     123     270     239+
+            238     269
RBE3        3374            2138  1234561.000000     123     269     238+
+            237     268
RBE3        3375            2139  1234561.000000     123     288     269+
+            268     287
RBE3        3376            2140  1234561.000000     123     271     240+
+            239     270
RBE3        3377            2141  1234561.000000     123     270     239+
+            238     269
RBE3        3378            2142  1234561.000000     123     270     269+
+            288     289
RBE3        3379            2143  1234561.000000     123     271     240+
+            239     270
RBE3        3380            2144  1234561.000000     123     271     240+
+            239     270
RBE3        3381            2145  1234561.000000     123     289     272+
+            271     270
RBE3        3382            2146  1234561.000000     123     272     241+
+            240     271
RBE3        3383            2147  1234561.000000     123     272     241+
+            240     271
RBE3        3384            2148  1234561.000000     123     289     272+
+            271     270
RBE3        3385            2149  1234561.000000     123     273     242+
+            241     272
RBE3        3386            2150  1234561.000000     123     273     242+
+            241     272
RBE3        3387            2151  1234561.000000     123     273     242+
+            241     272
RBE3        3388            2152  1234561.000000     123     244     213+
+            243     274
RBE3        3389            2153  1234561.000000     123     274     243+
+            242     273
RBE3        3390            2154  1234561.000000     123     274     243+
+            242     273
RBE3        3391            2155  1234561.000000     123     244     213+
+            243     274
RBE3        3392            2156  1234561.000000     123     244     213+
+            243     274
RBE3        3393            2157  1234561.000000     123     287     267+
+            266     286
RBE3        3394            2158  1234561.000000     123     287     267+
+            266     286
RBE3        3395            2159  1234561.000000     123     285     286+
+            266     265
RBE3        3396            2160  1234561.000000     123     296     295+
+            299     297
RBE3        3397            2161  1234561.000000     123     296     295+
+            299     297
RBE3        3398            2162  1234561.000000     123     296     295+
+            299     297
RBE3        3399            2163  1234561.000000     123     296     295+
+            299     297
RBE3        3400            2164  1234561.000000     123     287     286+
+            296     297
RBE3        3401            2165  1234561.000000     123     287     286+
+            296     297
RBE3        3402            2166  1234561.000000     123     287     297+
+            298     288
RBE3        3403            2167  1234561.000000     123     296     286+
+            285     284
RBE3        3404            2168  1234561.000000     123     283     295+
+            296     284
RBE3        3405            2169  1234561.000000     123     283     295+
+            296     284
RBE3        3406            2170  1234561.000000     123     284     262+
+            261     283
RBE3        3407            2171  1234561.000000     123     296     286+
+            285     284
RBE3        3408            2172  1234561.000000     123     285     263+
+            262     284
RBE3        3409            2173  1234561.000000     123     284     262+
+            261     283
RBE3        3410            2174  1234561.000000     123     261     260+
+            259     283
RBE3        3411            2175  1234561.000000     123     265     264+
+            263     285
RBE3        3412            2176  1234561.000000     123     285     263+
+            262     284
RBE3        3413            2177  1234561.000000     123     285     263+
+            262     284
RBE3        3414            2178  1234561.000000     123     285     286+
+            266     265
RBE3        3415            2179  1234561.000000     123     296     286+
+            285     284
RBE3        3416            2180  1234561.000000     123     297     299+
+            291     298
RBE3        3417            2181  1234561.000000     123     287     297+
+            298     288
RBE3        3418            2182  1234561.000000     123     297     299+
+            291     298
RBE3        3419            2183  1234561.000000     123     297     299+
+            291     298
RBE3        3420            2184  1234561.000000     123     287     297+
+            298     288
RBE3        3421            2185  1234561.000000     123     288     269+
+            268     287
RBE3        3422            2186  1234561.000000     123     289     288+
+            298     290
RBE3        3423            2187  1234561.000000     123     270     269+
+            288     289
RBE3        3424            2188  1234561.000000     123     288     269+
+            268     287
RBE3        3425            2189  1234561.000000     123     289     288+
+            298     290
RBE3        3426            2190  1234561.000000     123     290     298+
+            291     275
RBE3        3427            2191  1234561.000000     123     290     298+
+            291     275
RBE3        3428            2192  1234561.000000     123     273     290+
+            275     274
RBE3        3429            2193  1234561.000000     123     289     290+
+            273     272
RBE3        3430            2194  1234561.000000     123     273     290+
+            275     274
RBE3        3431            2195  1234561.000000     123     274     275+
+            245     244
RBE3        3432            2196  1234561.000000     123     289     290+
+            273     272
RBE3        3433            2197  1234561.000000     123     289     290+
+            273     272
RBE3        3434            2198  1234561.000000     123     289     272+
+            271     270
RBE3        3435            2199  1234561.000000     123     270     269+
+            288     289
RBE3        3436            2200  1234561.000000     123     289     288+
+            298     290
RBE3        3437            2201  1234561.000000     123     294     293+
+            299     295
RBE3        3438            2202  1234561.000000     123     294     293+
+            299     295
RBE3        3439            2203  1234561.000000     123     294     293+
+            299     295
RBE3        3440            2204  1234561.000000     123     294     293+
+            299     295
RBE3        3441            2205  1234561.000000     123     294     282+
+            281     280
RBE3        3442            2206  1234561.000000     123     282     294+
+            295     283
RBE3        3443            2207  1234561.000000     123     258     282+
+            283     259
RBE3        3444            2208  1234561.000000     123     281     282+
+            258     257
RBE3        3445            2209  1234561.000000     123     258     282+
+            283     259
RBE3        3446            2210  1234561.000000     123     261     260+
+            259     283
RBE3        3447            2211  1234561.000000     123     279     293+
+            294     280
RBE3        3448            2212  1234561.000000     123     279     293+
+            294     280
RBE3        3449            2213  1234561.000000     123     280     254+
+            253     279
RBE3        3450            2214  1234561.000000     123     294     282+
+            281     280
RBE3        3451            2215  1234561.000000     123     281     255+
+            254     280
RBE3        3452            2216  1234561.000000     123     280     254+
+            253     279
RBE3        3453            2217  1234561.000000     123     253     252+
+            251     279
RBE3        3454            2218  1234561.000000     123     257     256+
+            255     281
RBE3        3455            2219  1234561.000000     123     281     255+
+            254     280
RBE3        3456            2220  1234561.000000     123     281     255+
+            254     280
RBE3        3457            2221  1234561.000000     123     281     282+
+            258     257
RBE3        3458            2222  1234561.000000     123     294     282+
+            281     280
RBE3        3459            2223  1234561.000000     123     291     299+
+            293     292
RBE3        3460            2224  1234561.000000     123     291     299+
+            293     292
RBE3        3461            2225  1234561.000000     123     291     299+
+            293     292
RBE3        3462            2226  1234561.000000     123     275     291+
+            292     276
RBE3        3463            2227  1234561.000000     123     276     246+
+            245     275
RBE3        3464            2228  1234561.000000     123     277     276+
+            292     278
RBE3        3465            2229  1234561.000000     123     247     246+
+            276     277
RBE3        3466            2230  1234561.000000     123     276     246+
+            245     275
RBE3        3467            2231  1234561.000000     123     274     275+
+            245     244
RBE3        3468            2232  1234561.000000     123     277     276+
+            292     278
RBE3        3469            2233  1234561.000000     123     278     292+
+            293     279
RBE3        3470            2234  1234561.000000     123     250     278+
+            279     251
RBE3        3471            2235  1234561.000000     123     277     278+
+            250     249
RBE3        3472            2236  1234561.000000     123     250     278+
+            279     251
RBE3        3473            2237  1234561.000000     123     253     252+
+            251     279
RBE3        3474            2238  1234561.000000     123     277     278+
+            250     249
RBE3        3475            2239  1234561.000000     123     277     278+
+            250     249
RBE3        3476            2240  1234561.000000     123     277     249+
+            248     247
RBE3        3477            2241  1234561.000000     123     247     246+
+            276     277
RBE3        3478            2242  1234561.000000     123     277     276+
+            292     278
RBE3        3479            2243  1234561.000000     123     261     260+
+            259     283
RBE3        3480            2244  1234561.000000     123     274     275+
+            245     244
RBE3        3481            2245  1234561.000000     123     253     252+
+            251     279
RBE3        3482            2246  1234561.000000     123     247     246+
+            276     277
RBE3        3483            2247  1234561.000000     123     277     249+
+            248     247
RBE3        3484            2248  1234561.000000     123     277     249+
+            248     247
RBE3        3485            2249  1234561.000000     123     281     282+
+            258     257
RBE3        3486            2250  1234561.000000     123     257     256+
+            255     281
RBE3        3487            2251  1234561.000000     123     257     256+
+            255     281
RBE3        3488            2252  1234561.000000     123     285     286+
+            266     265
RBE3        3489            2253  1234561.000000     123     265     264+
+            263     285
RBE3        3490            2254  1234561.000000     123     265     264+
+            263     285
RBE3        3491            2255  1234561.000000     123     270     269+
+            288     289
RBE3        3492            2256  1234561.000000     123     289     272+
+            271     270
RBE3        3493            2257  1234561.000000     123     289     272+
+            271     270
$*
$* PROPERTY CARDS
$*
$*  Property: PSOLID1::Static_stress_case_study v2_step_fem1::[1]
PSOLID         1       1       0                           SMECH
$*  Property: PSOLID2::Static_stress_case_study v2_step_fem1::[2]
PSOLID         2       1       0                           SMECH
$*  Property: PSOLID3::Static_stress_case_study v2_step_fem1::[3]
PSOLID         3       1       0                           SMECH
$*
$* MATERIAL CARDS
$*
$*  Material: Steel::Static_stress_case_study v2_step_fem1::[1]
MAT1           12.0694+8        0.2880007.8290-61.1280-5
MATT1          1       1               2               3
TABLEM1        1                       1                                +
+        20.00002.0694+8 21.11002.0694+8    ENDT
TABLEM1        2                       1                                +
+        20.00000.288000 21.11000.288000 23.89000.288000 37.78000.288000+
+        51.67000.289000 65.56000.289000 79.44000.290000 93.33000.290000+
+       107.22000.291000121.11000.291000135.00000.291000148.89000.292000+
+       162.78000.292000176.67000.293000190.56000.293000204.44000.293000+
+       218.33000.294000232.22000.294000246.11000.294000260.00000.295000+
+       273.89000.295000287.78000.296000301.67000.296000315.56000.296000+
+       329.44000.297000343.33000.297000357.22000.298000371.11000.298000+
+       385.00000.298000398.89000.299000412.78000.299000426.67000.300000+
+       440.56000.300000454.44000.301000468.33000.301000482.22000.302000+
+       496.11000.302000510.00000.303000523.89000.304000537.78000.304000+
+       551.67000.305000565.56000.306000579.44000.307000593.33000.308000+
+       607.22000.309000621.11000.310000635.00000.311000648.89000.312000+
+       662.78000.313000676.67000.314000690.56000.316000704.44000.317000+
+           ENDT
TABLEM1        3                       1                                +
+        20.00001.1280-5 93.33001.1790-5107.22001.1880-5121.11001.1970-5+
+       135.00001.2060-5148.89001.2132-5162.78001.2222-5176.67001.2312-5+
+       190.56001.2402-5204.44001.2492-5218.33001.2582-5232.22001.2672-5+
+       246.11001.2762-5260.00001.2852-5273.89001.2942-5287.78001.3032-5+
+       301.67001.3122-5315.56001.3212-5329.44001.3302-5343.33001.3392-5+
+       357.22001.3464-5371.11001.3554-5385.00001.3644-5398.89001.3734-5+
+       412.78001.3806-5426.67001.3896-5440.56001.3986-5454.44001.4058-5+
+       468.33001.4148-5482.22001.4238-5496.11001.4310-5510.00001.4400-5+
+       523.89001.4472-5537.78001.4544-5551.67001.4616-5565.56001.4688-5+
+       579.44001.4742-5593.33001.4796-5607.22001.4832-5621.11001.4886-5+
+       635.00001.4904-5648.89001.4922-5662.78001.4922-5676.67001.4922-5+
+       690.56001.4904-5704.44001.4886-5718.33001.4850-5732.22001.4796-5+
+       746.11001.4724-5760.00001.4634-5773.89001.4472-5787.78001.4256-5+
+       801.67001.4004-5815.56001.3680-5    ENDT
$*
$* LOAD AND CONSTRAINT CARDS
$*
$*  Load: Force(1)
FORCE          1       1       0 6773.22  0.0000  0.0000-1.00000
FORCE          1      34       0 6833.76  0.0000  0.0000-1.00000
FORCE          1      35       0 6822.61  0.0000  0.0000-1.00000
FORCE          1      36       0 6637.94  0.0000  0.0000-1.00000
FORCE          1      37       0 6521.34  0.0000  0.0000-1.00000
FORCE          1      38       0 6658.88  0.0000  0.0000-1.00000
FORCE          1      39       0 6865.99  0.0000  0.0000-1.00000
FORCE          1      40       0 6898.54  0.0000  0.0000-1.00000
FORCE          1      41       0 6856.49  0.0000  0.0000-1.00000
FORCE          1      42       0 6898.43  0.0000  0.0000-1.00000
FORCE          1      43       0 6865.75  0.0000  0.0000-1.00000
FORCE          1      44       0 6658.46  0.0000  0.0000-1.00000
FORCE          1      45       0 6520.77  0.0000  0.0000-1.00000
FORCE          1      46       0 6637.30  0.0000  0.0000-1.00000
FORCE          1      47       0 6821.97  0.0000  0.0000-1.00000
FORCE          1      48       0 6833.15  0.0000  0.0000-1.00000
FORCE          1      49       0 6772.48  0.0000  0.0000-1.00000
FORCE          1      50       0 6798.18  0.0000  0.0000-1.00000
FORCE          1      51       0 6757.82  0.0000  0.0000-1.00000
FORCE          1      52       0 6560.86  0.0000  0.0000-1.00000
FORCE          1      53       0 6454.89  0.0000  0.0000-1.00000
FORCE          1      54       0 6633.56  0.0000  0.0000-1.00000
FORCE          1      55       0 6933.08  0.0000  0.0000-1.00000
FORCE          1      56       0 7103.85  0.0000  0.0000-1.00000
FORCE          1      57       0 7103.95  0.0000  0.0000-1.00000
FORCE          1      58       0 6933.35  0.0000  0.0000-1.00000
FORCE          1      59       0 6633.91  0.0000  0.0000-1.00000
FORCE          1      60       0 6455.28  0.0000  0.0000-1.00000
FORCE          1      61       0 6561.36  0.0000  0.0000-1.00000
FORCE          1      62       0 6758.47  0.0000  0.0000-1.00000
FORCE          1      63       0 6798.98  0.0000  0.0000-1.00000
FORCE          1     182       011218.06  0.0000  0.0000-1.00000
FORCE          1     183       011487.84  0.0000  0.0000-1.00000
FORCE          1     184       011571.04  0.0000  0.0000-1.00000
FORCE          1     185       010997.50  0.0000  0.0000-1.00000
FORCE          1     186       010602.40  0.0000  0.0000-1.00000
FORCE          1     187       011034.53  0.0000  0.0000-1.00000
FORCE          1     188       011651.09  0.0000  0.0000-1.00000
FORCE          1     189       011608.07  0.0000  0.0000-1.00000
FORCE          1     190       011372.16  0.0000  0.0000-1.00000
FORCE          1     191       011607.85  0.0000  0.0000-1.00000
FORCE          1     192       011650.69  0.0000  0.0000-1.00000
FORCE          1     193       011033.88  0.0000  0.0000-1.00000
FORCE          1     194       010601.48  0.0000  0.0000-1.00000
FORCE          1     195       010996.40  0.0000  0.0000-1.00000
FORCE          1     196       011569.92  0.0000  0.0000-1.00000
FORCE          1     197       011486.81  0.0000  0.0000-1.00000
FORCE          1     198       011216.80  0.0000  0.0000-1.00000
FORCE          1     199       011414.65  0.0000  0.0000-1.00000
FORCE          1     200       011432.39  0.0000  0.0000-1.00000
FORCE          1     201       010831.51  0.0000  0.0000-1.00000
FORCE          1     202       010450.92  0.0000  0.0000-1.00000
FORCE          1     203       010941.68  0.0000  0.0000-1.00000
FORCE          1     204       011736.49  0.0000  0.0000-1.00000
FORCE          1     205       012080.12  0.0000  0.0000-1.00000
FORCE          1     206       012080.28  0.0000  0.0000-1.00000
FORCE          1     207       011736.94  0.0000  0.0000-1.00000
FORCE          1     208       010942.26  0.0000  0.0000-1.00000
FORCE          1     209       010451.55  0.0000  0.0000-1.00000
FORCE          1     210       010832.31  0.0000  0.0000-1.00000
FORCE          1     211       011433.44  0.0000  0.0000-1.00000
FORCE          1     212       011416.02  0.0000  0.0000-1.00000
FORCE          1     213       0 7121.32  0.0000  0.0000-1.00000
FORCE          1     214       0 7962.23  0.0000  0.0000-1.00000
FORCE          1     215       0 8471.00  0.0000  0.0000-1.00000
FORCE          1     216       0 7223.85  0.0000  0.0000-1.00000
FORCE          1     217       0 6300.84  0.0000  0.0000-1.00000
FORCE          1     218       0 7251.77  0.0000  0.0000-1.00000
FORCE          1     219       0 8541.01  0.0000  0.0000-1.00000
FORCE          1     220       0 8064.64  0.0000  0.0000-1.00000
FORCE          1     221       0 7244.79  0.0000  0.0000-1.00000
FORCE          1     222       0 8064.45  0.0000  0.0000-1.00000
FORCE          1     223       0 8540.79  0.0000  0.0000-1.00000
FORCE          1     224       0 7251.46  0.0000  0.0000-1.00000
FORCE          1     225       0 6300.33  0.0000  0.0000-1.00000
FORCE          1     226       0 7223.09  0.0000  0.0000-1.00000
FORCE          1     227       0 8470.17  0.0000  0.0000-1.00000
FORCE          1     228       0 7961.55  0.0000  0.0000-1.00000
FORCE          1     229       0 7120.47  0.0000  0.0000-1.00000
FORCE          1     230       0 7884.53  0.0000  0.0000-1.00000
FORCE          1     231       0 8308.56  0.0000  0.0000-1.00000
FORCE          1     232       0 7040.80  0.0000  0.0000-1.00000
FORCE          1     233       0 6132.83  0.0000  0.0000-1.00000
FORCE          1     234       0 7063.03  0.0000  0.0000-1.00000
FORCE          1     235       0 8423.79  0.0000  0.0000-1.00000
FORCE          1     236       0 8578.92  0.0000  0.0000-1.00000
FORCE          1     237       0 8579.01  0.0000  0.0000-1.00000
FORCE          1     238       0 8424.06  0.0000  0.0000-1.00000
FORCE          1     239       0 7063.40  0.0000  0.0000-1.00000
FORCE          1     240       0 6133.18  0.0000  0.0000-1.00000
FORCE          1     241       0 7041.21  0.0000  0.0000-1.00000
FORCE          1     242       0 8309.16  0.0000  0.0000-1.00000
FORCE          1     243       0 7885.45  0.0000  0.0000-1.00000
FORCE          1     244       0 4332.80  0.0000  0.0000-1.00000
FORCE          1     245       0 7416.79  0.0000  0.0000-1.00000
FORCE          1     246       0 8024.86  0.0000  0.0000-1.00000
FORCE          1     247       0 5813.24  0.0000  0.0000-1.00000
FORCE          1     248       0 3318.75  0.0000  0.0000-1.00000
FORCE          1     249       0 5833.94  0.0000  0.0000-1.00000
FORCE          1     250       0 8100.56  0.0000  0.0000-1.00000
FORCE          1     251       0 7534.90  0.0000  0.0000-1.00000
FORCE          1     252       0 4423.11  0.0000  0.0000-1.00000
FORCE          1     253       0 7534.83  0.0000  0.0000-1.00000
FORCE          1     254       0 8100.46  0.0000  0.0000-1.00000
FORCE          1     255       0 5833.76  0.0000  0.0000-1.00000
FORCE          1     256       0 3318.53  0.0000  0.0000-1.00000
FORCE          1     257       0 5812.79  0.0000  0.0000-1.00000
FORCE          1     258       0 8024.25  0.0000  0.0000-1.00000
FORCE          1     259       0 7416.20  0.0000  0.0000-1.00000
FORCE          1     260       0 4332.32  0.0000  0.0000-1.00000
FORCE          1     261       0 7320.60  0.0000  0.0000-1.00000
FORCE          1     262       0 7793.91  0.0000  0.0000-1.00000
FORCE          1     263       0 5571.12  0.0000  0.0000-1.00000
FORCE          1     264       0 3174.24  0.0000  0.0000-1.00000
FORCE          1     265       0 5470.55  0.0000  0.0000-1.00000
FORCE          1     266       0 7273.32  0.0000  0.0000-1.00000
FORCE          1     267       0 5577.39  0.0000  0.0000-1.00000
FORCE          1     268       0 5577.44  0.0000  0.0000-1.00000
FORCE          1     269       0 7273.45  0.0000  0.0000-1.00000
FORCE          1     270       0 5470.73  0.0000  0.0000-1.00000
FORCE          1     271       0 3174.38  0.0000  0.0000-1.00000
FORCE          1     272       0 5571.29  0.0000  0.0000-1.00000
FORCE          1     273       0 7794.26  0.0000  0.0000-1.00000
FORCE          1     274       0 7321.25  0.0000  0.0000-1.00000
FORCE          1     275       012857.91  0.0000  0.0000-1.00000
FORCE          1     276       0 9989.08  0.0000  0.0000-1.00000
FORCE          1     277       0 7273.38  0.0000  0.0000-1.00000
FORCE          1     278       010077.68  0.0000  0.0000-1.00000
FORCE          1     279       013200.51  0.0000  0.0000-1.00000
FORCE          1     280       010077.57  0.0000  0.0000-1.00000
FORCE          1     281       0 7273.11  0.0000  0.0000-1.00000
FORCE          1     282       0 9988.64  0.0000  0.0000-1.00000
FORCE          1     283       012857.19  0.0000  0.0000-1.00000
FORCE          1     284       0 9568.36  0.0000  0.0000-1.00000
FORCE          1     285       0 6756.21  0.0000  0.0000-1.00000
FORCE          1     286       0 8773.08  0.0000  0.0000-1.00000
FORCE          1     287       0 9635.69  0.0000  0.0000-1.00000
FORCE          1     288       0 8773.11  0.0000  0.0000-1.00000
FORCE          1     289       0 6756.29  0.0000  0.0000-1.00000
FORCE          1     290       0 9568.66  0.0000  0.0000-1.00000
FORCE          1     291       012568.63  0.0000  0.0000-1.00000
FORCE          1     292       012128.57  0.0000  0.0000-1.00000
FORCE          1     293       012883.55  0.0000  0.0000-1.00000
FORCE          1     294       012128.37  0.0000  0.0000-1.00000
FORCE          1     295       012568.29  0.0000  0.0000-1.00000
FORCE          1     296       011293.01  0.0000  0.0000-1.00000
FORCE          1     297       011769.22  0.0000  0.0000-1.00000
FORCE          1     298       011293.22  0.0000  0.0000-1.00000
FORCE          1     299       012431.65  0.0000  0.0000-1.00000
FORCE          1     770       0 2544.05  0.0000  0.0000-1.00000
FORCE          1     771       0 2565.33  0.0000  0.0000-1.00000
FORCE          1     772       0 2548.31  0.0000  0.0000-1.00000
FORCE          1     773       0 2437.41  0.0000  0.0000-1.00000
FORCE          1     774       0 2497.51  0.0000  0.0000-1.00000
FORCE          1     775       0 2599.14  0.0000  0.0000-1.00000
FORCE          1     776       0 2662.18  0.0000  0.0000-1.00000
FORCE          1     777       0 2669.92  0.0000  0.0000-1.00000
FORCE          1     778       0 2659.96  0.0000  0.0000-1.00000
FORCE          1     779       0 2596.88  0.0000  0.0000-1.00000
FORCE          1     780       0 2499.53  0.0000  0.0000-1.00000
FORCE          1     781       0 2439.36  0.0000  0.0000-1.00000
FORCE          1     782       0 2547.62  0.0000  0.0000-1.00000
FORCE          1     783       0 2562.71  0.0000  0.0000-1.00000
FORCE          1     784       0 2541.39  0.0000  0.0000-1.00000
FORCE          1     785       0 2547.49  0.0000  0.0000-1.00000
FORCE          1     786       0 2577.92  0.0000  0.0000-1.00000
FORCE          1     787       0 2569.54  0.0000  0.0000-1.00000
FORCE          1     788       0 2459.75  0.0000  0.0000-1.00000
FORCE          1     789       0 2506.70  0.0000  0.0000-1.00000
FORCE          1     790       0 2582.53  0.0000  0.0000-1.00000
FORCE          1     791       0 2599.31  0.0000  0.0000-1.00000
FORCE          1     792       0 2574.95  0.0000  0.0000-1.00000
FORCE          1     793       0 2576.07  0.0000  0.0000-1.00000
FORCE          1     794       0 2596.98  0.0000  0.0000-1.00000
FORCE          1     795       0 2582.05  0.0000  0.0000-1.00000
FORCE          1     796       0 2509.49  0.0000  0.0000-1.00000
FORCE          1     797       0 2462.40  0.0000  0.0000-1.00000
FORCE          1     798       0 2567.24  0.0000  0.0000-1.00000
FORCE          1     799       0 2576.17  0.0000  0.0000-1.00000
FORCE          1     800       0 2545.52  0.0000  0.0000-1.00000
FORCE          1    1876       0938.3523  0.0000  0.0000-1.00000
FORCE          1    1877       0 1430.70  0.0000  0.0000-1.00000
FORCE          1    1878       0 1430.70  0.0000  0.0000-1.00000
FORCE          1    1879       0 4619.04  0.0000  0.0000-1.00000
FORCE          1    1880       0 4588.39  0.0000  0.0000-1.00000
FORCE          1    1881       0 3651.73  0.0000  0.0000-1.00000
FORCE          1    1882       0 5089.56  0.0000  0.0000-1.00000
FORCE          1    1883       0 4647.34  0.0000  0.0000-1.00000
FORCE          1    1884       0 4656.26  0.0000  0.0000-1.00000
FORCE          1    1885       0 3827.38  0.0000  0.0000-1.00000
FORCE          1    1886       0 3955.78  0.0000  0.0000-1.00000
FORCE          1    1887       0 4572.79  0.0000  0.0000-1.00000
FORCE          1    1888       0 3641.92  0.0000  0.0000-1.00000
FORCE          1    1889       0 4371.56  0.0000  0.0000-1.00000
FORCE          1    1890       0 4412.64  0.0000  0.0000-1.00000
FORCE          1    1891       0 3438.88  0.0000  0.0000-1.00000
FORCE          1    1892       0 4522.95  0.0000  0.0000-1.00000
FORCE          1    1893       0 4418.65  0.0000  0.0000-1.00000
FORCE          1    1894       0 3399.45  0.0000  0.0000-1.00000
FORCE          1    1895       0 4677.38  0.0000  0.0000-1.00000
FORCE          1    1896       0 4595.51  0.0000  0.0000-1.00000
FORCE          1    1897       0 3657.46  0.0000  0.0000-1.00000
FORCE          1    1898       0 4661.63  0.0000  0.0000-1.00000
FORCE          1    1899       0 4692.31  0.0000  0.0000-1.00000
FORCE          1    1900       0 3852.59  0.0000  0.0000-1.00000
FORCE          1    1901       0 5151.03  0.0000  0.0000-1.00000
FORCE          1    1902       0 4640.72  0.0000  0.0000-1.00000
FORCE          1    1903       0 3696.80  0.0000  0.0000-1.00000
FORCE          1    1904       0 4663.98  0.0000  0.0000-1.00000
FORCE          1    1905       0 4639.63  0.0000  0.0000-1.00000
FORCE          1    1906       0 3696.77  0.0000  0.0000-1.00000
FORCE          1    1907       0 4677.86  0.0000  0.0000-1.00000
FORCE          1    1908       0 4694.63  0.0000  0.0000-1.00000
FORCE          1    1909       0 3852.50  0.0000  0.0000-1.00000
FORCE          1    1910       0 4520.11  0.0000  0.0000-1.00000
FORCE          1    1911       0 4595.95  0.0000  0.0000-1.00000
FORCE          1    1912       0 3657.38  0.0000  0.0000-1.00000
FORCE          1    1913       0 4368.82  0.0000  0.0000-1.00000
FORCE          1    1914       0 4415.77  0.0000  0.0000-1.00000
FORCE          1    1915       0 3399.28  0.0000  0.0000-1.00000
FORCE          1    1916       0 3955.39  0.0000  0.0000-1.00000
FORCE          1    1917       0 4409.86  0.0000  0.0000-1.00000
FORCE          1    1918       0 3438.56  0.0000  0.0000-1.00000
FORCE          1    1919       0 4649.38  0.0000  0.0000-1.00000
FORCE          1    1920       0 4574.82  0.0000  0.0000-1.00000
FORCE          1    1921       0 3641.45  0.0000  0.0000-1.00000
FORCE          1    1922       0 4620.56  0.0000  0.0000-1.00000
FORCE          1    1923       0 4657.76  0.0000  0.0000-1.00000
FORCE          1    1924       0 3826.92  0.0000  0.0000-1.00000
FORCE          1    1925       0 5088.88  0.0000  0.0000-1.00000
FORCE          1    1926       0 4590.13  0.0000  0.0000-1.00000
FORCE          1    1927       0 3651.38  0.0000  0.0000-1.00000
FORCE          1    1928       0 4596.05  0.0000  0.0000-1.00000
FORCE          1    1929       0 4574.72  0.0000  0.0000-1.00000
FORCE          1    1930       0 3639.57  0.0000  0.0000-1.00000
FORCE          1    1931       0 4605.90  0.0000  0.0000-1.00000
FORCE          1    1932       0 4621.00  0.0000  0.0000-1.00000
FORCE          1    1933       0 3782.01  0.0000  0.0000-1.00000
FORCE          1    1934       0 3897.80  0.0000  0.0000-1.00000
FORCE          1    1935       0 4524.46  0.0000  0.0000-1.00000
FORCE          1    1936       0 3583.68  0.0000  0.0000-1.00000
FORCE          1    1937       0 4322.54  0.0000  0.0000-1.00000
FORCE          1    1938       0 4360.31  0.0000  0.0000-1.00000
FORCE          1    1939       0 3381.89  0.0000  0.0000-1.00000
FORCE          1    1940       0 4499.41  0.0000  0.0000-1.00000
FORCE          1    1941       0 4382.71  0.0000  0.0000-1.00000
FORCE          1    1942       0 3346.75  0.0000  0.0000-1.00000
FORCE          1    1943       0 4716.10  0.0000  0.0000-1.00000
FORCE          1    1944       0 4596.76  0.0000  0.0000-1.00000
FORCE          1    1945       0 3623.85  0.0000  0.0000-1.00000
FORCE          1    1946       0 5329.88  0.0000  0.0000-1.00000
FORCE          1    1947       0 4779.19  0.0000  0.0000-1.00000
FORCE          1    1948       0 3938.64  0.0000  0.0000-1.00000
FORCE          1    1949       0 4820.03  0.0000  0.0000-1.00000
FORCE          1    1950       0 4827.77  0.0000  0.0000-1.00000
FORCE          1    1951       0 3971.79  0.0000  0.0000-1.00000
FORCE          1    1952       0 4718.47  0.0000  0.0000-1.00000
FORCE          1    1953       0 4781.51  0.0000  0.0000-1.00000
FORCE          1    1954       0 3938.75  0.0000  0.0000-1.00000
FORCE          1    1955       0 4497.54  0.0000  0.0000-1.00000
FORCE          1    1956       0 4599.16  0.0000  0.0000-1.00000
FORCE          1    1957       0 3624.10  0.0000  0.0000-1.00000
FORCE          1    1958       0 4320.75  0.0000  0.0000-1.00000
FORCE          1    1959       0 4380.84  0.0000  0.0000-1.00000
FORCE          1    1960       0 3347.02  0.0000  0.0000-1.00000
FORCE          1    1961       0 3898.09  0.0000  0.0000-1.00000
FORCE          1    1962       0 4358.55  0.0000  0.0000-1.00000
FORCE          1    1963       0 3382.13  0.0000  0.0000-1.00000
FORCE          1    1964       0 4606.76  0.0000  0.0000-1.00000
FORCE          1    1965       0 4525.27  0.0000  0.0000-1.00000
FORCE          1    1966       0 3583.89  0.0000  0.0000-1.00000
FORCE          1    1967       0 4598.93  0.0000  0.0000-1.00000
FORCE          1    1968       0 4623.77  0.0000  0.0000-1.00000
FORCE          1    1969       0 3782.37  0.0000  0.0000-1.00000
FORCE          1    1970       0 4577.64  0.0000  0.0000-1.00000
FORCE          1    1971       0 3640.07  0.0000  0.0000-1.00000
FORCE          1    1972       0 2849.30  0.0000  0.0000-1.00000
FORCE          1    1973       0 2968.50  0.0000  0.0000-1.00000
FORCE          1    1974       0 2241.80  0.0000  0.0000-1.00000
FORCE          1    1975       0 3215.33  0.0000  0.0000-1.00000
FORCE          1    1976       0 3205.21  0.0000  0.0000-1.00000
FORCE          1    1977       0 3236.94  0.0000  0.0000-1.00000
FORCE          1    1978       0 2833.48  0.0000  0.0000-1.00000
FORCE          1    1979       0 2866.19  0.0000  0.0000-1.00000
FORCE          1    1980       0 3094.31  0.0000  0.0000-1.00000
FORCE          1    1981       0 2596.48  0.0000  0.0000-1.00000
FORCE          1    1982       0 2978.92  0.0000  0.0000-1.00000
FORCE          1    1983       0 2718.45  0.0000  0.0000-1.00000
FORCE          1    1984       0 1979.94  0.0000  0.0000-1.00000
FORCE          1    1985       0 2876.68  0.0000  0.0000-1.00000
FORCE          1    1986       0 2722.97  0.0000  0.0000-1.00000
FORCE          1    1987       0 1983.61  0.0000  0.0000-1.00000
FORCE          1    1988       0 2978.87  0.0000  0.0000-1.00000
FORCE          1    1989       0 3111.23  0.0000  0.0000-1.00000
FORCE          1    1990       0 2611.19  0.0000  0.0000-1.00000
FORCE          1    1991       0 3135.58  0.0000  0.0000-1.00000
FORCE          1    1992       0 3268.90  0.0000  0.0000-1.00000
FORCE          1    1993       0 2868.93  0.0000  0.0000-1.00000
FORCE          1    1994       0 3264.25  0.0000  0.0000-1.00000
FORCE          1    1995       0 3010.48  0.0000  0.0000-1.00000
FORCE          1    1996       0 2276.16  0.0000  0.0000-1.00000
FORCE          1    1997       0 3135.49  0.0000  0.0000-1.00000
FORCE          1    1998       0 3010.42  0.0000  0.0000-1.00000
FORCE          1    1999       0 2276.13  0.0000  0.0000-1.00000
FORCE          1    2000       0 2978.78  0.0000  0.0000-1.00000
FORCE          1    2001       0 3268.81  0.0000  0.0000-1.00000
FORCE          1    2002       0 2868.93  0.0000  0.0000-1.00000
FORCE          1    2003       0 2876.54  0.0000  0.0000-1.00000
FORCE          1    2004       0 3111.11  0.0000  0.0000-1.00000
FORCE          1    2005       0 2611.10  0.0000  0.0000-1.00000
FORCE          1    2006       0 2978.66  0.0000  0.0000-1.00000
FORCE          1    2007       0 2722.78  0.0000  0.0000-1.00000
FORCE          1    2008       0 1983.48  0.0000  0.0000-1.00000
FORCE          1    2009       0 2865.88  0.0000  0.0000-1.00000
FORCE          1    2010       0 2718.17  0.0000  0.0000-1.00000
FORCE          1    2011       0 1979.75  0.0000  0.0000-1.00000
FORCE          1    2012       0 3204.88  0.0000  0.0000-1.00000
FORCE          1    2013       0 3093.97  0.0000  0.0000-1.00000
FORCE          1    2014       0 2596.22  0.0000  0.0000-1.00000
FORCE          1    2015       0 2849.05  0.0000  0.0000-1.00000
FORCE          1    2016       0 3236.63  0.0000  0.0000-1.00000
FORCE          1    2017       0 2833.23  0.0000  0.0000-1.00000
FORCE          1    2018       0 3214.98  0.0000  0.0000-1.00000
FORCE          1    2019       0 2968.24  0.0000  0.0000-1.00000
FORCE          1    2020       0 2241.61  0.0000  0.0000-1.00000
FORCE          1    2021       0 3075.00  0.0000  0.0000-1.00000
FORCE          1    2022       0 2957.52  0.0000  0.0000-1.00000
FORCE          1    2023       0 2231.46  0.0000  0.0000-1.00000
FORCE          1    2024       0 2902.20  0.0000  0.0000-1.00000
FORCE          1    2025       0 3197.78  0.0000  0.0000-1.00000
FORCE          1    2026       0 2791.11  0.0000  0.0000-1.00000
FORCE          1    2027       0 2805.12  0.0000  0.0000-1.00000
FORCE          1    2028       0 3034.98  0.0000  0.0000-1.00000
FORCE          1    2029       0 2532.37  0.0000  0.0000-1.00000
FORCE          1    2030       0 2924.50  0.0000  0.0000-1.00000
FORCE          1    2031       0 2659.22  0.0000  0.0000-1.00000
FORCE          1    2032       0 1923.83  0.0000  0.0000-1.00000
FORCE          1    2033       0 2829.21  0.0000  0.0000-1.00000
FORCE          1    2034       0 2668.81  0.0000  0.0000-1.00000
FORCE          1    2035       0 1930.73  0.0000  0.0000-1.00000
FORCE          1    2036       0 2961.17  0.0000  0.0000-1.00000
FORCE          1    2037       0 3075.34  0.0000  0.0000-1.00000
FORCE          1    2038       0 2554.83  0.0000  0.0000-1.00000
FORCE          1    2039       0 3633.36  0.0000  0.0000-1.00000
FORCE          1    2040       0 3329.21  0.0000  0.0000-1.00000
FORCE          1    2041       0 2832.49  0.0000  0.0000-1.00000
FORCE          1    2042       0 3311.30  0.0000  0.0000-1.00000
FORCE          1    2043       0 3305.82  0.0000  0.0000-1.00000
FORCE          1    2044       0 2779.09  0.0000  0.0000-1.00000
FORCE          1    2045       0 2961.27  0.0000  0.0000-1.00000
FORCE          1    2046       0 3329.29  0.0000  0.0000-1.00000
FORCE          1    2047       0 2832.60  0.0000  0.0000-1.00000
FORCE          1    2048       0 2829.37  0.0000  0.0000-1.00000
FORCE          1    2049       0 3075.49  0.0000  0.0000-1.00000
FORCE          1    2050       0 2554.93  0.0000  0.0000-1.00000
FORCE          1    2051       0 2924.69  0.0000  0.0000-1.00000
FORCE          1    2052       0 2668.98  0.0000  0.0000-1.00000
FORCE          1    2053       0 1930.83  0.0000  0.0000-1.00000
FORCE          1    2054       0 2805.31  0.0000  0.0000-1.00000
FORCE          1    2055       0 2659.38  0.0000  0.0000-1.00000
FORCE          1    2056       0 1923.95  0.0000  0.0000-1.00000
FORCE          1    2057       0 2902.43  0.0000  0.0000-1.00000
FORCE          1    2058       0 3035.21  0.0000  0.0000-1.00000
FORCE          1    2059       0 2532.53  0.0000  0.0000-1.00000
FORCE          1    2060       0 3075.42  0.0000  0.0000-1.00000
FORCE          1    2061       0 3198.08  0.0000  0.0000-1.00000
FORCE          1    2062       0 2791.27  0.0000  0.0000-1.00000
FORCE          1    2063       0 2957.97  0.0000  0.0000-1.00000
FORCE          1    2064       0 2231.82  0.0000  0.0000-1.00000
FORCE          1    2065       0 2184.88  0.0000  0.0000-1.00000
FORCE          1    2066       0 1787.75  0.0000  0.0000-1.00000
FORCE          1    2067       0 2012.27  0.0000  0.0000-1.00000
FORCE          1    2068       0 1762.49  0.0000  0.0000-1.00000
FORCE          1    2069       0 2545.58  0.0000  0.0000-1.00000
FORCE          1    2070       0 2623.11  0.0000  0.0000-1.00000
FORCE          1    2071       0 2621.13  0.0000  0.0000-1.00000
FORCE          1    2072       0 1867.15  0.0000  0.0000-1.00000
FORCE          1    2073       0 2340.31  0.0000  0.0000-1.00000
FORCE          1    2074       0 2242.21  0.0000  0.0000-1.00000
FORCE          1    2075       0 1501.06  0.0000  0.0000-1.00000
FORCE          1    2076       0 1478.73  0.0000  0.0000-1.00000
FORCE          1    2077       0 1460.71  0.0000  0.0000-1.00000
FORCE          1    2078       0 1874.00  0.0000  0.0000-1.00000
FORCE          1    2079       0 1480.98  0.0000  0.0000-1.00000
FORCE          1    2080       0 1463.22  0.0000  0.0000-1.00000
FORCE          1    2081       0 2567.18  0.0000  0.0000-1.00000
FORCE          1    2082       0 2353.85  0.0000  0.0000-1.00000
FORCE          1    2083       0 2464.22  0.0000  0.0000-1.00000
FORCE          1    2084       0 2218.36  0.0000  0.0000-1.00000
FORCE          1    2085       0 2654.04  0.0000  0.0000-1.00000
FORCE          1    2086       0 2652.71  0.0000  0.0000-1.00000
FORCE          1    2087       0 1795.64  0.0000  0.0000-1.00000
FORCE          1    2088       0 1819.44  0.0000  0.0000-1.00000
FORCE          1    2089       0 2050.92  0.0000  0.0000-1.00000
FORCE          1    2090       0 2218.28  0.0000  0.0000-1.00000
FORCE          1    2091       0 1819.39  0.0000  0.0000-1.00000
FORCE          1    2092       0 2050.91  0.0000  0.0000-1.00000
FORCE          1    2093       0 2567.14  0.0000  0.0000-1.00000
FORCE          1    2094       0 2653.99  0.0000  0.0000-1.00000
FORCE          1    2095       0 2652.68  0.0000  0.0000-1.00000
FORCE          1    2096       0 1873.96  0.0000  0.0000-1.00000
FORCE          1    2097       0 2353.81  0.0000  0.0000-1.00000
FORCE          1    2098       0 2464.15  0.0000  0.0000-1.00000
FORCE          1    2099       0 1500.95  0.0000  0.0000-1.00000
FORCE          1    2100       0 1480.92  0.0000  0.0000-1.00000
FORCE          1    2101       0 1463.15  0.0000  0.0000-1.00000
FORCE          1    2102       0 1866.95  0.0000  0.0000-1.00000
FORCE          1    2103       0 1478.57  0.0000  0.0000-1.00000
FORCE          1    2104       0 1460.61  0.0000  0.0000-1.00000
FORCE          1    2105       0 2545.33  0.0000  0.0000-1.00000
FORCE          1    2106       0 2340.07  0.0000  0.0000-1.00000
FORCE          1    2107       0 2242.04  0.0000  0.0000-1.00000
FORCE          1    2108       0 2184.74  0.0000  0.0000-1.00000
FORCE          1    2109       0 2622.89  0.0000  0.0000-1.00000
FORCE          1    2110       0 2620.95  0.0000  0.0000-1.00000
FORCE          1    2111       0 1762.30  0.0000  0.0000-1.00000
FORCE          1    2112       0 1787.65  0.0000  0.0000-1.00000
FORCE          1    2113       0 2012.14  0.0000  0.0000-1.00000
FORCE          1    2114       0 2160.17  0.0000  0.0000-1.00000
FORCE          1    2115       0 1780.56  0.0000  0.0000-1.00000
FORCE          1    2116       0 2001.99  0.0000  0.0000-1.00000
FORCE          1    2117       0 2481.30  0.0000  0.0000-1.00000
FORCE          1    2118       0 2576.85  0.0000  0.0000-1.00000
FORCE          1    2119       0 2562.26  0.0000  0.0000-1.00000
FORCE          1    2120       0 1803.74  0.0000  0.0000-1.00000
FORCE          1    2121       0 2268.47  0.0000  0.0000-1.00000
FORCE          1    2122       0 2155.87  0.0000  0.0000-1.00000
FORCE          1    2123       0 1451.02  0.0000  0.0000-1.00000
FORCE          1    2124       0 1425.06  0.0000  0.0000-1.00000
FORCE          1    2125       0 1393.28  0.0000  0.0000-1.00000
FORCE          1    2126       0 1801.99  0.0000  0.0000-1.00000
FORCE          1    2127       0 1424.02  0.0000  0.0000-1.00000
FORCE          1    2128       0 1388.02  0.0000  0.0000-1.00000
FORCE          1    2129       0 2468.44  0.0000  0.0000-1.00000
FORCE          1    2130       0 2249.20  0.0000  0.0000-1.00000
FORCE          1    2131       0 2266.23  0.0000  0.0000-1.00000
FORCE          1    2132       0 2542.49  0.0000  0.0000-1.00000
FORCE          1    2133       0 2577.97  0.0000  0.0000-1.00000
FORCE          1    2134       0 2457.56  0.0000  0.0000-1.00000
FORCE          1    2135       0 2193.62  0.0000  0.0000-1.00000
FORCE          1    2136       0 2225.57  0.0000  0.0000-1.00000
FORCE          1    2137       0 2468.51  0.0000  0.0000-1.00000
FORCE          1    2138       0 2578.01  0.0000  0.0000-1.00000
FORCE          1    2139       0 2457.58  0.0000  0.0000-1.00000
FORCE          1    2140       0 1802.08  0.0000  0.0000-1.00000
FORCE          1    2141       0 2249.29  0.0000  0.0000-1.00000
FORCE          1    2142       0 2266.27  0.0000  0.0000-1.00000
FORCE          1    2143       0 1451.10  0.0000  0.0000-1.00000
FORCE          1    2144       0 1424.10  0.0000  0.0000-1.00000
FORCE          1    2145       0 1388.07  0.0000  0.0000-1.00000
FORCE          1    2146       0 1803.80  0.0000  0.0000-1.00000
FORCE          1    2147       0 1425.11  0.0000  0.0000-1.00000
FORCE          1    2148       0 1393.34  0.0000  0.0000-1.00000
FORCE          1    2149       0 2481.43  0.0000  0.0000-1.00000
FORCE          1    2150       0 2268.57  0.0000  0.0000-1.00000
FORCE          1    2151       0 2155.94  0.0000  0.0000-1.00000
FORCE          1    2152       0 2160.45  0.0000  0.0000-1.00000
FORCE          1    2153       0 2577.02  0.0000  0.0000-1.00000
FORCE          1    2154       0 2562.39  0.0000  0.0000-1.00000
FORCE          1    2155       0 1780.87  0.0000  0.0000-1.00000
FORCE          1    2156       0 2002.30  0.0000  0.0000-1.00000
FORCE          1    2157       0 2632.99  0.0000  0.0000-1.00000
FORCE          1    2158       0 3448.56  0.0000  0.0000-1.00000
FORCE          1    2159       0 2322.78  0.0000  0.0000-1.00000
FORCE          1    2160       0 3910.48  0.0000  0.0000-1.00000
FORCE          1    2161       0 4168.51  0.0000  0.0000-1.00000
FORCE          1    2162       0 4055.31  0.0000  0.0000-1.00000
FORCE          1    2163       0 3980.30  0.0000  0.0000-1.00000
FORCE          1    2164       0 3763.09  0.0000  0.0000-1.00000
FORCE          1    2165       0 3790.79  0.0000  0.0000-1.00000
FORCE          1    2166       0 4035.72  0.0000  0.0000-1.00000
FORCE          1    2167       0 3262.13  0.0000  0.0000-1.00000
FORCE          1    2168       0 4691.40  0.0000  0.0000-1.00000
FORCE          1    2169       0 4175.19  0.0000  0.0000-1.00000
FORCE          1    2170       0 4222.59  0.0000  0.0000-1.00000
FORCE          1    2171       0 3392.18  0.0000  0.0000-1.00000
FORCE          1    2172       0 2662.23  0.0000  0.0000-1.00000
FORCE          1    2173       0 3195.19  0.0000  0.0000-1.00000
FORCE          1    2174       0 2994.33  0.0000  0.0000-1.00000
FORCE          1    2175       0 1685.38  0.0000  0.0000-1.00000
FORCE          1    2176       0 2351.38  0.0000  0.0000-1.00000
FORCE          1    2177       0 2906.62  0.0000  0.0000-1.00000
FORCE          1    2178       0 2606.31  0.0000  0.0000-1.00000
FORCE          1    2179       0 3036.05  0.0000  0.0000-1.00000
FORCE          1    2180       0 4055.39  0.0000  0.0000-1.00000
FORCE          1    2181       0 3763.07  0.0000  0.0000-1.00000
FORCE          1    2182       0 4168.60  0.0000  0.0000-1.00000
FORCE          1    2183       0 3910.64  0.0000  0.0000-1.00000
FORCE          1    2184       0 3790.79  0.0000  0.0000-1.00000
FORCE          1    2185       0 3448.56  0.0000  0.0000-1.00000
FORCE          1    2186       0 3262.11  0.0000  0.0000-1.00000
FORCE          1    2187       0 2322.80  0.0000  0.0000-1.00000
FORCE          1    2188       0 2633.01  0.0000  0.0000-1.00000
FORCE          1    2189       0 3392.26  0.0000  0.0000-1.00000
FORCE          1    2190       0 4175.40  0.0000  0.0000-1.00000
FORCE          1    2191       0 4691.62  0.0000  0.0000-1.00000
FORCE          1    2192       0 4222.86  0.0000  0.0000-1.00000
FORCE          1    2193       0 2662.29  0.0000  0.0000-1.00000
FORCE          1    2194       0 3195.34  0.0000  0.0000-1.00000
FORCE          1    2195       0 2994.61  0.0000  0.0000-1.00000
FORCE          1    2196       0 2906.67  0.0000  0.0000-1.00000
FORCE          1    2197       0 2351.42  0.0000  0.0000-1.00000
FORCE          1    2198       0 1685.41  0.0000  0.0000-1.00000
FORCE          1    2199       0 2606.31  0.0000  0.0000-1.00000
FORCE          1    2200       0 3036.05  0.0000  0.0000-1.00000
FORCE          1    2201       0 4075.57  0.0000  0.0000-1.00000
FORCE          1    2202       0 4258.13  0.0000  0.0000-1.00000
FORCE          1    2203       0 4232.41  0.0000  0.0000-1.00000
FORCE          1    2204       0 4036.63  0.0000  0.0000-1.00000
FORCE          1    2205       0 3572.81  0.0000  0.0000-1.00000
FORCE          1    2206       0 4294.81  0.0000  0.0000-1.00000
FORCE          1    2207       0 4289.31  0.0000  0.0000-1.00000
FORCE          1    2208       0 2767.88  0.0000  0.0000-1.00000
FORCE          1    2209       0 3269.51  0.0000  0.0000-1.00000
FORCE          1    2210       0 3034.38  0.0000  0.0000-1.00000
FORCE          1    2211       0 4820.19  0.0000  0.0000-1.00000
FORCE          1    2212       0 4356.61  0.0000  0.0000-1.00000
FORCE          1    2213       0 4368.54  0.0000  0.0000-1.00000
FORCE          1    2214       0 3594.32  0.0000  0.0000-1.00000
FORCE          1    2215       0 2610.27  0.0000  0.0000-1.00000
FORCE          1    2216       0 3314.42  0.0000  0.0000-1.00000
FORCE          1    2217       0 3087.77  0.0000  0.0000-1.00000
FORCE          1    2218       0 1957.24  0.0000  0.0000-1.00000
FORCE          1    2219       0 2478.40  0.0000  0.0000-1.00000
FORCE          1    2220       0 2871.91  0.0000  0.0000-1.00000
FORCE          1    2221       0 3065.68  0.0000  0.0000-1.00000
FORCE          1    2222       0 3287.34  0.0000  0.0000-1.00000
FORCE          1    2223       0 4232.43  0.0000  0.0000-1.00000
FORCE          1    2224       0 4036.68  0.0000  0.0000-1.00000
FORCE          1    2225       0 4075.61  0.0000  0.0000-1.00000
FORCE          1    2226       0 4294.95  0.0000  0.0000-1.00000
FORCE          1    2227       0 4289.52  0.0000  0.0000-1.00000
FORCE          1    2228       0 3572.89  0.0000  0.0000-1.00000
FORCE          1    2229       0 2768.05  0.0000  0.0000-1.00000
FORCE          1    2230       0 3269.74  0.0000  0.0000-1.00000
FORCE          1    2231       0 3034.59  0.0000  0.0000-1.00000
FORCE          1    2232       0 3594.40  0.0000  0.0000-1.00000
FORCE          1    2233       0 4356.62  0.0000  0.0000-1.00000
FORCE          1    2234       0 4368.54  0.0000  0.0000-1.00000
FORCE          1    2235       0 2610.29  0.0000  0.0000-1.00000
FORCE          1    2236       0 3314.40  0.0000  0.0000-1.00000
FORCE          1    2237       0 3087.75  0.0000  0.0000-1.00000
FORCE          1    2238       0 2872.00  0.0000  0.0000-1.00000
FORCE          1    2239       0 2478.46  0.0000  0.0000-1.00000
FORCE          1    2240       0 1957.31  0.0000  0.0000-1.00000
FORCE          1    2241       0 3065.76  0.0000  0.0000-1.00000
FORCE          1    2242       0 3287.43  0.0000  0.0000-1.00000
FORCE          1    2243       0 2208.21  0.0000  0.0000-1.00000
FORCE          1    2244       0 2208.44  0.0000  0.0000-1.00000
FORCE          1    2245       0 2258.65  0.0000  0.0000-1.00000
FORCE          1    2246       0 2466.65  0.0000  0.0000-1.00000
FORCE          1    2247       0 1772.55  0.0000  0.0000-1.00000
FORCE          1    2248       0 1465.29  0.0000  0.0000-1.00000
FORCE          1    2249       0 2466.52  0.0000  0.0000-1.00000
FORCE          1    2250       0 1772.46  0.0000  0.0000-1.00000
FORCE          1    2251       0 1465.22  0.0000  0.0000-1.00000
FORCE          1    2252       0 2237.60  0.0000  0.0000-1.00000
FORCE          1    2253       0 1806.60  0.0000  0.0000-1.00000
FORCE          1    2254       0 1383.25  0.0000  0.0000-1.00000
FORCE          1    2255       0 2237.63  0.0000  0.0000-1.00000
FORCE          1    2256       0 1806.64  0.0000  0.0000-1.00000
FORCE          1    2257       0 1383.28  0.0000  0.0000-1.00000
$*  Load: Force(2)
FORCE          2     449       0 2206.19  0.0000  0.00001.000000
FORCE          2     450       0 2203.05  0.0000  0.00001.000000
FORCE          2     451       0 2218.50  0.0000  0.00001.000000
FORCE          2     452       0 2190.63  0.0000  0.00001.000000
FORCE          2     453       0 2137.26  0.0000  0.00001.000000
FORCE          2     454       0 2143.21  0.0000  0.00001.000000
FORCE          2     455       0 2148.17  0.0000  0.00001.000000
FORCE          2     456       0 2141.80  0.0000  0.00001.000000
FORCE          2     457       0 2204.21  0.0000  0.00001.000000
FORCE          2     458       0 2295.22  0.0000  0.00001.000000
FORCE          2     459       0 2348.40  0.0000  0.00001.000000
FORCE          2     460       0 2355.31  0.0000  0.00001.000000
FORCE          2     461       0 2303.81  0.0000  0.00001.000000
FORCE          2     462       0 2187.70  0.0000  0.00001.000000
FORCE          2     463       0 2088.46  0.0000  0.00001.000000
FORCE          2     464       0 2090.63  0.0000  0.00001.000000
FORCE          2     465       0 2115.36  0.0000  0.00001.000000
FORCE          2     466       0 2121.40  0.0000  0.00001.000000
FORCE          2     467       0 2160.04  0.0000  0.00001.000000
FORCE          2     468       0 2166.78  0.0000  0.00001.000000
FORCE          2     469       0 2146.09  0.0000  0.00001.000000
FORCE          2     470       0 2180.76  0.0000  0.00001.000000
FORCE          2     492       0 3637.20  0.0000  0.00001.000000
FORCE          2     493       0 3590.40  0.0000  0.00001.000000
FORCE          2     494       0 3488.98  0.0000  0.00001.000000
FORCE          2     495       0 3571.43  0.0000  0.00001.000000
FORCE          2     496       0 3567.85  0.0000  0.00001.000000
FORCE          2     497       0 3465.23  0.0000  0.00001.000000
FORCE          2     498       0 3482.97  0.0000  0.00001.000000
FORCE          2     499       0 3419.48  0.0000  0.00001.000000
FORCE          2     500       0 3360.95  0.0000  0.00001.000000
FORCE          2     501       0 3559.33  0.0000  0.00001.000000
FORCE          2     502       0 3793.07  0.0000  0.00001.000000
FORCE          2     503       0 3872.20  0.0000  0.00001.000000
FORCE          2     504       0 3854.23  0.0000  0.00001.000000
FORCE          2     505       0 3768.03  0.0000  0.00001.000000
FORCE          2     506       0 3587.50  0.0000  0.00001.000000
FORCE          2     507       0 3462.84  0.0000  0.00001.000000
FORCE          2     508       0 3519.80  0.0000  0.00001.000000
FORCE          2     509       0 3508.73  0.0000  0.00001.000000
FORCE          2     510       0 3459.40  0.0000  0.00001.000000
FORCE          2     511       0 3594.47  0.0000  0.00001.000000
FORCE          2     512       0 3647.54  0.0000  0.00001.000000
FORCE          2     513       0 3587.36  0.0000  0.00001.000000
FORCE          2     514       0 2406.73  0.0000  0.00001.000000
FORCE          2     515       0 2361.21  0.0000  0.00001.000000
FORCE          2     516       0 2129.61  0.0000  0.00001.000000
FORCE          2     517       0 2353.86  0.0000  0.00001.000000
FORCE          2     518       0 2374.96  0.0000  0.00001.000000
FORCE          2     519       0 2159.96  0.0000  0.00001.000000
FORCE          2     520       0 2290.03  0.0000  0.00001.000000
FORCE          2     521       0 2202.57  0.0000  0.00001.000000
FORCE          2     522       0 1986.14  0.0000  0.00001.000000
FORCE          2     523       0 2229.94  0.0000  0.00001.000000
FORCE          2     524       0 2501.54  0.0000  0.00001.000000
FORCE          2     525       0 2510.89  0.0000  0.00001.000000
FORCE          2     526       0 2476.25  0.0000  0.00001.000000
FORCE          2     527       0 2447.52  0.0000  0.00001.000000
FORCE          2     528       0 2250.88  0.0000  0.00001.000000
FORCE          2     529       0 2087.78  0.0000  0.00001.000000
FORCE          2     530       0 2281.30  0.0000  0.00001.000000
FORCE          2     531       0 2267.96  0.0000  0.00001.000000
FORCE          2     532       0 2085.53  0.0000  0.00001.000000
FORCE          2     533       0 2340.22  0.0000  0.00001.000000
FORCE          2     534       0 2398.03  0.0000  0.00001.000000
FORCE          2     535       0 2219.10  0.0000  0.00001.000000
FORCE          2     536       0 2330.31  0.0000  0.00001.000000
FORCE          2     537       0 2194.19  0.0000  0.00001.000000
FORCE          2     538       0 1244.86  0.0000  0.00001.000000
FORCE          2     539       0 2182.71  0.0000  0.00001.000000
FORCE          2     540       0 2311.36  0.0000  0.00001.000000
FORCE          2     541       0 1384.98  0.0000  0.00001.000000
FORCE          2     542       0 2199.68  0.0000  0.00001.000000
FORCE          2     543       0 1981.03  0.0000  0.00001.000000
FORCE          2     544       0 1112.56  0.0000  0.00001.000000
FORCE          2     545       0 1867.18  0.0000  0.00001.000000
FORCE          2     546       0 1953.59  0.0000  0.00001.000000
FORCE          2     547       0 1285.18  0.0000  0.00001.000000
FORCE          2     548       0 2147.03  0.0000  0.00001.000000
FORCE          2     549       0 2059.46  0.0000  0.00001.000000
FORCE          2     550       0 1201.49  0.0000  0.00001.000000
FORCE          2     551       0 2133.18  0.0000  0.00001.000000
FORCE          2     552       0 2297.82  0.0000  0.00001.000000
FORCE          2     553       0 1404.91  0.0000  0.00001.000000
FORCE          2     554       0 4519.43  0.0000  0.00001.000000
FORCE          2     555       0 4611.86  0.0000  0.00001.000000
FORCE          2     556       0 4413.81  0.0000  0.00001.000000
FORCE          2     557       0 2801.28  0.0000  0.00001.000000
FORCE          2     558       0 3295.17  0.0000  0.00001.000000
FORCE          2     559       0 3963.16  0.0000  0.00001.000000
FORCE          2     560       0 3137.09  0.0000  0.00001.000000
FORCE          2     561       0 3155.58  0.0000  0.00001.000000
FORCE          2     562       0 1518.74  0.0000  0.00001.000000
FORCE          2     563       0 1622.24  0.0000  0.00001.000000
FORCE          2     564       0 1495.15  0.0000  0.00001.000000
FORCE          2     565       0 2029.18  0.0000  0.00001.000000
FORCE          2     566       0 1542.27  0.0000  0.00001.000000
FORCE          2     645       0854.1995  0.0000  0.00001.000000
FORCE          2     646       0830.0788  0.0000  0.00001.000000
FORCE          2     647       0847.7243  0.0000  0.00001.000000
FORCE          2     648       0846.8917  0.0000  0.00001.000000
FORCE          2     649       0820.8691  0.0000  0.00001.000000
FORCE          2     650       0831.7117  0.0000  0.00001.000000
FORCE          2     651       0821.5732  0.0000  0.00001.000000
FORCE          2     652       0807.4091  0.0000  0.00001.000000
FORCE          2     653       0849.6726  0.0000  0.00001.000000
FORCE          2     654       0892.0111  0.0000  0.00001.000000
FORCE          2     655       0913.3634  0.0000  0.00001.000000
FORCE          2     656       0913.5312  0.0000  0.00001.000000
FORCE          2     657       0897.9111  0.0000  0.00001.000000
FORCE          2     658       0866.9851  0.0000  0.00001.000000
FORCE          2     659       0830.5789  0.0000  0.00001.000000
FORCE          2     660       0843.4158  0.0000  0.00001.000000
FORCE          2     661       0840.4293  0.0000  0.00001.000000
FORCE          2     662       0826.2308  0.0000  0.00001.000000
FORCE          2     663       0854.0367  0.0000  0.00001.000000
FORCE          2     664       0865.9631  0.0000  0.00001.000000
FORCE          2     665       0853.2187  0.0000  0.00001.000000
FORCE          2     666       0859.9097  0.0000  0.00001.000000
FORCE          2     813       0491.5067  0.0000  0.00001.000000
FORCE          2     814       0306.6102  0.0000  0.00001.000000
FORCE          2     815       0443.6430  0.0000  0.00001.000000
FORCE          2     816       0288.3290  0.0000  0.00001.000000
FORCE          2     817       0262.9208  0.0000  0.00001.000000
FORCE          2     818       0256.0123  0.0000  0.00001.000000
FORCE          2     819       0 1200.82  0.0000  0.00001.000000
FORCE          2     820       0 1521.15  0.0000  0.00001.000000
FORCE          2     821       0 1515.44  0.0000  0.00001.000000
FORCE          2     822       0 1494.46  0.0000  0.00001.000000
FORCE          2     823       0 1128.32  0.0000  0.00001.000000
FORCE          2     824       0 1470.34  0.0000  0.00001.000000
FORCE          2     825       0 1451.44  0.0000  0.00001.000000
FORCE          2     826       0 1111.59  0.0000  0.00001.000000
FORCE          2     827       0 1469.09  0.0000  0.00001.000000
FORCE          2     828       0 1498.64  0.0000  0.00001.000000
FORCE          2     829       0 1190.16  0.0000  0.00001.000000
FORCE          2     830       0 1497.80  0.0000  0.00001.000000
FORCE          2     831       0 1486.10  0.0000  0.00001.000000
FORCE          2     832       0 1126.14  0.0000  0.00001.000000
FORCE          2     833       0 1460.08  0.0000  0.00001.000000
FORCE          2     834       0 1435.72  0.0000  0.00001.000000
FORCE          2     835       0 1101.80  0.0000  0.00001.000000
FORCE          2     836       0 1446.56  0.0000  0.00001.000000
FORCE          2     837       0 1462.09  0.0000  0.00001.000000
FORCE          2     838       0 1142.15  0.0000  0.00001.000000
FORCE          2     839       0 1451.95  0.0000  0.00001.000000
FORCE          2     840       0 1427.85  0.0000  0.00001.000000
FORCE          2     841       0 1069.74  0.0000  0.00001.000000
FORCE          2     842       0 1413.69  0.0000  0.00001.000000
FORCE          2     843       0 1406.85  0.0000  0.00001.000000
FORCE          2     844       0 1069.68  0.0000  0.00001.000000
FORCE          2     845       0 1449.11  0.0000  0.00001.000000
FORCE          2     846       0 1503.52  0.0000  0.00001.000000
FORCE          2     847       0 1208.09  0.0000  0.00001.000000
FORCE          2     848       0 1545.86  0.0000  0.00001.000000
FORCE          2     849       0 1583.23  0.0000  0.00001.000000
FORCE          2     850       0 1257.77  0.0000  0.00001.000000
FORCE          2     851       0 1604.58  0.0000  0.00001.000000
FORCE          2     852       0 1614.74  0.0000  0.00001.000000
FORCE          2     853       0 1263.36  0.0000  0.00001.000000
FORCE          2     854       0 1614.90  0.0000  0.00001.000000
FORCE          2     855       0 1610.00  0.0000  0.00001.000000
FORCE          2     856       0 1251.43  0.0000  0.00001.000000
FORCE          2     857       0 1594.38  0.0000  0.00001.000000
FORCE          2     858       0 1574.70  0.0000  0.00001.000000
FORCE          2     859       0 1208.21  0.0000  0.00001.000000
FORCE          2     860       0 1543.77  0.0000  0.00001.000000
FORCE          2     861       0 1509.43  0.0000  0.00001.000000
FORCE          2     862       0 1122.45  0.0000  0.00001.000000
FORCE          2     863       0 1473.03  0.0000  0.00001.000000
FORCE          2     864       0 1447.70  0.0000  0.00001.000000
FORCE          2     865       0 1099.95  0.0000  0.00001.000000
FORCE          2     866       0 1460.54  0.0000  0.00001.000000
FORCE          2     867       0 1484.78  0.0000  0.00001.000000
FORCE          2     868       0 1165.05  0.0000  0.00001.000000
FORCE          2     869       0 1481.80  0.0000  0.00001.000000
FORCE          2     870       0 1468.53  0.0000  0.00001.000000
FORCE          2     871       0 1108.21  0.0000  0.00001.000000
FORCE          2     872       0 1454.33  0.0000  0.00001.000000
FORCE          2     873       0 1446.17  0.0000  0.00001.000000
FORCE          2     874       0 1105.85  0.0000  0.00001.000000
FORCE          2     875       0 1473.97  0.0000  0.00001.000000
FORCE          2     876       0 1513.11  0.0000  0.00001.000000
FORCE          2     877       0 1204.36  0.0000  0.00001.000000
FORCE          2     878       0 1525.04  0.0000  0.00001.000000
FORCE          2     879       0 1523.76  0.0000  0.00001.000000
FORCE          2     880       0 1160.04  0.0000  0.00001.000000
FORCE          2     881       0 1511.02  0.0000  0.00001.000000
FORCE          2     882       0 1497.72  0.0000  0.00001.000000
FORCE          2     883       0 1149.55  0.0000  0.00001.000000
FORCE          2     884       0 1504.41  0.0000  0.00001.000000
FORCE          2     885       0831.8277  0.0000  0.00001.000000
FORCE          2     886       0863.4005  0.0000  0.00001.000000
FORCE          2     887       0985.3516  0.0000  0.00001.000000
FORCE          2     888       0945.6781  0.0000  0.00001.000000
FORCE          2     889       0667.6493  0.0000  0.00001.000000
FORCE          2     890       0894.1632  0.0000  0.00001.000000
FORCE          2     891       0978.2907  0.0000  0.00001.000000
FORCE          2     892       0667.9702  0.0000  0.00001.000000
FORCE          2     893       0896.3572  0.0000  0.00001.000000
FORCE          2     894       0843.3900  0.0000  0.00001.000000
FORCE          2     895       0822.3013  0.0000  0.00001.000000
FORCE          2     896       0976.5066  0.0000  0.00001.000000
FORCE          2     897       0952.8971  0.0000  0.00001.000000
FORCE          2     898       0679.0327  0.0000  0.00001.000000
FORCE          2     899       0900.5806  0.0000  0.00001.000000
FORCE          2     900       0973.8794  0.0000  0.00001.000000
FORCE          2     901       0667.7327  0.0000  0.00001.000000
FORCE          2     902       0891.1966  0.0000  0.00001.000000
FORCE          2     903       0824.7581  0.0000  0.00001.000000
FORCE          2     904       0778.5450  0.0000  0.00001.000000
FORCE          2     905       0932.2834  0.0000  0.00001.000000
FORCE          2     906       0887.8360  0.0000  0.00001.000000
FORCE          2     907       0615.3695  0.0000  0.00001.000000
FORCE          2     908       0839.5255  0.0000  0.00001.000000
FORCE          2     909       0933.7059  0.0000  0.00001.000000
FORCE          2     910       0627.7021  0.0000  0.00001.000000
FORCE          2     911       0857.1301  0.0000  0.00001.000000
FORCE          2     912       0804.3528  0.0000  0.00001.000000
FORCE          2     913       0772.3419  0.0000  0.00001.000000
FORCE          2     914       0971.7071  0.0000  0.00001.000000
FORCE          2     915       0 1001.66  0.0000  0.00001.000000
FORCE          2     916       0823.2714  0.0000  0.00001.000000
FORCE          2     917       0 1013.97  0.0000  0.00001.000000
FORCE          2     918       0 1013.11  0.0000  0.00001.000000
FORCE          2     919       0807.0631  0.0000  0.00001.000000
FORCE          2     920       0 1008.54  0.0000  0.00001.000000
FORCE          2     921       0 1006.26  0.0000  0.00001.000000
FORCE          2     922       0806.9638  0.0000  0.00001.000000
FORCE          2     923       0999.2374  0.0000  0.00001.000000
FORCE          2     924       0988.0429  0.0000  0.00001.000000
FORCE          2     925       0793.8114  0.0000  0.00001.000000
FORCE          2     926       0964.5050  0.0000  0.00001.000000
FORCE          2     927       0931.2934  0.0000  0.00001.000000
FORCE          2     928       0650.3471  0.0000  0.00001.000000
FORCE          2     929       0879.8779  0.0000  0.00001.000000
FORCE          2     930       0962.8389  0.0000  0.00001.000000
FORCE          2     931       0649.6437  0.0000  0.00001.000000
FORCE          2     932       0881.5106  0.0000  0.00001.000000
FORCE          2     933       0822.3367  0.0000  0.00001.000000
FORCE          2     934       0791.3700  0.0000  0.00001.000000
FORCE          2     935       0947.3360  0.0000  0.00001.000000
FORCE          2     936       0916.9328  0.0000  0.00001.000000
FORCE          2     937       0646.9513  0.0000  0.00001.000000
FORCE          2     938       0873.3617  0.0000  0.00001.000000
FORCE          2     939       0966.0222  0.0000  0.00001.000000
FORCE          2     940       0659.5142  0.0000  0.00001.000000
FORCE          2     941       0889.4880  0.0000  0.00001.000000
FORCE          2     942       0840.6026  0.0000  0.00001.000000
FORCE          2     943       0817.2661  0.0000  0.00001.000000
FORCE          2     944       0982.3085  0.0000  0.00001.000000
FORCE          2     945       0966.1195  0.0000  0.00001.000000
FORCE          2     946       0692.5354  0.0000  0.00001.000000
FORCE          2     947       0923.0800  0.0000  0.00001.000000
FORCE          2     948       0 1007.28  0.0000  0.00001.000000
FORCE          2     949       0689.4593  0.0000  0.00001.000000
FORCE          2     950       0922.6714  0.0000  0.00001.000000
FORCE          2     951       0751.3254  0.0000  0.00001.000000
FORCE          2     952       0643.0597  0.0000  0.00001.000000
FORCE          2     953       0744.7558  0.0000  0.00001.000000
FORCE          2     954       0648.5133  0.0000  0.00001.000000
FORCE          2     955       0567.9064  0.0000  0.00001.000000
FORCE          2     956       0524.0085  0.0000  0.00001.000000
FORCE          2     957       0523.3898  0.0000  0.00001.000000
FORCE          2     958       0568.5165  0.0000  0.00001.000000
FORCE          2     959       0524.9521  0.0000  0.00001.000000
FORCE          2     960       0648.1543  0.0000  0.00001.000000
FORCE          2     961       0745.2241  0.0000  0.00001.000000
FORCE          2     962       0740.6664  0.0000  0.00001.000000
FORCE          2     963       0639.0967  0.0000  0.00001.000000
FORCE          2     964       0664.5374  0.0000  0.00001.000000
FORCE          2     965       0548.8549  0.0000  0.00001.000000
FORCE          2     966       0528.8677  0.0000  0.00001.000000
FORCE          2     967       0653.2385  0.0000  0.00001.000000
FORCE          2     968       0539.3080  0.0000  0.00001.000000
FORCE          2     969       0608.3766  0.0000  0.00001.000000
FORCE          2     970       0685.9485  0.0000  0.00001.000000
FORCE          2     971       0690.5882  0.0000  0.00001.000000
FORCE          2     972       0593.0903  0.0000  0.00001.000000
FORCE          2     973       0503.9528  0.0000  0.00001.000000
FORCE          2     974       0474.3622  0.0000  0.00001.000000
FORCE          2     975       0480.1218  0.0000  0.00001.000000
FORCE          2     976       0499.3397  0.0000  0.00001.000000
FORCE          2     977       0477.1691  0.0000  0.00001.000000
FORCE          2     978       0591.2297  0.0000  0.00001.000000
FORCE          2     979       0634.1355  0.0000  0.00001.000000
FORCE          2     980       0667.2431  0.0000  0.00001.000000
FORCE          2     981       0618.9773  0.0000  0.00001.000000
FORCE          2     982       0682.4650  0.0000  0.00001.000000
FORCE          2     983       0658.2128  0.0000  0.00001.000000
FORCE          2     984       0538.3703  0.0000  0.00001.000000
FORCE          2     985       0642.8656  0.0000  0.00001.000000
FORCE          2     986       0723.1953  0.0000  0.00001.000000
FORCE          2     987       0651.0167  0.0000  0.00001.000000
FORCE          2     988       0649.0589  0.0000  0.00001.000000
FORCE          2     989       0550.7887  0.0000  0.00001.000000
FORCE          2     990       0648.5977  0.0000  0.00001.000000
FORCE          2     991       0545.5785  0.0000  0.00001.000000
FORCE          2     992       0461.2748  0.0000  0.00001.000000
FORCE          2     993       0508.1877  0.0000  0.00001.000000
FORCE          2     994       0501.4412  0.0000  0.00001.000000
FORCE          2     995       0466.7307  0.0000  0.00001.000000
FORCE          2     996       0514.1306  0.0000  0.00001.000000
FORCE          2     997       0594.2147  0.0000  0.00001.000000
FORCE          2     998       0698.6999  0.0000  0.00001.000000
FORCE          2     999       0698.7612  0.0000  0.00001.000000
FORCE          2    1000       0618.5039  0.0000  0.00001.000000
FORCE          2    1001       0541.9563  0.0000  0.00001.000000
FORCE          2    1002       0504.4884  0.0000  0.00001.000000
FORCE          2    1003       0509.6379  0.0000  0.00001.000000
FORCE          2    1004       0550.3954  0.0000  0.00001.000000
FORCE          2    1005       0513.3669  0.0000  0.00001.000000
FORCE          2    1006       0637.6637  0.0000  0.00001.000000
FORCE          2    1007       0731.9008  0.0000  0.00001.000000
FORCE          2    1008       0735.1280  0.0000  0.00001.000000
FORCE          2    1009       0640.0512  0.0000  0.00001.000000
FORCE          2    1010       0664.1611  0.0000  0.00001.000000
FORCE          2    1011       0556.8560  0.0000  0.00001.000000
FORCE          2    1012       0543.5270  0.0000  0.00001.000000
FORCE          2    1013       0665.5214  0.0000  0.00001.000000
FORCE          2    1014       0556.1903  0.0000  0.00001.000000
FORCE          2    1015       0622.2921  0.0000  0.00001.000000
FORCE          2    1016       0531.8830  0.0000  0.00001.000000
FORCE          2    1017       0584.7542  0.0000  0.00001.000000
FORCE          2    1018       0944.5363  0.0000  0.00001.000000
FORCE          2    1019       0 1393.47  0.0000  0.00001.000000
FORCE          2    1020       0968.5569  0.0000  0.00001.000000
FORCE          2    1021       0 1134.52  0.0000  0.00001.000000
FORCE          2    1022       0 1228.57  0.0000  0.00001.000000
FORCE          2    1023       0 1445.34  0.0000  0.00001.000000
FORCE          2    1024       0 1654.93  0.0000  0.00001.000000
FORCE          2    1025       0813.2751  0.0000  0.00001.000000
FORCE          2    1026       0 1503.67  0.0000  0.00001.000000
FORCE          2    1027       0 1702.92  0.0000  0.00001.000000
FORCE          2    1028       0 1691.47  0.0000  0.00001.000000
FORCE          2    1029       0 1496.81  0.0000  0.00001.000000
FORCE          2    1030       0698.0724  0.0000  0.00001.000000
FORCE          2    1031       0 1045.98  0.0000  0.00001.000000
FORCE          2    1032       0 1034.51  0.0000  0.00001.000000
FORCE          2    1033       0695.0038  0.0000  0.00001.000000
FORCE          2    1034       0610.8521  0.0000  0.00001.000000
FORCE          2    1035       0 1025.28  0.0000  0.00001.000000
FORCE          2    1036       0758.4807  0.0000  0.00001.000000
FORCE          2    1037       0 1033.81  0.0000  0.00001.000000
FORCE          2    1038       0981.5151  0.0000  0.00001.000000
FORCE          2    1039       0691.2530  0.0000  0.00001.000000
FORCE          2    1040       0 1078.60  0.0000  0.00001.000000
FORCE          2    1041       0756.7471  0.0000  0.00001.000000
FORCE          2    1042       0 1157.45  0.0000  0.00001.000000
FORCE          2    1043       0 1029.20  0.0000  0.00001.000000
FORCE          2    1044       0 1249.17  0.0000  0.00001.000000
FORCE          2    1045       0 1450.95  0.0000  0.00001.000000
FORCE          2    1046       0 1378.23  0.0000  0.00001.000000
FORCE          2    1047       0 1628.48  0.0000  0.00001.000000
FORCE          2    1048       0 1475.75  0.0000  0.00001.000000
FORCE          2    1049       0658.8171  0.0000  0.00001.000000
FORCE          2    1050       0958.5579  0.0000  0.00001.000000
FORCE          2    1051       0669.9791  0.0000  0.00001.000000
FORCE          2    1052       0584.1344  0.0000  0.00001.000000
FORCE          2    1053       0 1013.61  0.0000  0.00001.000000
FORCE          2    1054       0760.1632  0.0000  0.00001.000000
FORCE          2    1055       0 1011.62  0.0000  0.00001.000000
FORCE          2    1056       0699.6553  0.0000  0.00001.000000
$*  Constraint: Fixed(1)
SPC            3       2  123456  0.0000
SPC            3       4  123456  0.0000
SPC            3       5  123456  0.0000
SPC            3       6  123456  0.0000
SPC            3       7  123456  0.0000
SPC            3       8  123456  0.0000
SPC            3       9  123456  0.0000
SPC            3      10  123456  0.0000
SPC            3      11  123456  0.0000
SPC            3      12  123456  0.0000
SPC            3      13  123456  0.0000
SPC            3      14  123456  0.0000
SPC            3      15  123456  0.0000
SPC            3      16  123456  0.0000
SPC            3      17  123456  0.0000
SPC            3      18  123456  0.0000
SPC            3      19  123456  0.0000
SPC            3      20  123456  0.0000
SPC            3      21  123456  0.0000
SPC            3      22  123456  0.0000
SPC            3      23  123456  0.0000
SPC            3      24  123456  0.0000
SPC            3      25  123456  0.0000
SPC            3      26  123456  0.0000
SPC            3      27  123456  0.0000
SPC            3      28  123456  0.0000
SPC            3      29  123456  0.0000
SPC            3      30  123456  0.0000
SPC            3      31  123456  0.0000
SPC            3      32  123456  0.0000
SPC            3      33  123456  0.0000
SPC            3      64  123456  0.0000
SPC            3      65  123456  0.0000
SPC            3      66  123456  0.0000
SPC            3      67  123456  0.0000
SPC            3      68  123456  0.0000
SPC            3      69  123456  0.0000
SPC            3      70  123456  0.0000
SPC            3      71  123456  0.0000
SPC            3      72  123456  0.0000
SPC            3      73  123456  0.0000
SPC            3      74  123456  0.0000
SPC            3      75  123456  0.0000
SPC            3      76  123456  0.0000
SPC            3      77  123456  0.0000
SPC            3      78  123456  0.0000
SPC            3      79  123456  0.0000
SPC            3      80  123456  0.0000
SPC            3      81  123456  0.0000
SPC            3      82  123456  0.0000
SPC            3      83  123456  0.0000
SPC            3      84  123456  0.0000
SPC            3      85  123456  0.0000
SPC            3      86  123456  0.0000
SPC            3      87  123456  0.0000
SPC            3      88  123456  0.0000
SPC            3      89  123456  0.0000
SPC            3      90  123456  0.0000
SPC            3      91  123456  0.0000
SPC            3      92  123456  0.0000
SPC            3      93  123456  0.0000
SPC            3      94  123456  0.0000
SPC            3      95  123456  0.0000
SPC            3      96  123456  0.0000
SPC            3      97  123456  0.0000
SPC            3      98  123456  0.0000
SPC            3      99  123456  0.0000
SPC            3     100  123456  0.0000
SPC            3     101  123456  0.0000
SPC            3     102  123456  0.0000
SPC            3     103  123456  0.0000
SPC            3     104  123456  0.0000
SPC            3     105  123456  0.0000
SPC            3     106  123456  0.0000
SPC            3     107  123456  0.0000
SPC            3     108  123456  0.0000
SPC            3     109  123456  0.0000
SPC            3     110  123456  0.0000
SPC            3     111  123456  0.0000
SPC            3     112  123456  0.0000
SPC            3     113  123456  0.0000
SPC            3     114  123456  0.0000
SPC            3     115  123456  0.0000
SPC            3     116  123456  0.0000
SPC            3     117  123456  0.0000
SPC            3     118  123456  0.0000
SPC            3     119  123456  0.0000
SPC            3     120  123456  0.0000
SPC            3     121  123456  0.0000
SPC            3     122  123456  0.0000
SPC            3     123  123456  0.0000
SPC            3     124  123456  0.0000
SPC            3     125  123456  0.0000
SPC            3     126  123456  0.0000
SPC            3     127  123456  0.0000
SPC            3     128  123456  0.0000
SPC            3     129  123456  0.0000
SPC            3     130  123456  0.0000
SPC            3     131  123456  0.0000
SPC            3     132  123456  0.0000
SPC            3     133  123456  0.0000
SPC            3     134  123456  0.0000
SPC            3     135  123456  0.0000
SPC            3     136  123456  0.0000
SPC            3     137  123456  0.0000
SPC            3     138  123456  0.0000
SPC            3     139  123456  0.0000
SPC            3     140  123456  0.0000
SPC            3     141  123456  0.0000
SPC            3     142  123456  0.0000
SPC            3     143  123456  0.0000
SPC            3     144  123456  0.0000
SPC            3     145  123456  0.0000
SPC            3     146  123456  0.0000
SPC            3     147  123456  0.0000
SPC            3     148  123456  0.0000
SPC            3     149  123456  0.0000
SPC            3     150  123456  0.0000
SPC            3     151  123456  0.0000
SPC            3     152  123456  0.0000
SPC            3     153  123456  0.0000
SPC            3     154  123456  0.0000
SPC            3     155  123456  0.0000
SPC            3     156  123456  0.0000
SPC            3     157  123456  0.0000
SPC            3     158  123456  0.0000
SPC            3     159  123456  0.0000
SPC            3     160  123456  0.0000
SPC            3     161  123456  0.0000
SPC            3     162  123456  0.0000
SPC            3     163  123456  0.0000
SPC            3     164  123456  0.0000
SPC            3     165  123456  0.0000
SPC            3     166  123456  0.0000
SPC            3     167  123456  0.0000
SPC            3     168  123456  0.0000
SPC            3     169  123456  0.0000
SPC            3     170  123456  0.0000
SPC            3     171  123456  0.0000
SPC            3     172  123456  0.0000
SPC            3     173  123456  0.0000
SPC            3     174  123456  0.0000
SPC            3     175  123456  0.0000
SPC            3     176  123456  0.0000
SPC            3     177  123456  0.0000
SPC            3     178  123456  0.0000
SPC            3     179  123456  0.0000
SPC            3     180  123456  0.0000
SPC            3     181  123456  0.0000
LOAD         1011.0000001.000000       11.000000       2
ENDDATA 0e48accf
