$*$$$$$$$$$$$$$$$$$$$$$$$$$$$$$$$$$$$$$$$$$$$$$$$$$$$$$$$$$$$$$$$$$
$*
$*                    Simcenter v2206.0.0.8101 Translator
$*                    for Simcenter Nastran version 2206.0
$*
$*             FEM FILE: D:\Latex_docs\MaM\labs\CAE_STR1\solution\1\Kupol\Kupol_fem1.fem
$*             SIM FILE: D:\Latex_docs\MaM\labs\CAE_STR1\solution\1\Kupol\Kupol_sim1.sim
$*        ANALYSIS TYPE: Structural
$*        SOLUTION NAME: Solution 1
$*        SOLUTION TYPE: SOL 101 Linear Statics
$*
$*    SOLVER INPUT FILE: kupol_sim1-solution_1.dat
$*        CREATION DATE: 18-Apr-2023
$*        CREATION TIME: 15:54:01
$*             HOSTNAME: DESKTOP-6AFHIMM
$*      NASTRAN LICENSE: Desktop Bundle
$*
$*                UNITS: mm (milli-newton)
$*                      ... LENGTH : mm
$*                      ... TIME   : sec
$*                      ... MASS   : kilogram (kg)
$*                      ... TEMPERATURE : deg Celsius
$*                      ... FORCE  : milli-newton
$*                      ... THERMAL ENERGY : mN-mm (micro-joule)
$*
$* IMPORTANT NOTE:
$*     This banner was generated by Simcenter and altering this 
$*     information may compromise the pre and post processing of results
$*
$*$$$$$$$$$$$$$$$$$$$$$$$$$$$$$$$$$$$$$$$$$$$$$$$$$$$$$$$$$$$$$$$$$
$*
$*$$$$$$$$$$$$$$$$$$$$$$$$$$$$$$$$$$$
$*
$* FILE MANAGEMENT
$*
$*$$$$$$$$$$$$$$$$$$$$$$$$$$$$$$$$$$$
$*
$*
$*$$$$$$$$$$$$$$$$$$$$$$$$$$$$$$$$$$$
$*
$* EXECUTIVE CONTROL
$*
$*$$$$$$$$$$$$$$$$$$$$$$$$$$$$$$$$$$$
$*
ID,NASTRAN,kupol_sim1-solution_1
SOL 101
CEND
$*
$*$$$$$$$$$$$$$$$$$$$$$$$$$$$$$$$$$$$
$*
$* CASE CONTROL
$*
$*$$$$$$$$$$$$$$$$$$$$$$$$$$$$$$$$$$$
$*
ECHO = NONE
OUTPUT
DISPLACEMENT(PLOT,REAL) = ALL
SPCFORCES(PLOT,REAL) = ALL
STRESS(PLOT,REAL,VONMISES,CENTER) = ALL
$*  Step: Subcase - Statics 1
SUBCASE 1
  LABEL = Subcase - Statics 1
  LOAD = 1
  SPC = 2
$*
$*$$$$$$$$$$$$$$$$$$$$$$$$$$$$$$$$$$$
$*
$* BULK DATA
$*
$*$$$$$$$$$$$$$$$$$$$$$$$$$$$$$$$$$$$
$*
BEGIN BULK
$*
$* PARAM CARDS
$*
PARAM      K6ROT100.0000
PARAM     OIBULK     YES
PARAM    OMACHPR     YES
PARAM       POST      -2
PARAM    POSTEXT     YES
PARAM    UNITSYS   MN-MM
$*
$* GRID CARDS
$*
GRID*                  1               0-1.000000000E+031.7320507813E+03+
*       2.0212781102E-12               0
GRID*                  2               0-1.000000000E+03-1.732050781E+03+
*       2.0212781102E-12               0
GRID*                  3               0-1.000000000E+031.3747727051E+03+
*       2.0212781102E-12               0
GRID*                  4               0-1.000000000E+03-1.374772705E+03+
*       2.0212781102E-12               0
GRID*                  5               0-1.000000000E+03-1.732050781E+03+
*       4.0000000000E+03               0
GRID*                  6               0-1.000000000E+03-1.374772705E+03+
*       4.0000000000E+03               0
GRID*                  7               0-1.000000000E+031.3747727051E+03+
*       4.0000000000E+03               0
GRID*                  8               0-1.000000000E+031.7320507813E+03+
*       4.0000000000E+03               0
GRID*                  9               01.0000000000E+03-1.374772705E+03+
*       4.0000000000E+03               0
GRID*                 10               01.0000000000E+03-1.732050781E+03+
*       4.0000000000E+03               0
GRID*                 11               01.0000000000E+031.7320507813E+03+
*       4.0000000000E+03               0
GRID*                 12               01.0000000000E+031.3747727051E+03+
*       4.0000000000E+03               0
GRID*                 13               01.0000000000E+03-1.732050781E+03+
*       0.0000000000E+00               0
GRID*                 14               01.0000000000E+03-1.374772705E+03+
*       0.0000000000E+00               0
GRID*                 15               01.0000000000E+031.3747727051E+03+
*       0.0000000000E+00               0
GRID*                 16               01.0000000000E+031.7320507813E+03+
*       0.0000000000E+00               0
GRID*                 17               0-1.619922230E-03-1.700000000E+03+
*       5.0000000000E+03               0
GRID*                 18               0-4.525488663E+01-1.699397583E+03+
*       6.0000000000E+03               0
GRID*                 19               0-1.111140503E+03-1.662939209E+03+
*       6.0000000000E+03               0
GRID*                 20               0-1.466103388E+031.3603451573E+03+
*       0.0000000000E+00               0
GRID*                 21               0-1.801936524E+038.6776692974E+02+
*       0.0000000000E+00               0
GRID*                 22               0-1.977659726E+032.9808426080E+02+
*       0.0000000000E+00               0
GRID*                 23               0-1.977659726E+03-2.980842608E+02+
*       0.0000000000E+00               0
GRID*                 24               0-1.801936524E+03-8.677669297E+02+
*       0.0000000000E+00               0
GRID*                 25               0-1.466103388E+03-1.360345157E+03+
*       0.0000000000E+00               0
GRID*                 26               0-1.911144002E+035.8950988586E+02+
*       0.0000000000E+00               0
GRID*                 27               0-1.246979482E+031.5636628027E+03+
*       0.0000000000E+00               0
GRID*                 28               0-1.652476803E+031.1266396383E+03+
*       0.0000000000E+00               0
GRID*                 29               0-1.999997971E+030.0000000000E+00+
*       0.0000000000E+00               0
GRID*                 30               0-1.911144002E+03-5.895098859E+02+
*       0.0000000000E+00               0
GRID*                 31               0-1.246979482E+03-1.563662803E+03+
*       0.0000000000E+00               0
GRID*                 32               0-1.652476803E+03-1.126639638E+03+
*       0.0000000000E+00               0
GRID*                 33               0-1.321464275E+031.0694537855E+03+
*       0.0000000000E+00               0
GRID*                 34               0-1.594700658E+035.8900754577E+02+
*       0.0000000000E+00               0
GRID*                 35               0-1.700000000E+032.0818995128E-13+
*       0.0000000000E+00               0
GRID*                 36               0-1.594700658E+03-5.890075458E+02+
*       0.0000000000E+00               0
GRID*                 37               0-1.321464275E+03-1.069453786E+03+
*       0.0000000000E+00               0
GRID*                 38               0-1.673467990E+032.9917342793E+02+
*       0.0000000000E+00               0
GRID*                 39               0-1.170730029E+031.2326357468E+03+
*       0.0000000000E+00               0
GRID*                 40               0-1.477741020E+038.4040552972E+02+
*       0.0000000000E+00               0
GRID*                 41               0-1.673467990E+03-2.991734279E+02+
*       0.0000000000E+00               0
GRID*                 42               0-1.170730029E+03-1.232635747E+03+
*       0.0000000000E+00               0
GRID*                 43               0-1.477741020E+03-8.404055297E+02+
*       0.0000000000E+00               0
GRID*                 44               0-1.000000000E+03-1.732050781E+03+
*       5.7142857143E+02               0
GRID*                 45               0-1.000000000E+03-1.732050781E+03+
*       1.1428571429E+03               0
GRID*                 46               0-1.000000000E+03-1.732050781E+03+
*       1.7142857143E+03               0
GRID*                 47               0-1.000000000E+03-1.732050781E+03+
*       2.2857142857E+03               0
GRID*                 48               0-1.000000000E+03-1.732050781E+03+
*       2.8571428571E+03               0
GRID*                 49               0-1.000000000E+03-1.732050781E+03+
*       3.4285714286E+03               0
GRID*                 50               0-1.000000000E+03-1.732050781E+03+
*       2.8571428571E+02               0
GRID*                 51               0-1.000000000E+03-1.732050781E+03+
*       8.5714285714E+02               0
GRID*                 52               0-1.000000000E+03-1.732050781E+03+
*       3.7142857143E+03               0
GRID*                 53               0-1.000000000E+03-1.732050781E+03+
*       1.4285714286E+03               0
GRID*                 54               0-1.000000000E+03-1.732050781E+03+
*       2.0000000000E+03               0
GRID*                 55               0-1.000000000E+03-1.732050781E+03+
*       3.1428571429E+03               0
GRID*                 56               0-1.000000000E+03-1.732050781E+03+
*       2.5714285714E+03               0
GRID*                 57               0-1.000000000E+03-1.553411743E+03+
*       2.0212781102E-12               0
GRID*                 58               0-1.000000000E+03-1.553411743E+03+
*       4.0000000000E+03               0
GRID*                 59               0-1.000000000E+03-1.374772705E+03+
*       4.2313017231E+02               0
GRID*                 60               0-1.000000000E+03-1.374772705E+03+
*       9.5340409927E+02               0
GRID*                 61               0-1.000000000E+03-1.374772705E+03+
*       1.5402881327E+03               0
GRID*                 62               0-1.000000000E+03-1.374772705E+03+
*       2.1280788714E+03               0
GRID*                 63               0-1.000000000E+03-1.374772705E+03+
*       2.7149261194E+03               0
GRID*                 64               0-1.000000000E+03-1.374772705E+03+
*       3.2454083439E+03               0
GRID*                 65               0-1.000000000E+03-1.374772705E+03+
*       3.6692973245E+03               0
GRID*                 66               0-1.000000000E+03-1.374772705E+03+
*       2.1156508616E+02               0
GRID*                 67               0-1.000000000E+03-1.374772705E+03+
*       6.8826713579E+02               0
GRID*                 68               0-1.000000000E+03-1.374772705E+03+
*       3.4573528342E+03               0
GRID*                 69               0-1.000000000E+03-1.374772705E+03+
*       3.8346486622E+03               0
GRID*                 70               0-1.000000000E+03-1.374772705E+03+
*       1.2468461160E+03               0
GRID*                 71               0-1.000000000E+03-1.374772705E+03+
*       1.8341835020E+03               0
GRID*                 72               0-1.000000000E+03-1.374772705E+03+
*       2.9801672317E+03               0
GRID*                 73               0-1.000000000E+03-1.374772705E+03+
*       2.4215024954E+03               0
GRID*                 74               0-1.000000000E+031.3747727051E+03+
*       3.6682551422E+03               0
GRID*                 75               0-1.000000000E+031.3747727051E+03+
*       3.2429783395E+03               0
GRID*                 76               0-1.000000000E+031.3747727051E+03+
*       2.7117997204E+03               0
GRID*                 77               0-1.000000000E+031.3747727051E+03+
*       2.1254508748E+03               0
GRID*                 78               0-1.000000000E+031.3747727051E+03+
*       1.5383099038E+03               0
GRID*                 79               0-1.000000000E+031.3747727051E+03+
*       9.5212422615E+02               0
GRID*                 80               0-1.000000000E+031.3747727051E+03+
*       4.2257425132E+02               0
GRID*                 81               0-1.000000000E+031.3747727051E+03+
*       2.1128712566E+02               0
GRID*                 82               0-1.000000000E+031.3747727051E+03+
*       6.8734923873E+02               0
GRID*                 83               0-1.000000000E+031.3747727051E+03+
*       3.4556167409E+03               0
GRID*                 84               0-1.000000000E+031.3747727051E+03+
*       3.8341275711E+03               0
GRID*                 85               0-1.000000000E+031.3747727051E+03+
*       1.2452170650E+03               0
GRID*                 86               0-1.000000000E+031.3747727051E+03+
*       1.8318803893E+03               0
GRID*                 87               0-1.000000000E+031.3747727051E+03+
*       2.9773890300E+03               0
GRID*                 88               0-1.000000000E+031.3747727051E+03+
*       2.4186252976E+03               0
GRID*                 89               0-1.000000000E+031.5534117432E+03+
*       2.0212781102E-12               0
GRID*                 90               0-1.000000000E+031.5534117432E+03+
*       4.0000000000E+03               0
GRID*                 91               0-1.000000000E+031.7320507813E+03+
*       3.4285714286E+03               0
GRID*                 92               0-1.000000000E+031.7320507813E+03+
*       2.8571428571E+03               0
GRID*                 93               0-1.000000000E+031.7320507813E+03+
*       2.2857142857E+03               0
GRID*                 94               0-1.000000000E+031.7320507813E+03+
*       1.7142857143E+03               0
GRID*                 95               0-1.000000000E+031.7320507813E+03+
*       1.1428571429E+03               0
GRID*                 96               0-1.000000000E+031.7320507813E+03+
*       5.7142857143E+02               0
GRID*                 97               0-1.000000000E+031.7320507813E+03+
*       2.8571428571E+02               0
GRID*                 98               0-1.000000000E+031.7320507813E+03+
*       8.5714285714E+02               0
GRID*                 99               0-1.000000000E+031.7320507813E+03+
*       3.7142857143E+03               0
GRID*                100               0-1.000000000E+031.7320507813E+03+
*       1.4285714286E+03               0
GRID*                101               0-1.000000000E+031.7320507813E+03+
*       2.0000000000E+03               0
GRID*                102               0-1.000000000E+031.7320507813E+03+
*       3.1428571429E+03               0
GRID*                103               0-1.000000000E+031.7320507813E+03+
*       2.5714285714E+03               0
GRID*                104               0-8.644335171E+02-1.803539538E+03+
*       4.5027473614E+03               0
GRID*                105               0-5.036426652E+02-1.935547528E+03+
*       4.8639127695E+03               0
GRID*                106               01.9630219008E-02-2.000000000E+03+
*       4.9999999998E+03               0
GRID*                107               05.0366493231E+02-1.935541821E+03+
*       4.8638999276E+03               0
GRID*                108               08.6444447359E+02-1.803534288E+03+
*       4.5027282314E+03               0
GRID*                109               09.6496837827E+02-1.751809502E+03+
*       4.2623653214E+03               0
GRID*                110               02.6259080142E+02-1.982686416E+03+
*       4.9649076078E+03               0
GRID*                111               07.0767631295E+02-1.870613314E+03+
*       4.7065369124E+03               0
GRID*                112               0-9.649650735E+02-1.751811667E+03+
*       4.2623808056E+03               0
GRID*                113               0-2.625714297E+02-1.982688813E+03+
*       4.9649119699E+03               0
GRID*                114               0-7.076594502E+02-1.870619698E+03+
*       4.7065536800E+03               0
GRID*                115               08.6443555610E+021.8035385944E+03+
*       4.5027438146E+03               0
GRID*                116               05.0364106188E+021.9355479414E+03+
*       4.8639140031E+03               0
GRID*                117               0-1.505099439E-021.9999999999E+03+
*       4.9999999999E+03               0
GRID*                118               0-5.036581521E+021.9355435689E+03+
*       4.8639037342E+03               0
GRID*                119               0-8.644410395E+021.8035359130E+03+
*       4.5027342038E+03               0
GRID*                120               0-9.649680050E+021.7518097080E+03+
*       4.2623666941E+03               0
GRID*                121               0-2.625967523E+021.9826856275E+03+
*       4.9649059882E+03               0
GRID*                122               0-7.076706041E+021.8706154736E+03+
*       4.7065426305E+03               0
GRID*                123               09.6496470030E+021.7518118725E+03+
*       4.2623821782E+03               0
GRID*                124               02.6256503187E+021.9826896413E+03+
*       4.9649136819E+03               0
GRID*                125               07.0765741827E+021.8706204666E+03+
*       4.7065557148E+03               0
GRID*                126               09.6464012773E+021.3998109295E+03+
*       4.2635724322E+03               0
GRID*                127               08.6418286998E+021.4639633013E+03+
*       4.5031793836E+03               0
GRID*                128               07.0887674107E+021.5451516550E+03+
*       4.7053325086E+03               0
GRID*                129               05.0635025402E+021.6228398073E+03+
*       4.8623280061E+03               0
GRID*                130               02.6499757951E+021.6792186896E+03+
*       4.9642488670E+03               0
GRID*                131               03.5030961306E-011.6999999639E+03+
*       4.9999999387E+03               0
GRID*                132               0-2.643189608E+021.6793257953E+03+
*       4.9644351242E+03               0
GRID*                133               0-5.057305307E+021.6230330315E+03+
*       4.8626917416E+03               0
GRID*                134               0-7.082399934E+021.5454436186E+03+
*       4.7059716972E+03               0
GRID*                135               0-8.636893089E+021.4642545961E+03+
*       4.5040264590E+03               0
GRID*                136               0-9.644395225E+021.3999486770E+03+
*       4.2643009970E+03               0
GRID*                137               0-9.909945727E+021.3812785959E+03+
*       4.1339015781E+03               0
GRID*                138               0-7.922831878E+021.5040902216E+03+
*       4.6101534681E+03               0
GRID*                139               0-9.215524128E+021.4285451345E+03+
*       4.3882540564E+03               0
GRID*                140               0-1.335630311E+021.6947452166E+03+
*       4.9910406910E+03               0
GRID*                141               0-3.890886064E+021.6548747032E+03+
*       4.9212005157E+03               0
GRID*                142               0-6.124092108E+021.5858609415E+03+
*       4.7905408750E+03               0
GRID*                143               09.9104387376E+021.3812437668E+03+
*       4.1335394168E+03               0
GRID*                144               07.9285234451E+021.5037902069E+03+
*       4.6094138673E+03               0
GRID*                145               09.2188872463E+021.4283281438E+03+
*       4.3874548125E+03               0
GRID*                146               01.3426308348E+021.6946898667E+03+
*       4.9909460509E+03               0
GRID*                147               03.8974500484E+021.6547201381E+03+
*       4.9209229956E+03               0
GRID*                148               06.1305082629E+021.5856130125E+03+
*       4.7900435066E+03               0
GRID*                149               01.0000000000E+03-1.732050781E+03+
*       3.4285714286E+03               0
GRID*                150               01.0000000000E+03-1.732050781E+03+
*       2.8571428571E+03               0
GRID*                151               01.0000000000E+03-1.732050781E+03+
*       2.2857142857E+03               0
GRID*                152               01.0000000000E+03-1.732050781E+03+
*       1.7142857143E+03               0
GRID*                153               01.0000000000E+03-1.732050781E+03+
*       1.1428571429E+03               0
GRID*                154               01.0000000000E+03-1.732050781E+03+
*       5.7142857143E+02               0
GRID*                155               01.0000000000E+03-1.732050781E+03+
*       2.8571428571E+02               0
GRID*                156               01.0000000000E+03-1.732050781E+03+
*       8.5714285714E+02               0
GRID*                157               01.0000000000E+03-1.732050781E+03+
*       3.7142857143E+03               0
GRID*                158               01.0000000000E+03-1.732050781E+03+
*       1.4285714286E+03               0
GRID*                159               01.0000000000E+03-1.732050781E+03+
*       2.0000000000E+03               0
GRID*                160               01.0000000000E+03-1.732050781E+03+
*       3.1428571429E+03               0
GRID*                161               01.0000000000E+03-1.732050781E+03+
*       2.5714285714E+03               0
GRID*                162               01.0000000000E+03-1.553411743E+03+
*       0.0000000000E+00               0
GRID*                163               01.0000000000E+03-1.553411743E+03+
*       4.0000000000E+03               0
GRID*                164               01.0000000000E+03-1.374772705E+03+
*       3.6682551422E+03               0
GRID*                165               01.0000000000E+03-1.374772705E+03+
*       3.2429783395E+03               0
GRID*                166               01.0000000000E+03-1.374772705E+03+
*       2.7117997204E+03               0
GRID*                167               01.0000000000E+03-1.374772705E+03+
*       2.1254508748E+03               0
GRID*                168               01.0000000000E+03-1.374772705E+03+
*       1.5383099038E+03               0
GRID*                169               01.0000000000E+03-1.374772705E+03+
*       9.5212422615E+02               0
GRID*                170               01.0000000000E+03-1.374772705E+03+
*       4.2257425132E+02               0
GRID*                171               01.0000000000E+03-1.374772705E+03+
*       2.1128712566E+02               0
GRID*                172               01.0000000000E+03-1.374772705E+03+
*       6.8734923873E+02               0
GRID*                173               01.0000000000E+03-1.374772705E+03+
*       3.4556167409E+03               0
GRID*                174               01.0000000000E+03-1.374772705E+03+
*       3.8341275711E+03               0
GRID*                175               01.0000000000E+03-1.374772705E+03+
*       1.2452170650E+03               0
GRID*                176               01.0000000000E+03-1.374772705E+03+
*       1.8318803893E+03               0
GRID*                177               01.0000000000E+03-1.374772705E+03+
*       2.9773890300E+03               0
GRID*                178               01.0000000000E+03-1.374772705E+03+
*       2.4186252976E+03               0
GRID*                179               01.0000000000E+031.3747727051E+03+
*       4.2313017231E+02               0
GRID*                180               01.0000000000E+031.3747727051E+03+
*       9.5340409927E+02               0
GRID*                181               01.0000000000E+031.3747727051E+03+
*       1.5402881327E+03               0
GRID*                182               01.0000000000E+031.3747727051E+03+
*       2.1280788714E+03               0
GRID*                183               01.0000000000E+031.3747727051E+03+
*       2.7149261194E+03               0
GRID*                184               01.0000000000E+031.3747727051E+03+
*       3.2454083439E+03               0
GRID*                185               01.0000000000E+031.3747727051E+03+
*       3.6692973245E+03               0
GRID*                186               01.0000000000E+031.3747727051E+03+
*       2.1156508616E+02               0
GRID*                187               01.0000000000E+031.3747727051E+03+
*       6.8826713579E+02               0
GRID*                188               01.0000000000E+031.3747727051E+03+
*       3.4573528342E+03               0
GRID*                189               01.0000000000E+031.3747727051E+03+
*       3.8346486622E+03               0
GRID*                190               01.0000000000E+031.3747727051E+03+
*       1.2468461160E+03               0
GRID*                191               01.0000000000E+031.3747727051E+03+
*       1.8341835020E+03               0
GRID*                192               01.0000000000E+031.3747727051E+03+
*       2.9801672317E+03               0
GRID*                193               01.0000000000E+031.3747727051E+03+
*       2.4215024954E+03               0
GRID*                194               01.0000000000E+031.5534117432E+03+
*       0.0000000000E+00               0
GRID*                195               01.0000000000E+031.5534117432E+03+
*       4.0000000000E+03               0
GRID*                196               01.0000000000E+031.7320507813E+03+
*       5.7142857143E+02               0
GRID*                197               01.0000000000E+031.7320507813E+03+
*       1.1428571429E+03               0
GRID*                198               01.0000000000E+031.7320507813E+03+
*       1.7142857143E+03               0
GRID*                199               01.0000000000E+031.7320507813E+03+
*       2.2857142857E+03               0
GRID*                200               01.0000000000E+031.7320507813E+03+
*       2.8571428571E+03               0
GRID*                201               01.0000000000E+031.7320507813E+03+
*       3.4285714286E+03               0
GRID*                202               01.0000000000E+031.7320507813E+03+
*       2.8571428571E+02               0
GRID*                203               01.0000000000E+031.7320507813E+03+
*       8.5714285714E+02               0
GRID*                204               01.0000000000E+031.7320507813E+03+
*       3.7142857143E+03               0
GRID*                205               01.0000000000E+031.7320507813E+03+
*       1.4285714286E+03               0
GRID*                206               01.0000000000E+031.7320507813E+03+
*       2.0000000000E+03               0
GRID*                207               01.0000000000E+031.7320507813E+03+
*       3.1428571429E+03               0
GRID*                208               01.0000000000E+031.7320507813E+03+
*       2.5714285714E+03               0
GRID*                209               01.3214642753E+03-1.069453786E+03+
*       0.0000000000E+00               0
GRID*                210               01.5947006583E+03-5.890075458E+02+
*       0.0000000000E+00               0
GRID*                211               01.7000000000E+03-1.889564856E-13+
*       0.0000000000E+00               0
GRID*                212               01.5947006583E+035.8900754577E+02+
*       0.0000000000E+00               0
GRID*                213               01.3214642753E+031.0694537855E+03+
*       0.0000000000E+00               0
GRID*                214               01.6734679896E+03-2.991734279E+02+
*       0.0000000000E+00               0
GRID*                215               01.1707300286E+03-1.232635747E+03+
*       0.0000000000E+00               0
GRID*                216               01.4777410196E+03-8.404055297E+02+
*       0.0000000000E+00               0
GRID*                217               01.6734679896E+032.9917342793E+02+
*       0.0000000000E+00               0
GRID*                218               01.1707300286E+031.2326357468E+03+
*       0.0000000000E+00               0
GRID*                219               01.4777410196E+038.4040552972E+02+
*       0.0000000000E+00               0
GRID*                220               01.4142135237E+03-1.414213504E+03+
*       0.0000000000E+00               0
GRID*                221               01.7320506906E+03-9.999999255E+02+
*       0.0000000000E+00               0
GRID*                222               01.9318516152E+03-5.176380841E+02+
*       0.0000000000E+00               0
GRID*                223               02.0000000000E+03-8.526512829E-14+
*       0.0000000000E+00               0
GRID*                224               01.9318516152E+035.1763808405E+02+
*       0.0000000000E+00               0
GRID*                225               01.7320506906E+039.9999992552E+02+
*       0.0000000000E+00               0
GRID*                226               01.4142135237E+031.4142135044E+03+
*       0.0000000000E+00               0
GRID*                227               01.9828896951E+03-2.610523832E+02+
*       0.0000000000E+00               0
GRID*                228               01.2175228178E+03-1.586706605E+03+
*       0.0000000000E+00               0
GRID*                229               01.5867066186E+03-1.217522800E+03+
*       0.0000000000E+00               0
GRID*                230               01.8477589944E+03-7.653668334E+02+
*       0.0000000000E+00               0
GRID*                231               01.9828896951E+032.6105238322E+02+
*       0.0000000000E+00               0
GRID*                232               01.2175228178E+031.5867066051E+03+
*       0.0000000000E+00               0
GRID*                233               01.5867066186E+031.2175228000E+03+
*       0.0000000000E+00               0
GRID*                234               01.8477589944E+037.6536683342E+02+
*       0.0000000000E+00               0
GRID*                235               02.6464017367E+02-1.679275209E+03+
*       4.9643470354E+03               0
GRID*                236               05.0593063682E+02-1.622970665E+03+
*       4.8625744013E+03               0
GRID*                237               07.0832586071E+02-1.545404265E+03+
*       4.7058855448E+03               0
GRID*                238               08.6371876702E+02-1.464237220E+03+
*       4.5039759766E+03               0
GRID*                239               09.6444301981E+02-1.399946268E+03+
*       4.2642882349E+03               0
GRID*                240               09.9099546917E+02-1.381277953E+03+
*       4.1338949438E+03               0
GRID*                241               07.9233802627E+02-1.504061334E+03+
*       4.6100822535E+03               0
GRID*                242               09.2156642619E+02-1.428536094E+03+
*       4.3882207924E+03               0
GRID*                243               01.3390171067E+02-1.694718489E+03+
*       4.9909949863E+03               0
GRID*                244               03.8934830115E+02-1.654813624E+03+
*       4.9210907912E+03               0
GRID*                245               06.1254832980E+02-1.585807212E+03+
*       4.7904330866E+03               0
GRID*                246               0-9.646312584E+02-1.399817041E+03+
*       4.2636048879E+03               0
GRID*                247               0-8.641340609E+02-1.463992113E+03+
*       4.5032632018E+03               0
GRID*                248               0-7.087458587E+02-1.545211694E+03+
*       4.7054640233E+03               0
GRID*                249               0-5.061146679E+02-1.622913295E+03+
*       4.8624662960E+03               0
GRID*                250               0-2.646862915E+02-1.679267783E+03+
*       4.9643343608E+03               0
GRID*                251               0-9.910416004E+02-1.381245398E+03+
*       4.1335562886E+03               0
GRID*                252               0-7.927663913E+02-1.503835522E+03+
*       4.6095256761E+03               0
GRID*                253               0-9.218632786E+02-1.428344567E+03+
*       4.3875153523E+03               0
GRID*                254               0-1.339295533E+02-1.694716259E+03+
*       4.9909911847E+03               0
GRID*                255               0-3.894708418E+02-1.654784690E+03+
*       4.9210389814E+03               0
GRID*                256               0-6.128702933E+02-1.585682800E+03+
*       4.7901835601E+03               0
GRID*                257               0-2.647674216E+01-1.699647560E+03+
*       5.5850433387E+03               0
GRID*                258               0-1.187670043E+01-1.699841917E+03+
*       5.2624137741E+03               0
GRID*                259               0-5.939160176E+00-1.699920959E+03+
*       5.1312068871E+03               0
GRID*                260               0-3.586581439E+01-1.699522571E+03+
*       5.7925216693E+03               0
GRID*                261               0-1.917672130E+01-1.699744739E+03+
*       5.4237285564E+03               0
GRID*                262               0-1.104813375E+03-1.666873668E+03+
*       5.8861418086E+03               0
GRID*                263               0-1.098486246E+03-1.670808128E+03+
*       5.7722836172E+03               0
GRID*                264               0-1.092075638E+03-1.674794498E+03+
*       5.6569231897E+03               0
GRID*                265               0-1.085665030E+03-1.678780868E+03+
*       5.5415627622E+03               0
GRID*                266               0-1.079094499E+03-1.682866685E+03+
*       5.4233244718E+03               0
GRID*                267               0-1.072523967E+03-1.686952502E+03+
*       5.3050861814E+03               0
GRID*                268               0-1.065732660E+03-1.691175607E+03+
*       5.1828749755E+03               0
GRID*                269               0-1.058941352E+03-1.695398711E+03+
*       5.0606637695E+03               0
GRID*                270               0-1.051894644E+03-1.699780634E+03+
*       4.9338565551E+03               0
GRID*                271               0-1.044847935E+03-1.704162557E+03+
*       4.8070493408E+03               0
GRID*                272               0-1.037548594E+03-1.708701576E+03+
*       4.6756959504E+03               0
GRID*                273               0-1.030249253E+03-1.713240596E+03+
*       4.5443425599E+03               0
GRID*                274               0-1.022744744E+03-1.717907197E+03+
*       4.4092971255E+03               0
GRID*                275               0-1.015240235E+03-1.722573798E+03+
*       4.2742516911E+03               0
GRID*                276               0-1.007620118E+03-1.727312290E+03+
*       4.1371258456E+03               0
GRID*                277               0-5.945873774E+02-1.592628573E+03+
*       6.0000000000E+03               0
GRID*                278               0-1.079487233E+03-1.313281040E+03+
*       6.0000000000E+03               0
GRID*                279               0-1.447415680E+03-8.916202120E+02+
*       6.0000000000E+03               0
GRID*                280               0-1.658496136E+03-3.733476684E+02+
*       6.0000000000E+03               0
GRID*                281               0-1.689860431E+031.8539360718E+02+
*       6.0000000000E+03               0
GRID*                282               0-1.538102771E+037.2404409032E+02+
*       6.0000000000E+03               0
GRID*                283               0-1.219671304E+031.1842305525E+03+
*       6.0000000000E+03               0
GRID*                284               0-7.690582898E+021.5160967249E+03+
*       6.0000000000E+03               0
GRID*                285               0-2.351063627E+021.6836641699E+03+
*       6.0000000000E+03               0
GRID*                286               03.2433045973E+021.6687748983E+03+
*       6.0000000000E+03               0
GRID*                287               08.4858961694E+021.4730565528E+03+
*       6.0000000000E+03               0
GRID*                288               01.2809148834E+031.1177011831E+03+
*       6.0000000000E+03               0
GRID*                289               01.5744256118E+036.4123494953E+02+
*       6.0000000000E+03               0
GRID*                290               01.6973270311E+039.5283461704E+01+
*       6.0000000000E+03               0
GRID*                291               01.6362960043E+03-4.610149447E+02+
*       6.0000000000E+03               0
GRID*                292               01.3979510784E+03-9.673327720E+02+
*       6.0000000000E+03               0
GRID*                293               01.0080974448E+03-1.368846023E+03+
*       6.0000000000E+03               0
GRID*                294               05.0900921479E+02-1.622007819E+03+
*       6.0000000000E+03               0
GRID*                295               05.9455040104E+021.5926423119E+03+
*       6.0000000000E+03               0
GRID*                296               01.6584989440E+033.7333806624E+02+
*       6.0000000000E+03               0
GRID*                297               01.4474122454E+038.9162638766E+02+
*       6.0000000000E+03               0
GRID*                298               01.0794590378E+031.3133043205E+03+
*       6.0000000000E+03               0
GRID*                299               01.2196480636E+03-1.184254173E+03+
*       6.0000000000E+03               0
GRID*                300               01.6898565023E+03-1.854317780E+02+
*       6.0000000000E+03               0
GRID*                301               01.5380928282E+03-7.240652306E+02+
*       6.0000000000E+03               0
GRID*                302               0-3.243205949E+02-1.668776600E+03+
*       6.0000000000E+03               0
GRID*                303               07.6904427723E+02-1.516103427E+03+
*       6.0000000000E+03               0
GRID*                304               02.3510885386E+02-1.683663303E+03+
*       6.0000000000E+03               0
GRID*                305               0-1.574430994E+03-6.412229315E+02+
*       6.0000000000E+03               0
GRID*                306               0-1.280915720E+03-1.117700665E+03+
*       6.0000000000E+03               0
GRID*                307               0-8.485938688E+02-1.473054099E+03+
*       6.0000000000E+03               0
GRID*                308               0-1.397945729E+039.6734041640E+02+
*       6.0000000000E+03               0
GRID*                309               0-1.697329433E+03-9.525104398E+01+
*       6.0000000000E+03               0
GRID*                310               0-1.636291100E+034.6103289871E+02+
*       6.0000000000E+03               0
GRID*                311               04.5200344822E+011.6993984865E+03+
*       6.0000000000E+03               0
GRID*                312               0-5.090375995E+021.6219983902E+03+
*       6.0000000000E+03               0
GRID*                313               0-1.008108388E+031.3688375957E+03+
*       6.0000000000E+03               0
GRID*                314               0-1.293449570E+03-1.525446637E+03+
*       6.0000000000E+03               0
GRID*                315               0-1.458916405E+03-1.368050583E+03+
*       6.0000000000E+03               0
GRID*                316               0-1.605347001E+03-1.192837347E+03+
*       6.0000000000E+03               0
GRID*                317               0-1.730856943E+03-1.002064080E+03+
*       6.0000000000E+03               0
GRID*                318               0-1.833813913E+03-7.982015869E+02+
*       6.0000000000E+03               0
GRID*                319               0-1.912841393E+03-5.839846159E+02+
*       6.0000000000E+03               0
GRID*                320               0-1.966942746E+03-3.621268791E+02+
*       6.0000000000E+03               0
GRID*                321               0-1.995401784E+03-1.355415085E+02+
*       6.0000000000E+03               0
GRID*                322               0-1.997846308E+039.2787352340E+01+
*       6.0000000000E+03               0
GRID*                323               0-1.974246375E+033.1992168328E+02+
*       6.0000000000E+03               0
GRID*                324               0-1.924907277E+035.4289185638E+02+
*       6.0000000000E+03               0
GRID*                325               0-1.850485908E+037.5875016715E+02+
*       6.0000000000E+03               0
GRID*                326               0-1.751919873E+039.6476742327E+02+
*       6.0000000000E+03               0
GRID*                327               0-1.630516132E+031.1581956565E+03+
*       6.0000000000E+03               0
GRID*                328               0-1.487874812E+031.3364981648E+03+
*       6.0000000000E+03               0
GRID*                329               0-1.325820267E+031.4973973998E+03+
*       6.0000000000E+03               0
GRID*                330               0-1.146491438E+031.6387668926E+03+
*       6.0000000000E+03               0
GRID*                331               0-9.522341925E+021.7587637980E+03+
*       6.0000000000E+03               0
GRID*                332               0-7.455237996E+021.8558539899E+03+
*       6.0000000000E+03               0
GRID*                333               0-5.291088049E+021.9287415103E+03+
*       6.0000000000E+03               0
GRID*                334               0-3.058153417E+021.9764805718E+03+
*       6.0000000000E+03               0
GRID*                335               0-7.849839710E+011.9984585210E+03+
*       6.0000000000E+03               0
GRID*                336               01.4980917238E+021.9943813606E+03+
*       6.0000000000E+03               0
GRID*                337               03.7616099442E+021.9643072185E+03+
*       6.0000000000E+03               0
GRID*                338               05.9764204871E+021.9086183794E+03+
*       6.0000000000E+03               0
GRID*                339               08.1130226754E+021.8280559026E+03+
*       6.0000000000E+03               0
GRID*                340               01.0143867511E+031.7236640455E+03+
*       6.0000000000E+03               0
GRID*                341               01.2042774622E+031.5967823879E+03+
*       6.0000000000E+03               0
GRID*                342               01.3784363553E+031.4491077672E+03+
*       6.0000000000E+03               0
GRID*                343               01.5346380745E+031.2825311275E+03+
*       6.0000000000E+03               0
GRID*                344               01.6708432818E+031.0992191460E+03+
*       6.0000000000E+03               0
GRID*                345               01.7852438064E+039.0161204676E+02+
*       6.0000000000E+03               0
GRID*                346               01.8763808356E+036.9223776221E+02+
*       6.0000000000E+03               0
GRID*                347               01.9430620399E+034.7382379489E+02+
*       6.0000000000E+03               0
GRID*                348               01.9844064956E+032.4926065591E+02+
*       6.0000000000E+03               0
GRID*                349               01.9998852624E+032.1416240642E+01+
*       6.0000000000E+03               0
GRID*                350               01.9892879178E+03-2.067214599E+02+
*       6.0000000000E+03               0
GRID*                351               01.9527624057E+03-4.321092647E+02+
*       6.0000000000E+03               0
GRID*                352               01.8907748644E+03-6.518962969E+02+
*       6.0000000000E+03               0
GRID*                353               01.8041390048E+03-8.631814281E+02+
*       6.0000000000E+03               0
GRID*                354               01.6939916351E+03-1.063199079E+03+
*       6.0000000000E+03               0
GRID*                355               01.5617469210E+03-1.249378063E+03+
*       6.0000000000E+03               0
GRID*                356               01.4091442108E+03-1.419264922E+03+
*       6.0000000000E+03               0
GRID*                357               01.2381953590E+03-1.570627658E+03+
*       6.0000000000E+03               0
GRID*                358               01.0510664470E+03-1.701545686E+03+
*       6.0000000000E+03               0
GRID*                359               08.5025454380E+02-1.810267163E+03+
*       6.0000000000E+03               0
GRID*                360               06.3836729807E+02-1.895385704E+03+
*       6.0000000000E+03               0
GRID*                361               04.1813504380E+02-1.955802303E+03+
*       6.0000000000E+03               0
GRID*                362               01.9247452292E+02-1.990716898E+03+
*       6.0000000000E+03               0
GRID*                363               0-3.568337651E+01-1.999681502E+03+
*       6.0000000000E+03               0
GRID*                364               0-2.634210537E+02-1.982576167E+03+
*       6.0000000000E+03               0
GRID*                365               0-4.876957585E+02-1.939626970E+03+
*       6.0000000000E+03               0
GRID*                366               0-7.056123502E+02-1.871392571E+03+
*       6.0000000000E+03               0
GRID*                367               0-9.143552155E+02-1.778750713E+03+
*       6.0000000000E+03               0
GRID*                368               0-1.534638211E+03-1.282530751E+03+
*       6.0000000000E+03               0
GRID*                369               0-1.670817857E+03-1.099257734E+03+
*       6.0000000000E+03               0
GRID*                370               0-1.952762010E+034.3211128822E+02+
*       6.0000000000E+03               0
GRID*                371               0-1.989292576E+032.0667664192E+02+
*       6.0000000000E+03               0
GRID*                372               0-1.999885339E+03-2.141199098E+01+
*       6.0000000000E+03               0
GRID*                373               0-1.984410139E+03-2.492299397E+02+
*       6.0000000000E+03               0
GRID*                374               0-1.785248420E+03-9.016025579E+02+
*       6.0000000000E+03               0
GRID*                375               0-1.876388278E+03-6.922189296E+02+
*       6.0000000000E+03               0
GRID*                376               0-1.943061357E+03-4.738264213E+02+
*       6.0000000000E+03               0
GRID*                377               0-1.890777837E+036.5188890663E+02+
*       6.0000000000E+03               0
GRID*                378               0-4.181543822E+021.9557982480E+03+
*       6.0000000000E+03               0
GRID*                379               0-6.383515609E+021.8953907986E+03+
*       6.0000000000E+03               0
GRID*                380               0-1.804146314E+038.6316525213E+02+
*       6.0000000000E+03               0
GRID*                381               0-1.561746249E+031.2493791720E+03+
*       6.0000000000E+03               0
GRID*                382               0-1.693975453E+031.0632242329E+03+
*       6.0000000000E+03               0
GRID*                383               0-8.502642297E+021.8102621359E+03+
*       6.0000000000E+03               0
GRID*                384               0-1.409154355E+031.4192548616E+03+
*       6.0000000000E+03               0
GRID*                385               0-1.238172634E+031.5706458110E+03+
*       6.0000000000E+03               0
GRID*                386               0-1.051072582E+031.7015422392E+03+
*       6.0000000000E+03               0
GRID*                387               0-1.204260564E+03-1.596795533E+03+
*       6.0000000000E+03               0
GRID*                388               0-1.378437665E+03-1.449106263E+03+
*       6.0000000000E+03               0
GRID*                389               0-1.014401255E+03-1.723655973E+03+
*       6.0000000000E+03               0
GRID*                390               0-8.113025191E+02-1.828055586E+03+
*       6.0000000000E+03               0
GRID*                391               0-1.498006100E+02-1.994381892E+03+
*       6.0000000000E+03               0
GRID*                392               03.0580590415E+02-1.976482288E+03+
*       6.0000000000E+03               0
GRID*                393               07.8523745528E+01-1.998457868E+03+
*       6.0000000000E+03               0
GRID*                394               0-5.976182171E+02-1.908625820E+03+
*       6.0000000000E+03               0
GRID*                395               0-3.761843383E+02-1.964302727E+03+
*       6.0000000000E+03               0
GRID*                396               05.2912297108E+02-1.928737406E+03+
*       6.0000000000E+03               0
GRID*                397               07.4553104410E+02-1.855851065E+03+
*       6.0000000000E+03               0
GRID*                398               01.8504694817E+03-7.587901864E+02+
*       6.0000000000E+03               0
GRID*                399               01.7519214841E+03-9.647647441E+02+
*       6.0000000000E+03               0
GRID*                400               01.6305345616E+03-1.158169024E+03+
*       6.0000000000E+03               0
GRID*                401               01.4878733705E+03-1.336500092E+03+
*       6.0000000000E+03               0
GRID*                402               01.1465009108E+03-1.638760218E+03+
*       6.0000000000E+03               0
GRID*                403               01.3258347624E+03-1.497385120E+03+
*       6.0000000000E+03               0
GRID*                404               09.5219913789E+02-1.758782760E+03+
*       6.0000000000E+03               0
GRID*                405               01.9742450587E+03-3.199315812E+02+
*       6.0000000000E+03               0
GRID*                406               01.9249084408E+03-5.428882262E+02+
*       6.0000000000E+03               0
GRID*                407               01.9978451652E+03-9.280574819E+01+
*       6.0000000000E+03               0
GRID*                408               01.9953997137E+031.3556836742E+02+
*       6.0000000000E+03               0
GRID*                409               01.8338009851E+037.9823181505E+02+
*       6.0000000000E+03               0
GRID*                410               01.6053582288E+031.1928212076E+03+
*       6.0000000000E+03               0
GRID*                411               01.7308637205E+031.0020530581E+03+
*       6.0000000000E+03               0
GRID*                412               01.9669430619E+033.6212543616E+02+
*       6.0000000000E+03               0
GRID*                413               01.9128448576E+035.8397326530E+02+
*       6.0000000000E+03               0
GRID*                414               0-1.924759905E+021.9907167601E+03+
*       6.0000000000E+03               0
GRID*                415               03.5722740753E+011.9996809154E+03+
*       6.0000000000E+03               0
GRID*                416               02.6341610551E+021.9825769447E+03+
*       6.0000000000E+03               0
GRID*                417               04.8769763419E+021.9396260814E+03+
*       6.0000000000E+03               0
GRID*                418               01.1111478987E+031.6629342673E+03+
*       6.0000000000E+03               0
GRID*                419               01.4589134390E+031.3680537795E+03+
*       6.0000000000E+03               0
GRID*                420               01.2934744066E+031.5254257518E+03+
*       6.0000000000E+03               0
GRID*                421               07.0562273531E+021.8713887034E+03+
*       6.0000000000E+03               0
GRID*                422               09.1432626849E+021.7787657437E+03+
*       6.0000000000E+03               0
GRID*                423               0-1.786180189E+034.4354590245E+02+
*       0.0000000000E+00               0
GRID*                424               0-1.838829861E+031.4904212994E+02+
*       0.0000000000E+00               0
GRID*                425               0-1.698318591E+037.2838723758E+02+
*       0.0000000000E+00               0
GRID*                426               0-1.233051696E+031.3675589326E+03+
*       0.0000000000E+00               0
GRID*                427               0-1.393783839E+031.2148994778E+03+
*       0.0000000000E+00               0
GRID*                428               0-1.561700406E+039.6861036277E+02+
*       0.0000000000E+00               0
GRID*                429               0-1.838829861E+03-1.490421299E+02+
*       0.0000000000E+00               0
GRID*                430               0-1.786180189E+03-4.435459025E+02+
*       0.0000000000E+00               0
GRID*                431               0-1.698318591E+03-7.283872376E+02+
*       0.0000000000E+00               0
GRID*                432               0-1.233051696E+03-1.367558933E+03+
*       0.0000000000E+00               0
GRID*                433               0-1.393783839E+03-1.214899478E+03+
*       0.0000000000E+00               0
GRID*                434               0-1.561700406E+03-9.686103628E+02+
*       0.0000000000E+00               0
GRID*                435               0-1.000000000E+03-1.553411743E+03+
*       2.1156508616E+02               0
GRID*                436               0-1.000000000E+03-1.553411743E+03+
*       4.9727937187E+02               0
GRID*                437               0-1.000000000E+03-1.553411743E+03+
*       7.6241633535E+02               0
GRID*                438               0-1.000000000E+03-1.553411743E+03+
*       1.0481306211E+03               0
GRID*                439               0-1.000000000E+03-1.553411743E+03+
*       3.5489343765E+03               0
GRID*                440               0-1.000000000E+03-1.553411743E+03+
*       3.3369898862E+03               0
GRID*                441               0-1.000000000E+03-1.553411743E+03+
*       3.8346486622E+03               0
GRID*                442               0-1.000000000E+03-1.553411743E+03+
*       1.3415726378E+03               0
GRID*                443               0-1.000000000E+03-1.553411743E+03+
*       1.6272869235E+03               0
GRID*                444               0-1.000000000E+03-1.553411743E+03+
*       1.9211822928E+03               0
GRID*                445               0-1.000000000E+03-1.553411743E+03+
*       2.2068965785E+03               0
GRID*                446               0-1.000000000E+03-1.553411743E+03+
*       3.0512756005E+03               0
GRID*                447               0-1.000000000E+03-1.553411743E+03+
*       2.7860344883E+03               0
GRID*                448               0-1.000000000E+03-1.553411743E+03+
*       2.5003202026E+03               0
GRID*                449               0-1.000000000E+031.5534117432E+03+
*       2.1128712566E+02               0
GRID*                450               0-1.000000000E+031.5534117432E+03+
*       4.9700141138E+02               0
GRID*                451               0-1.000000000E+031.5534117432E+03+
*       7.6177639879E+02               0
GRID*                452               0-1.000000000E+031.5534117432E+03+
*       1.0474906845E+03               0
GRID*                453               0-1.000000000E+031.5534117432E+03+
*       3.5484132854E+03               0
GRID*                454               0-1.000000000E+031.5534117432E+03+
*       3.3357748840E+03               0
GRID*                455               0-1.000000000E+031.5534117432E+03+
*       3.8341275711E+03               0
GRID*                456               0-1.000000000E+031.5534117432E+03+
*       1.3405835233E+03               0
GRID*                457               0-1.000000000E+031.5534117432E+03+
*       1.6262978090E+03               0
GRID*                458               0-1.000000000E+031.5534117432E+03+
*       1.9198682946E+03               0
GRID*                459               0-1.000000000E+031.5534117432E+03+
*       2.2055825803E+03               0
GRID*                460               0-1.000000000E+031.5534117432E+03+
*       3.0500605983E+03               0
GRID*                461               0-1.000000000E+031.5534117432E+03+
*       2.7844712888E+03               0
GRID*                462               0-1.000000000E+031.5534117432E+03+
*       2.4987570031E+03               0
GRID*                463               09.9107163624E+02-1.565998704E+03+
*       4.1333336188E+03               0
GRID*                464               08.6408177106E+02-1.633883642E+03+
*       4.5033522782E+03               0
GRID*                465               07.9292629478E+02-1.674486230E+03+
*       4.6093181937E+03               0
GRID*                466               09.2218367711E+02-1.601740720E+03+
*       4.3867523288E+03               0
GRID*                467               01.3352156006E+02-1.839630757E+03+
*       4.9910464258E+03               0
GRID*                468               03.8741363634E+02-1.807400502E+03+
*       4.9219060338E+03               0
GRID*                469               09.0044614700E-03-1.850000000E+03+
*       5.0000000000E+03               0
GRID*                470               05.0479893356E+02-1.779261099E+03+
*       4.8632374480E+03               0
GRID*                471               06.1112132045E+02-1.740458294E+03+
*       4.7915359956E+03               0
GRID*                472               0-9.911176109E+02-1.565937169E+03+
*       4.1329912709E+03               0
GRID*                473               0-8.642831452E+02-1.633751788E+03+
*       4.5030060734E+03               0
GRID*                474               0-7.930982905E+02-1.674388199E+03+
*       4.6090929934E+03               0
GRID*                475               0-9.223186591E+02-1.601698289E+03+
*       4.3864301861E+03               0
GRID*                476               0-1.335336217E+02-1.839634122E+03+
*       4.9910443573E+03               0
GRID*                477               0-3.874343744E+02-1.807403295E+03+
*       4.9218974624E+03               0
GRID*                478               0-5.048776853E+02-1.779235331E+03+
*       4.8631908754E+03               0
GRID*                479               0-6.113425702E+02-1.740376953E+03+
*       4.7913658462E+03               0
GRID*                480               01.1690804883E+03-1.050564089E+03+
*       6.6477375513E+03               0
GRID*                481               01.1563870878E+03-6.520733445E+02+
*       7.0618696346E+03               0
GRID*                482               01.0504833130E+03-2.348405226E+02+
*       7.3158012577E+03               0
GRID*                483               09.1487877916E+022.3318133966E+02+
*       7.4137259020E+03               0
GRID*                484               07.8134114670E+027.0084291341E+02+
*       7.3372821806E+03               0
GRID*                485               06.7871599552E+021.1287289503E+03+
*       7.0748543919E+03               0
GRID*                486               05.5365278934E+021.4821923313E+03+
*       6.6217464859E+03               0
GRID*                487               01.5409525874E+033.6742390378E+02+
*       6.6168150447E+03               0
GRID*                488               01.2001963940E+035.5119770098E+02+
*       7.0703778594E+03               0
GRID*                489               01.3449338066E+038.4721027382E+02+
*       6.6028122538E+03               0
GRID*                490               01.0320511976E+039.2045403280E+02+
*       6.9887542465E+03               0
GRID*                491               01.0120155508E+031.2254733284E+03+
*       6.6033529392E+03               0
GRID*                492               01.3235338664E+038.2469273578E+01+
*       7.0636978474E+03               0
GRID*                493               01.5838648325E+03-1.479725138E+02+
*       6.5995611662E+03               0
GRID*                494               01.3529423097E+03-3.190154239E+02+
*       6.9786602709E+03               0
GRID*                495               01.4587711255E+03-6.272968127E+02+
*       6.6070269952E+03               0
GRID*                496               0-3.082702456E+02-1.580906504E+03+
*       6.5437847510E+03               0
GRID*                497               02.9109046029E+01-1.376874829E+03+
*       6.9966785967E+03               0
GRID*                498               04.1926385862E+02-1.014322723E+03+
*       7.2982163378E+03               0
GRID*                499               07.5518221075E+02-6.051386097E+02+
*       7.3976787403E+03               0
GRID*                500               08.7342214890E+02-9.619808551E+02+
*       7.0962321887E+03               0
GRID*                501               06.5870411240E+02-1.381653232E+03+
*       6.7396881525E+03               0
GRID*                502               01.7747714203E+02-1.610593168E+03+
*       6.5142859943E+03               0
GRID*                503               0-1.351034185E+038.3702966011E+02+
*       6.6033927063E+03               0
GRID*                504               0-1.356185828E+033.4954423408E+02+
*       6.9636272177E+03               0
GRID*                505               0-1.246610434E+03-2.336602097E+02+
*       7.1319742816E+03               0
GRID*                506               0-9.576987994E+02-8.203818941E+02+
*       7.1400821694E+03               0
GRID*                507               0-5.880740337E+02-1.284010201E+03+
*       6.9462999571E+03               0
GRID*                508               0-1.429843405E+03-6.284598518E+02+
*       6.6712554449E+03               0
GRID*                509               0-1.109308610E+03-1.131306928E+03+
*       6.6160985426E+03               0
GRID*                510               0-7.665366243E+02-1.441555912E+03+
*       6.4736379616E+03               0
GRID*                511               0-1.583000174E+03-4.975184345E+01+
*       6.6177630252E+03               0
GRID*                512               0-1.569526702E+034.2772730312E+02+
*       6.4935936839E+03               0
GRID*                513               02.1441671985E+021.2946206102E+03+
*       7.0807314306E+03               0
GRID*                514               0-1.584834340E+021.0231661853E+03+
*       7.3483369996E+03               0
GRID*                515               0-5.864188854E+026.8186400502E+02+
*       7.4426267733E+03               0
GRID*                516               0-9.718010773E+022.3356330098E+02+
*       7.3751549810E+03               0
GRID*                517               0-1.021580130E+037.9173245150E+02+
*       7.1043241180E+03               0
GRID*                518               0-5.911111253E+021.1537403634E+03+
*       7.0997587342E+03               0
GRID*                519               0-1.995251843E+021.3566657605E+03+
*       7.0048126117E+03               0
GRID*                520               03.8268689883E+011.5856338360E+03+
*       6.6117963473E+03               0
GRID*                521               0-4.749196210E+021.5085506776E+03+
*       6.6234744343E+03               0
GRID*                522               0-9.612001405E+021.2437014622E+03+
*       6.6475337390E+03               0
GRID*                523               0-5.172246810E+021.0410170572E+02+
*       7.6160571902E+03               0
GRID*                524               0-1.809261657E+01-8.954299055E+01+
*       7.6975430822E+03               0
GRID*                525               05.6689734643E+02-1.396088396E+02+
*       7.5966009501E+03               0
GRID*                526               02.2616828336E+02-5.570045677E+02+
*       7.5901545942E+03               0
GRID*                527               0-2.810224267E+02-9.096804444E+02+
*       7.4083698728E+03               0
GRID*                528               0-2.949356279E+02-4.087119202E+02+
*       7.6235660113E+03               0
GRID*                529               0-7.657587274E+02-3.694682997E+02+
*       7.4721095750E+03               0
GRID*                530               03.9196435834E+023.4744080051E+02+
*       7.6172965860E+03               0
GRID*                531               0-1.024865336E+025.1727302025E+02+
*       7.6161449593E+03               0
GRID*                532               03.1621632426E+028.6609190036E+02+
*       7.4282469105E+03               0
GRID*                533               07.3462025917E+021.5019828520E+03+
*       6.3072047142E+03               0
GRID*                534               04.3829957636E+021.6130528082E+03+
*       6.3097574150E+03               0
GRID*                535               01.5861194758E+035.2706511886E+02+
*       6.3105262480E+03               0
GRID*                536               01.6576743177E+032.1899826850E+02+
*       6.3068411873E+03               0
GRID*                537               08.6280416616E+021.1934697759E+03+
*       6.8492340540E+03               0
GRID*                538               01.0283164457E+031.0888069161E+03+
*       6.8044006569E+03               0
GRID*                539               08.5929733287E+021.0270005019E+03+
*       7.0473184825E+03               0
GRID*                540               07.8720001826E+021.3646461453E+03+
*       6.6387914662E+03               0
GRID*                541               09.4076798370E+021.3834904266E+03+
*       6.3015071586E+03               0
GRID*                542               06.1729870107E+021.3297740999E+03+
*       6.8606055336E+03               0
GRID*                543               01.3359305728E+031.0074729648E+03+
*       6.3004760296E+03               0
GRID*                544               01.5002894557E+037.4078428895E+02+
*       6.3006074212E+03               0
GRID*                545               01.1876082510E+031.1786071533E+03+
*       6.3007761056E+03               0
GRID*                546               01.1860046408E+031.0436968270E+03+
*       6.6277627279E+03               0
GRID*                547               01.2040775558E+038.8963970916E+02+
*       6.8054422422E+03               0
GRID*                548               09.1755764314E+028.2108882899E+02+
*       7.1721347976E+03               0
GRID*                549               01.1184945798E+037.3960328610E+02+
*       7.0449657952E+03               0
GRID*                550               01.0024700544E+036.2863131447E+02+
*       7.2206037996E+03               0
GRID*                551               07.3246554473E+029.2588778730E+02+
*       7.2232017980E+03               0
GRID*                552               01.4519297295E+036.1329744666E+02+
*       6.6369948864E+03               0
GRID*                553               01.2878538413E+037.1754330675E+02+
*       6.8465006855E+03               0
GRID*                554               01.3940725243E+034.6108969290E+02+
*       6.8567134869E+03               0
GRID*                555               01.0701512072E+034.0338891878E+02+
*       7.2577969444E+03               0
GRID*                556               08.4502625000E+024.6830829480E+02+
*       7.3987912112E+03               0
GRID*                557               01.1367709619E+031.6018427878E+02+
*       7.2538309389E+03               0
GRID*                558               01.1950840881E+03-6.997892946E+01+
*       7.2070100624E+03               0
GRID*                559               09.8448388245E+02-1.534857707E+00+
*       7.3859254787E+03               0
GRID*                560               01.2659081930E+033.1844164820E+02+
*       7.0890677507E+03               0
GRID*                561               01.4510370174E+032.3907673523E+02+
*       6.8528380301E+03               0
GRID*                562               01.3202618910E+03-1.021133238E+03+
*       6.3227900613E+03               0
GRID*                563               01.1014324575E+03-1.252809394E+03+
*       6.3275887779E+03               0
GRID*                564               01.5737331734E+031.1089725247E+02+
*       6.6332933695E+03               0
GRID*                565               01.4767805901E+03-3.672541885E+01+
*       6.8412903656E+03               0
GRID*                566               01.6729907817E+03-1.241810829E+01+
*       6.3015724379E+03               0
GRID*                567               01.2151228702E+03-2.776124272E+02+
*       7.1560311531E+03               0
GRID*                568               01.2594649331E+03-4.846982364E+02+
*       7.0338341885E+03               0
GRID*                569               01.1133385279E+03-4.511306051E+02+
*       7.2028943385E+03               0
GRID*                570               01.3425410980E+03-1.194827075E+02+
*       7.0360049233E+03               0
GRID*                571               01.4838540955E+03-2.293832699E+02+
*       6.7972170178E+03               0
GRID*                572               01.3292123608E+03-6.399221055E+02+
*       6.8448038433E+03               0
GRID*                573               01.4193941163E+03-4.821667865E+02+
*       6.8017692140E+03               0
GRID*                574               01.3249962859E+03-8.425671590E+02+
*       6.6515073507E+03               0
GRID*                575               01.4508737584E+03-8.317218759E+02+
*       6.3052893416E+03               0
GRID*                576               01.1762593387E+03-8.676922819E+02+
*       6.8680574271E+03               0
GRID*                577               01.6407664706E+03-3.293146667E+02+
*       6.2990554585E+03               0
GRID*                578               01.5817607874E+03-5.448889461E+02+
*       6.3018722073E+03               0
GRID*                579               01.5319291425E+03-3.896898321E+02+
*       6.6255632356E+03               0
GRID*                580               09.7111282307E+02-6.284075207E+02+
*       7.2458099578E+03               0
GRID*                581               09.0586605957E+02-4.163822812E+02+
*       7.3769651734E+03               0
GRID*                582               08.2432152430E+02-7.917801597E+02+
*       7.2584029318E+03               0
GRID*                583               06.5684129858E+02-9.897880386E+02+
*       7.2160905948E+03               0
GRID*                584               05.9101693177E+02-8.176831027E+02+
*       7.3682446992E+03               0
GRID*                585               01.0194781588E+03-8.084129053E+02+
*       7.0941345260E+03               0
GRID*                586               01.0405009389E+03-1.013737121E+03+
*       6.8830018291E+03               0
GRID*                587               0-1.689330920E+02-1.668964061E+03+
*       6.2757068436E+03               0
GRID*                588               0-4.769408374E+02-1.609016904E+03+
*       6.2712646714E+03               0
GRID*                589               09.2850450735E+02-1.224569921E+03+
*       6.7268457253E+03               0
GRID*                590               08.7775600871E+02-1.406101243E+03+
*       6.3773859423E+03               0
GRID*                591               05.6158624406E+02-1.221491629E+03+
*       7.0404695641E+03               0
GRID*                592               03.6132224728E+02-1.393568978E+03+
*       6.9041058736E+03               0
GRID*                593               02.2080287982E+02-1.215025863E+03+
*       7.1683140980E+03               0
GRID*                594               07.7036957055E+02-1.192653463E+03+
*       6.9349350842E+03               0
GRID*                595               05.8772611846E+02-1.551817465E+03+
*       6.3693753964E+03               0
GRID*                596               05.2432884542E+01-1.679844205E+03+
*       6.2556699379E+03               0
GRID*                597               03.6189573016E+02-1.640057015E+03+
*       6.2631314355E+03               0
GRID*                598               04.1498771491E+02-1.514839362E+03+
*       6.6504185218E+03               0
GRID*                599               0-6.458082721E+01-1.607227828E+03+
*       6.5501335254E+03               0
GRID*                600               01.1312167693E+02-1.512974204E+03+
*       6.7668838709E+03               0
GRID*                601               0-1.512242759E+02-1.501028556E+03+
*       6.7836067633E+03               0
GRID*                602               0-1.465581597E+03-7.901277656E+02+
*       6.3431729409E+03               0
GRID*                603               0-1.590174348E+03-4.929204303E+02+
*       6.3440539369E+03               0
GRID*                604               0-1.280775930E+03-8.929934162E+02+
*       6.6724393039E+03               0
GRID*                605               0-1.225251039E+03-7.266350449E+02+
*       6.9277695250E+03               0
GRID*                606               0-1.046109259E+03-9.991034013E+02+
*       6.8929972400E+03               0
GRID*                607               0-1.325881636E+03-1.015136984E+03+
*       6.3186387371E+03               0
GRID*                608               0-1.110102267E+03-1.249857796E+03+
*       6.3090672876E+03               0
GRID*                609               0-8.718136494E+02-1.218611233E+03+
*       6.8030709371E+03               0
GRID*                610               0-7.730981170E+02-1.070602378E+03+
*       7.0705728117E+03               0
GRID*                611               0-9.524975018E+02-1.387343490E+03+
*       6.2408736576E+03               0
GRID*                612               0-6.816490442E+02-1.538954192E+03+
*       6.2386809740E+03               0
GRID*                613               0-9.392700662E+02-1.300120912E+03+
*       6.5634301011E+03               0
GRID*                614               0-5.419173151E+02-1.521867125E+03+
*       6.5293830183E+03               0
GRID*                615               0-6.857858865E+02-1.379875807E+03+
*       6.7180806463E+03               0
GRID*                616               0-4.405463963E+02-1.453903318E+03+
*       6.7629405332E+03               0
GRID*                617               0-1.475715428E+037.8750051344E+02+
*       6.3034877671E+03               0
GRID*                618               0-1.298427705E+031.0524462202E+03+
*       6.3105484066E+03               0
GRID*                619               0-1.355307953E+03-4.517481297E+02+
*       6.9214438866E+03               0
GRID*                620               0-1.116441361E+03-5.349934349E+02+
*       7.1650490486E+03               0
GRID*                621               0-1.523014974E+03-3.424650814E+02+
*       6.6731576001E+03               0
GRID*                622               0-1.441548040E+03-1.369531713E+02+
*       6.8906060571E+03               0
GRID*                623               0-1.653017968E+03-2.343249109E+02+
*       6.3203460338E+03               0
GRID*                624               0-1.668602804E+038.6732186566E+01+
*       6.3134349479E+03               0
GRID*                625               0-1.488533343E+031.3717010450E+02+
*       6.8095978512E+03               0
GRID*                626               0-1.316777313E+036.4832894482E+01+
*       7.0732628924E+03               0
GRID*                627               0-1.654027364E+033.0357308047E+02+
*       6.2490628001E+03               0
GRID*                628               0-1.588460795E+031.9539384878E+02+
*       6.5732442247E+03               0
GRID*                629               0-1.570168112E+036.0116793601E+02+
*       6.2513305267E+03               0
GRID*                630               0-1.472928699E+036.3241005824E+02+
*       6.5661577645E+03               0
GRID*                631               0-1.481165139E+033.9313620532E+02+
*       6.7359298190E+03               0
GRID*                632               0-1.367001322E+036.1309379563E+02+
*       6.8033794096E+03               0
GRID*                633               0-5.909588150E+029.3585771750E+02+
*       7.2903244266E+03               0
GRID*                634               0-3.845971384E+021.0981165456E+03+
*       7.2394451211E+03               0
GRID*                635               0-3.721975947E+028.6078496605E+02+
*       7.4179265216E+03               0
GRID*                636               0-8.197082588E+027.4406435963E+02+
*       7.2901335069E+03               0
GRID*                637               0-7.933882075E+024.6020986011E+02+
*       7.4313417419E+03               0
GRID*                638               0-1.006652344E+035.2917622277E+02+
*       7.2635756709E+03               0
GRID*                639               0-8.145948641E+029.7967980278E+02+
*       7.1254610660E+03               0
GRID*                640               0-1.181741534E+032.9605291611E+02+
*       7.1856802281E+03               0
GRID*                641               0-1.124182892E+03-1.284987132E+01+
*       7.2751653883E+03               0
GRID*                642               0-1.204184496E+035.6847811797E+02+
*       7.0567727936E+03               0
GRID*                643               0-1.209806921E+038.2117217539E+02+
*       6.8672039054E+03               0
GRID*                644               0-1.797895518E+021.2040270038E+03+
*       7.1865888680E+03               0
GRID*                645               05.8057631662E+001.3315066500E+03+
*       7.0569073246E+03               0
GRID*                646               03.4888946834E+011.1699499565E+03+
*       7.2328816297E+03               0
GRID*                647               0-3.943145242E+021.2625382093E+03+
*       7.0679463348E+03               0
GRID*                648               01.2055399202E+021.4631357419E+03+
*       6.8571466815E+03               0
GRID*                649               0-7.430072858E+011.4880771000E+03+
*       6.8185984210E+03               0
GRID*                650               02.9491679286E+021.5460121168E+03+
*       6.6425493825E+03               0
GRID*                651               02.0531828543E+021.6598638797E+03+
*       6.3044508890E+03               0
GRID*                652               03.9730245671E+021.4085529287E+03+
*       6.8649443743E+03               0
GRID*                653               0-1.099390254E+021.6688267869E+03+
*       6.3048357937E+03               0
GRID*                654               0-6.461009868E+021.5409345294E+03+
*       6.3131593788E+03               0
GRID*                655               0-3.433557400E+021.6354175508E+03+
*       6.3122692941E+03               0
GRID*                656               0-8.662376623E+021.4253887483E+03+
*       6.3284780009E+03               0
GRID*                657               0-1.121882923E+031.2351940776E+03+
*       6.3250706247E+03               0
GRID*                658               0-7.247957968E+021.3882541232E+03+
*       6.6613765021E+03               0
GRID*                659               0-1.169666168E+031.0475066689E+03+
*       6.6516188453E+03               0
GRID*                660               0-9.991643906E+021.0440016784E+03+
*       6.8953934480E+03               0
GRID*                661               0-7.964384134E+021.2117156531E+03+
*       6.8873718172E+03               0
GRID*                662               0-2.219747146E+021.5583922415E+03+
*       6.6419807347E+03               0
GRID*                663               0-3.479758263E+021.4457715929E+03+
*       6.8238062342E+03               0
GRID*                664               0-5.340872381E+021.3559905194E+03+
*       6.8752363862E+03               0
GRID*                665               05.0294339566E+02-5.771885288E+02+
*       7.5178602074E+03               0
GRID*                666               03.3662829623E+02-7.943705327E+02+
*       7.4648060294E+03               0
GRID*                667               06.7193702243E+02-3.769052641E+02+
*       7.5154012247E+03               0
GRID*                668               08.2465346916E+02-1.828976346E+02+
*       7.4752948984E+03               0
GRID*                669               03.9878869901E+02-3.489372577E+02+
*       7.6153048454E+03               0
GRID*                670               01.1558054493E+02-3.344793730E+02+
*       7.6627583080E+03               0
GRID*                671               02.8064846406E+02-1.150856781E+02+
*       7.6727195533E+03               0
GRID*                672               0-4.430359153E+02-1.120169789E+03+
*       7.1995563967E+03               0
GRID*                673               0-6.429100420E+02-8.786604309E+02+
*       7.3056108332E+03               0
GRID*                674               0-2.831234385E+02-1.345248818E+03+
*       7.0000735485E+03               0
GRID*                675               0-1.100410848E+02-1.165843769E+03+
*       7.2323541501E+03               0
GRID*                676               07.9098232842E+01-9.763099975E+02+
*       7.3894468013E+03               0
GRID*                677               0-1.626219856E+02-2.609723661E+02+
*       7.6719589472E+03               0
GRID*                678               0-4.298252443E+02-1.658183509E+02+
*       7.6363840271E+03               0
GRID*                679               0-2.925271514E+02-7.266955231E-01+
*       7.6746420275E+03               0
GRID*                680               0-3.186357393E+01-4.998205808E+02+
*       7.6245500968E+03               0
GRID*                681               0-8.872686000E+02-6.461524241E+01+
*       7.4486468684E+03               0
GRID*                682               0-1.025045751E+03-2.994981101E+02+
*       7.3227168102E+03               0
GRID*                683               0-6.539890044E+02-1.458278055E+02+
*       7.5623803061E+03               0
GRID*                684               0-5.428537303E+02-3.912835937E+02+
*       7.5627560824E+03               0
GRID*                685               0-7.536273448E+021.7543578272E+02+
*       7.5136926842E+03               0
GRID*                686               0-3.269317935E+01-7.528799305E+02+
*       7.5238441912E+03               0
GRID*                687               0-8.679623878E+02-6.129251151E+02+
*       7.3270121352E+03               0
GRID*                688               0-2.811336599E+02-6.722672390E+02+
*       7.5359099171E+03               0
GRID*                689               0-5.309403990E+02-6.622778728E+02+
*       7.4729189643E+03               0
GRID*                690               05.0862266745E+021.0116545526E+03+
*       7.2680132360E+03               0
GRID*                691               05.4955060273E+027.8242007374E+02+
*       7.4056358441E+03               0
GRID*                692               02.6680283909E+021.0988287341E+03+
*       7.2694057907E+03               0
GRID*                693               07.7007364215E+019.4881490414E+02+
*       7.4084811612E+03               0
GRID*                694               04.4834169068E+021.2172049060E+03+
*       7.0988171709E+03               0
GRID*                695               05.9976503464E+025.3718402722E+02+
*       7.4972353427E+03               0
GRID*                696               03.5567655457E+026.1266080370E+02+
*       7.5453610733E+03               0
GRID*                697               06.6051944775E+022.9427432502E+02+
*       7.5385434805E+03               0
GRID*                698               0-1.272491975E+027.8670489771E+02+
*       7.5016327803E+03               0
GRID*                699               0-3.512364209E+026.1090362973E+02+
*       7.5470713049E+03               0
GRID*                700               01.1369117441E+026.9641998866E+02+
*       7.5466329090E+03               0
GRID*                701               01.3557855648E+024.1472301570E+02+
*       7.6430524275E+03               0
GRID*                702               0-5.567741185E+024.1110378817E+02+
*       7.5527383572E+03               0
GRID*                703               0-3.240574986E+023.1930910949E+02+
*       7.6379946332E+03               0
GRID*                704               0-9.456101468E+012.1543080342E+02+
*       7.6836406702E+03               0
GRID*                705               07.4042818369E+025.4238595053E+01+
*       7.5293209112E+03               0
GRID*                706               04.5946802976E+029.9189465680E+01+
*       7.6337223994E+03               0
GRID*                707               01.6686213257E+021.2949984147E+02+
*       7.6868270557E+03               0
GRID*                708               0-1.504173597E+03-1.286077256E+03+
*       6.2888982448E+03               0
GRID*                709               0-1.523024302E+03-1.141270384E+03+
*       6.6147315021E+03               0
GRID*                710               0-1.540749253E+03-8.858835941E+02+
*       6.9172236525E+03               0
GRID*                711               0-1.536454489E+03-5.379447509E+02+
*       7.1618596960E+03               0
GRID*                712               0-1.489955209E+03-1.121069217E+02+
*       7.3294593772E+03               0
GRID*                713               0-1.389872087E+033.7558303819E+02+
*       7.3882332309E+03               0
GRID*                714               0-1.221740776E+038.7675221842E+02+
*       7.3185793716E+03               0
GRID*                715               0-9.911517451E+021.3106789508E+03+
*       7.1400593971E+03               0
GRID*                716               0-7.528676264E+021.6327592031E+03+
*       6.8759464012E+03               0
GRID*                717               0-5.751524645E+021.8310489296E+03+
*       6.5625464664E+03               0
GRID*                718               0-4.336896346E+021.9334404398E+03+
*       6.2715073929E+03               0
GRID*                719               0-1.752500205E+03-2.062317953E+02+
*       6.9413877567E+03               0
GRID*                720               0-1.907629457E+031.0732458149E+02+
*       6.5911255995E+03               0
GRID*                721               0-1.937191282E+033.9431878007E+02+
*       6.3029862132E+03               0
GRID*                722               0-1.659893659E+03-1.078144034E+03+
*       6.2869755012E+03               0
GRID*                723               0-1.749071925E+03-5.900125130E+02+
*       6.7698259848E+03               0
GRID*                724               0-1.706916553E+03-8.874331914E+02+
*       6.5467147653E+03               0
GRID*                725               0-1.980722384E+03-6.288841102E+01+
*       6.2697731398E+03               0
GRID*                726               0-1.901591825E+03-2.953522405E+02+
*       6.5447120582E+03               0
GRID*                727               0-1.978669699E+031.7754213740E+02+
*       6.2309633449E+03               0
GRID*                728               0-1.959478074E+03-3.442417681E+02+
*       6.2047985302E+03               0
GRID*                729               0-1.864592106E+03-6.367967486E+02+
*       6.3431922984E+03               0
GRID*                730               0-1.773983711E+03-8.919437263E+02+
*       6.2396126578E+03               0
GRID*                731               0-1.606310246E+037.1637375099E+02+
*       6.9521423139E+03               0
GRID*                732               0-1.830451330E+034.8937345130E+02+
*       6.6402782544E+03               0
GRID*                733               0-1.706573848E+032.3270073587E+02+
*       7.0165875533E+03               0
GRID*                734               0-1.395165821E+031.1784823599E+03+
*       6.8152849623E+03               0
GRID*                735               0-1.640289949E+039.7532850965E+02+
*       6.5984820868E+03               0
GRID*                736               0-1.740557649E+039.4580142801E+02+
*       6.2755293457E+03               0
GRID*                737               0-1.759662124E+037.6804896605E+02+
*       6.5600791939E+03               0
GRID*                738               0-1.862452335E+036.6306363441E+02+
*       6.3026719808E+03               0
GRID*                739               0-6.847297393E+021.8608798508E+03+
*       6.2612753302E+03               0
GRID*                740               0-8.778729950E+021.7268127342E+03+
*       6.4974455706E+03               0
GRID*                741               0-1.109590716E+031.5131582482E+03+
*       6.6922096267E+03               0
GRID*                742               0-1.361896865E+031.4181606425E+03+
*       6.3661365849E+03               0
GRID*                743               0-1.566275566E+031.1947846701E+03+
*       6.3453480074E+03               0
GRID*                744               0-9.303189239E+021.7603406083E+03+
*       6.1889645195E+03               0
GRID*                745               0-1.140326506E+031.6151530344E+03+
*       6.3015466509E+03               0
GRID*                746               01.8349905194E+03-7.485791768E+02+
*       6.2691413632E+03               0
GRID*                747               01.6825779203E+03-9.163149497E+02+
*       6.5738452798E+03               0
GRID*                748               01.4221003109E+03-1.043611759E+03+
*       6.9426049001E+03               0
GRID*                749               01.0704854991E+03-1.182861089E+03+
*       7.2061902617E+03               0
GRID*                750               06.0392055057E+02-1.317970576E+03+
*       7.3777630879E+03               0
GRID*                751               01.9321540799E+01-1.432767275E+03+
*       7.3952792788E+03               0
GRID*                752               0-5.591970192E+02-1.529033096E+03+
*       7.1616159209E+03               0
GRID*                753               0-1.000303808E+03-1.468186880E+03+
*       6.9185960740E+03               0
GRID*                754               0-1.287407523E+03-1.420686527E+03+
*       6.5694115307E+03               0
GRID*                755               02.0208489924E+02-1.970486410E+03+
*       6.2763027185E+03               0
GRID*                756               07.2341164696E+01-1.896225730E+03+
*       6.6317354704E+03               0
GRID*                757               0-1.364536387E+02-1.753114496E+03+
*       6.9528741572E+03               0
GRID*                758               0-9.602426672E+02-1.739552981E+03+
*       6.2277884099E+03               0
GRID*                759               0-7.400223603E+02-1.801540445E+03+
*       6.4547716328E+03               0
GRID*                760               0-4.861669904E+02-1.797465440E+03+
*       6.7299016231E+03               0
GRID*                761               0-1.002285455E+03-1.640549759E+03+
*       6.5513771199E+03               0
GRID*                762               0-7.699923153E+02-1.675045074E+03+
*       6.7754577823E+03               0
GRID*                763               0-1.184974965E+03-1.589124191E+03+
*       6.2655399432E+03               0
GRID*                764               0-1.359930721E+03-1.449372087E+03+
*       6.2233968856E+03               0
GRID*                765               0-1.210183597E+02-1.971378426E+03+
*       6.3146665033E+03               0
GRID*                766               0-4.422011082E+02-1.924342648E+03+
*       6.3183671931E+03               0
GRID*                767               0-2.232370030E+02-1.893083373E+03+
*       6.6053086515E+03               0
GRID*                768               03.5925996704E+02-1.708306728E+03+
*       6.9760221032E+03               0
GRID*                769               05.1158607639E+02-1.910773552E+03+
*       6.2953255025E+03               0
GRID*                770               06.5169428322E+02-1.788601917E+03+
*       6.6133464556E+03               0
GRID*                771               08.3656187444E+02-1.546959330E+03+
*       6.9524078643E+03               0
GRID*                772               03.6693680435E+02-1.881828394E+03+
*       6.5692793397E+03               0
GRID*                773               07.6813019703E+02-1.825736526E+03+
*       6.2768754726E+03               0
GRID*                774               09.8002737086E+02-1.666802171E+03+
*       6.5111853202E+03               0
GRID*                775               01.1959771950E+03-1.395112440E+03+
*       6.7894928514E+03               0
GRID*                776               01.4571676124E+03-1.253715092E+03+
*       6.5521401650E+03               0
GRID*                777               01.6110199048E+03-1.155314983E+03+
*       6.2643026300E+03               0
GRID*                778               01.7398711336E+03-9.613498747E+02+
*       6.2205749618E+03               0
GRID*                779               01.4371246758E+03-1.373712867E+03+
*       6.2181372619E+03               0
GRID*                780               01.2526005238E+03-1.507603837E+03+
*       6.3976459101E+03               0
GRID*                781               01.0999846922E+03-1.655747942E+03+
*       6.2202996222E+03               0
GRID*                782               09.5507433995E+02-1.745810330E+03+
*       6.1999477366E+03               0
GRID*                783               01.6244646488E+03-6.286950871E+02+
*       6.9827788760E+03               0
GRID*                784               01.4863393048E+03-2.807696444E+02+
*       7.3084198233E+03               0
GRID*                785               01.2586890258E+031.0823005270E+02+
*       7.5504801154E+03               0
GRID*                786               09.4319568766E+024.9586075503E+02+
*       7.6924839858E+03               0
GRID*                787               05.8721193683E+028.6966735200E+02+
*       7.7026034925E+03               0
GRID*                788               02.4649937091E+021.2211247843E+03+
*       7.5646380018E+03               0
GRID*                789               0-5.538063981E+011.5323038534E+03+
*       7.2841249191E+03               0
GRID*                790               0-3.201645374E+021.7667009264E+03+
*       6.8810558322E+03               0
GRID*                791               0-1.228591899E+03-4.869708685E+02+
*       7.5011393941E+03               0
GRID*                792               0-8.081942953E+02-4.705253570E+02+
*       7.7678881602E+03               0
GRID*                793               0-2.275017374E+02-4.447644202E+02+
*       7.9366017687E+03               0
GRID*                794               03.8476253532E+02-2.402708065E+02+
*       7.9478775450E+03               0
GRID*                795               08.4732613003E+02-1.801834125E+01+
*       7.8115496813E+03               0
GRID*                796               0-9.574237606E+025.0075507574E+02+
*       7.6830277978E+03               0
GRID*                797               0-4.442278821E+026.1527498684E+02+
*       7.8504321030E+03               0
GRID*                798               08.2939294659E+017.4591528392E+02+
*       7.8538425168E+03               0
GRID*                799               0-7.598431169E+021.0077973462E+03+
*       7.5514454194E+03               0
GRID*                800               0-2.557423197E+021.1248796089E+03+
*       7.6337806093E+03               0
GRID*                801               0-5.404967761E+021.4360322978E+03+
*       7.2828381206E+03               0
GRID*                802               0-1.117832412E+03-2.545739088E+01+
*       7.6582525780E+03               0
GRID*                803               0-6.265138707E+025.6231636275E+01+
*       7.8985041200E+03               0
GRID*                804               0-4.944942661E+011.5818705782E+02+
*       7.9931206474E+03               0
GRID*                805               04.7849035909E+023.6142241002E+02+
*       7.9079887748E+03               0
GRID*                806               0-4.768712899E+02-1.021650058E+03+
*       7.6519150585E+03               0
GRID*                807               0-9.788643474E+02-8.210763131E+02+
*       7.5387197144E+03               0
GRID*                808               0-9.585311559E+02-1.181629594E+03+
*       7.2980635120E+03               0
GRID*                809               0-1.289066158E+03-1.186781028E+03+
*       6.9642910104E+03               0
GRID*                810               0-1.278446109E+03-8.700603726E+02+
*       7.2682943212E+03               0
GRID*                811               08.8923943772E+02-8.580526226E+02+
*       7.5725767443E+03               0
GRID*                812               07.3775186866E+02-4.843369025E+02+
*       7.7947532068E+03               0
GRID*                813               02.9736073109E+02-8.827108923E+02+
*       7.7698584036E+03               0
GRID*                814               01.1180428439E+03-3.853719104E+02+
*       7.6129057360E+03               0
GRID*                815               01.3042437894E+03-7.448876017E+02+
*       7.3206389667E+03               0
GRID*                816               01.6314763141E+031.1120741535E+03+
*       6.3187061465E+03               0
GRID*                817               01.6327530773E+039.1602981250E+02+
*       6.7035644600E+03               0
GRID*                818               01.6274928768E+036.3302867177E+02+
*       6.9749559606E+03               0
GRID*                819               01.6312531832E+031.9901487308E+02+
*       7.1399138180E+03               0
GRID*                820               01.8504428218E+03-5.028773406E+02+
*       6.5683080138E+03               0
GRID*                821               01.7624669851E+03-2.101870516E+02+
*       6.9216996079E+03               0
GRID*                822               01.9864278684E+03-3.752312195E+01+
*       6.2295508092E+03               0
GRID*                823               01.9382016865E+031.8072434135E+02+
*       6.4590327780E+03               0
GRID*                824               01.8180020654E+033.8696301835E+02+
*       6.7383271016E+03               0
GRID*                825               01.9174611544E+03-1.287304690E+02+
*       6.5538664826E+03               0
GRID*                826               01.8411685416E+038.9473420133E+01+
*       6.7759455966E+03               0
GRID*                827               01.9574734865E+03-3.116859709E+02+
*       6.2667258418E+03               0
GRID*                828               01.9139505074E+03-5.381287921E+02+
*       6.2172773645E+03               0
GRID*                829               01.7993745458E+038.0404391486E+02+
*       6.3402350545E+03               0
GRID*                830               01.9087744136E+034.9944456535E+02+
*       6.3273054608E+03               0
GRID*                831               01.7793295780E+036.5786258846E+02+
*       6.6334017181E+03               0
GRID*                832               01.4015744929E+031.2270921803E+03+
*       6.7278944873E+03               0
GRID*                833               01.0973663063E+031.2733814818E+03+
*       7.0836439327E+03               0
GRID*                834               07.0993664060E+021.2715174239E+03+
*       7.3708507451E+03               0
GRID*                835               01.3429348677E+035.7691047909E+02+
*       7.3651734667E+03               0
GRID*                836               01.0314910579E+039.3611313005E+02+
*       7.4351716216E+03               0
GRID*                837               01.3831441468E+039.5168285004E+02+
*       7.0868347223E+03               0
GRID*                838               04.1242561911E+021.5663234219E+03+
*       7.1732564598E+03               0
GRID*                839               01.5353505195E+021.8114086574E+03+
*       6.8338003000E+03               0
GRID*                840               0-8.210174133E+011.9231862021E+03+
*       6.5427795877E+03               0
GRID*                841               0-1.960637879E+021.9721506077E+03+
*       6.2686623564E+03               0
GRID*                842               0-3.234436809E+021.9076279241E+03+
*       6.5062943712E+03               0
GRID*                843               03.9649821236E+011.9826662989E+03+
*       6.2597263376E+03               0
GRID*                844               01.3653860477E+031.4276623554E+03+
*       6.3122438880E+03               0
GRID*                845               01.1269279068E+031.5033510008E+03+
*       6.6855384604E+03               0
GRID*                846               08.0982357200E+021.5498631008E+03+
*       6.9706230202E+03               0
GRID*                847               05.5992486141E+021.7671345636E+03+
*       6.7508125524E+03               0
GRID*                848               03.8188174197E+021.9027483680E+03+
*       6.4834386280E+03               0
GRID*                849               02.6735330564E+021.9674268716E+03+
*       6.2403097479E+03               0
GRID*                850               01.5272871271E+021.9374712503E+03+
*       6.4720960132E+03               0
GRID*                851               04.6121609212E+021.9347096929E+03+
*       6.2101810717E+03               0
GRID*                852               01.0927238629E+031.6457335914E+03+
*       6.3122718631E+03               0
GRID*                853               08.7184281328E+021.7089498811E+03+
*       6.5651364165E+03               0
GRID*                854               06.6731398051E+021.8562415998E+03+
*       6.3302309482E+03               0
GRID*                855               09.0383581901E+021.7675187314E+03+
*       6.2428078487E+03               0
GRID*                856               0-1.561434242E+03-1.241399950E+03+
*       6.1443866756E+03               0
GRID*                857               0-1.485856755E+03-1.331135260E+03+
*       6.1424914746E+03               0
GRID*                858               0-1.586036609E+03-1.182728951E+03+
*       6.2926309800E+03               0
GRID*                859               0-1.516927485E+03-1.221599511E+03+
*       6.4545580009E+03               0
GRID*                860               0-1.599391455E+03-1.112209650E+03+
*       6.4526954350E+03               0
GRID*                861               0-1.636842090E+03-1.140443059E+03+
*       6.1418988213E+03               0
GRID*                862               0-1.702540271E+03-1.039822664E+03+
*       6.1418427523E+03               0
GRID*                863               0-1.619284829E+03-1.016191043E+03+
*       6.5875978286E+03               0
GRID*                864               0-1.686594283E+03-9.898116711E+02+
*       6.4191292095E+03               0
GRID*                865               0-1.534661354E+03-1.023325023E+03+
*       6.7730593313E+03               0
GRID*                866               0-1.633302202E+03-8.900928612E+02+
*       6.7348862753E+03               0
GRID*                867               0-1.653880901E+03-5.680805430E+02+
*       6.9705461817E+03               0
GRID*                868               0-1.653638553E+03-3.687698296E+02+
*       7.0627719832E+03               0
GRID*                869               0-1.756682738E+03-4.033150447E+02+
*       6.8668318668E+03               0
GRID*                870               0-1.651868975E+03-7.371611878E+02+
*       6.8531806315E+03               0
GRID*                871               0-1.732218881E+03-7.457355474E+02+
*       6.6658025381E+03               0
GRID*                872               0-1.543365053E+03-7.197405399E+02+
*       7.0488049525E+03               0
GRID*                873               0-1.838116634E+03-2.548672772E+02+
*       6.7459006382E+03               0
GRID*                874               0-1.834396542E+03-4.388458878E+02+
*       6.6651293386E+03               0
GRID*                875               0-1.843066939E+03-4.301981030E+01+
*       6.7754050542E+03               0
GRID*                876               0-1.911397396E+03-9.731852210E+01+
*       6.5805924062E+03               0
GRID*                877               0-1.961809879E+033.5882982365E+02+
*       6.1501350602E+03               0
GRID*                878               0-1.936492625E+034.7720290866E+02+
*       6.1492277670E+03               0
GRID*                879               0-1.951921865E+031.4466301313E+02+
*       6.4111837717E+03               0
GRID*                880               0-1.930978385E+032.6051573034E+02+
*       6.4510523621E+03               0
GRID*                881               0-1.960976764E+032.8725772762E+02+
*       6.2684138476E+03               0
GRID*                882               0-1.952180455E+031.7410121213E+01+
*       6.4343806440E+03               0
GRID*                883               0-1.949025941E+03-1.758847428E+02+
*       6.4127490084E+03               0
GRID*                884               0-1.982738195E+036.0141822577E+01+
*       6.2551993190E+03               0
GRID*                885               0-1.992200520E+031.3406652457E+02+
*       6.1147131574E+03               0
GRID*                886               0-1.995251864E+031.8888847718E+01+
*       6.1364218028E+03               0
GRID*                887               0-1.980390617E+032.5400870112E+02+
*       6.1163031637E+03               0
GRID*                888               0-1.993080697E+03-9.959413974E+01+
*       6.1330610564E+03               0
GRID*                889               0-1.983219890E+03-2.354360255E+02+
*       6.1067885319E+03               0
GRID*                890               0-1.965944107E+03-3.529189747E+02+
*       6.1025052445E+03               0
GRID*                891               0-1.973794940E+03-2.077203354E+02+
*       6.2469503316E+03               0
GRID*                892               0-1.937782724E+03-3.229980147E+02+
*       6.3750580315E+03               0
GRID*                893               0-1.818395179E+03-6.186508978E+02+
*       6.5574111297E+03               0
GRID*                894               0-1.793004535E+03-7.621246653E+02+
*       6.4519939163E+03               0
GRID*                895               0-1.889647522E+03-4.732995171E+02+
*       6.4530044874E+03               0
GRID*                896               0-1.919402330E+03-4.864921829E+02+
*       6.2814473284E+03               0
GRID*                897               0-1.810116817E+03-8.421894843E+02+
*       6.1191090485E+03               0
GRID*                898               0-1.821361128E+03-7.700318040E+02+
*       6.2994864388E+03               0
GRID*                899               0-1.855765554E+03-7.255543049E+02+
*       6.1723479549E+03               0
GRID*                900               0-1.745835077E+03-8.932405039E+02+
*       6.3926585219E+03               0
GRID*                901               0-1.754825550E+03-9.516764482E+02+
*       6.1220529264E+03               0
GRID*                902               0-1.719480761E+03-9.861258265E+02+
*       6.2663379399E+03               0
GRID*                903               0-1.898289137E+03-6.068437458E+02+
*       6.1680411934E+03               0
GRID*                904               0-1.940785870E+03-4.712778618E+02+
*       6.1060250066E+03               0
GRID*                905               0-1.633104145E+03-1.632473519E+02+
*       7.1429433467E+03               0
GRID*                906               0-1.518430001E+03-3.320808214E+02+
*       7.2586070898E+03               0
GRID*                907               0-1.735631858E+039.6526930832E+00+
*       6.9937238237E+03               0
GRID*                908               0-1.821036057E+031.6556085494E+02+
*       6.8101951567E+03               0
GRID*                909               0-1.609842355E+036.6655263768E+01+
*       7.1848878206E+03               0
GRID*                910               0-1.445869325E+031.2918081112E+02+
*       7.3757809275E+03               0
GRID*                911               0-1.561662662E+033.0027528856E+02+
*       7.2128652750E+03               0
GRID*                912               0-1.875594857E+032.9752611579E+02+
*       6.6273892314E+03               0
GRID*                913               0-1.892510459E+034.4254789352E+02+
*       6.4717509238E+03               0
GRID*                914               0-1.779547439E+033.6738412023E+02+
*       6.8356062843E+03               0
GRID*                915               0-1.663707946E+034.7728288850E+02+
*       7.0021347058E+03               0
GRID*                916               0-1.729925590E+036.0044456196E+02+
*       6.8042512548E+03               0
GRID*                917               0-1.513261991E+035.5792138966E+02+
*       7.1826903356E+03               0
GRID*                918               0-1.311184291E+036.3035537871E+02+
*       7.3723866175E+03               0
GRID*                919               0-1.429902835E+037.9615861737E+02+
*       7.1495678342E+03               0
GRID*                920               0-1.323814845E+031.0433955026E+03+
*       7.0764928894E+03               0
GRID*                921               0-1.109599253E+031.1017031967E+03+
*       7.2470121161E+03               0
GRID*                922               0-1.207900896E+031.2474656875E+03+
*       6.9923719299E+03               0
GRID*                923               0-1.506797051E+039.5685093281E+02+
*       6.9022170576E+03               0
GRID*                924               0-1.630904057E+038.5435590918E+02+
*       6.7811709121E+03               0
GRID*                925               0-1.526153727E+031.0766129782E+03+
*       6.7153710936E+03               0
GRID*                926               0-1.693829743E+037.4560264784E+02+
*       6.7582988997E+03               0
GRID*                927               0-1.798501246E+036.3138266333E+02+
*       6.6055956452E+03               0
GRID*                928               0-1.702629022E+038.7177321185E+02+
*       6.5840080714E+03               0
GRID*                929               0-1.903856305E+035.2948068408E+02+
*       6.3081815985E+03               0
GRID*                930               0-1.901636392E+036.0056696906E+02+
*       6.1519763811E+03               0
GRID*                931               0-1.854116641E+035.8098957971E+02+
*       6.4740250024E+03               0
GRID*                932               0-1.817199737E+037.1431171647E+02+
*       6.4330603940E+03               0
GRID*                933               0-1.859845890E+037.1997782117E+02+
*       6.1503422533E+03               0
GRID*                934               0-1.805577130E+038.0744704124E+02+
*       6.2965033534E+03               0
GRID*                935               0-1.804499810E+038.5137997641E+02+
*       6.1375723191E+03               0
GRID*                936               0-1.755159157E+038.6301273981E+02+
*       6.4178784953E+03               0
GRID*                937               0-1.697388667E+039.6344117319E+02+
*       6.4366334665E+03               0
GRID*                938               0-4.837788046E+021.9359926346E+03+
*       6.1337388600E+03               0
GRID*                939               0-3.665820570E+021.9614387201E+03+
*       6.1355480792E+03               0
GRID*                940               0-5.618049407E+021.8999202059E+03+
*       6.2732691906E+03               0
GRID*                941               0-6.350069679E+021.8514258161E+03+
*       6.4110790488E+03               0
GRID*                942               0-5.037774210E+021.8900213037E+03+
*       6.4171623839E+03               0
GRID*                943               0-6.035526526E+021.9021712924E+03+
*       6.1321575405E+03               0
GRID*                944               0-7.173751994E+021.8624493031E+03+
*       6.1290389923E+03               0
GRID*                945               0-7.307509228E+021.7819486714E+03+
*       6.5391298457E+03               0
GRID*                946               0-8.218256414E+021.6885157590E+03+
*       6.6881212662E+03               0
GRID*                947               0-6.641274651E+021.7420203674E+03+
*       6.7240833122E+03               0
GRID*                948               0-7.816171307E+021.8007142746E+03+
*       6.3827556912E+03               0
GRID*                949               0-1.060407728E+031.4240910187E+03+
*       6.9205963373E+03               0
GRID*                950               0-1.257099007E+031.3528302580E+03+
*       6.7678227522E+03               0
GRID*                951               0-9.402904579E+021.5760992152E+03+
*       6.7948346883E+03               0
GRID*                952               0-9.949735085E+021.6273127197E+03+
*       6.6015633209E+03               0
GRID*                953               0-8.725822459E+021.4828414142E+03+
*       7.0196937228E+03               0
GRID*                954               0-1.749102346E+039.6029217076E+02+
*       6.1359305150E+03               0
GRID*                955               0-1.386441429E+031.3133668625E+03+
*       6.5940085687E+03               0
GRID*                956               0-1.247146257E+031.4688470072E+03+
*       6.5358279750E+03               0
GRID*                957               0-1.468170789E+031.3085665372E+03+
*       6.3634898482E+03               0
GRID*                958               0-1.431925211E+031.3847903381E+03+
*       6.1787311664E+03               0
GRID*                959               0-1.528884492E+031.2778400899E+03+
*       6.1721523906E+03               0
GRID*                960               0-1.496458713E+031.1918526474E+03+
*       6.5831792601E+03               0
GRID*                961               0-1.606460200E+031.0914715914E+03+
*       6.4774651091E+03               0
GRID*                962               0-1.603156797E+031.1839830413E+03+
*       6.1675393343E+03               0
GRID*                963               0-1.658720567E+031.0713435545E+03+
*       6.3175930281E+03               0
GRID*                964               0-1.688521954E+031.0629635178E+03+
*       6.1378304389E+03               0
GRID*                965               0-8.350601599E+021.8147301877E+03+
*       6.0970637821E+03               0
GRID*                966               0-9.426009810E+021.7613903382E+03+
*       6.0948977615E+03               0
GRID*                967               0-8.116897226E+021.8132723376E+03+
*       6.2306516065E+03               0
GRID*                968               0-9.077832932E+021.7488444983E+03+
*       6.3427396978E+03               0
GRID*                969               0-1.130473460E+031.5733499208E+03+
*       6.4965814166E+03               0
GRID*                970               0-1.254164062E+031.5196315043E+03+
*       6.3432074521E+03               0
GRID*                971               0-1.017047079E+031.6738693844E+03+
*       6.4046904116E+03               0
GRID*                972               0-1.034550391E+031.6933304871E+03+
*       6.2496624562E+03               0
GRID*                973               0-1.345825094E+031.4687205515E+03+
*       6.1777979632E+03               0
GRID*                974               0-1.242695513E+031.5594819689E+03+
*       6.1540215023E+03               0
GRID*                975               0-1.144098022E+031.6337773949E+03+
*       6.1476756712E+03               0
GRID*                976               0-1.046548041E+031.7014206892E+03+
*       6.0995015736E+03               0
GRID*                977               0-8.717288078E+02-1.726191592E+03+
*       6.5102416431E+03               0
GRID*                978               0-9.818567184E+02-1.698348657E+03+
*       6.3893172329E+03               0
GRID*                979               0-8.576047405E+02-1.774083830E+03+
*       6.3422501435E+03               0
GRID*                980               0-5.206029238E+02-1.678854351E+03+
*       6.9541595193E+03               0
GRID*                981               0-3.170742268E+02-1.782293447E+03+
*       6.8502293229E+03               0
GRID*                982               0-3.421989551E+02-1.651923082E+03+
*       7.0742663526E+03               0
GRID*                983               0-6.707684670E+02-1.612032508E+03+
*       6.9754076098E+03               0
GRID*                984               0-7.894241200E+02-1.505119717E+03+
*       7.0542397420E+03               0
GRID*                985               0-8.851033050E+02-1.576815959E+03+
*       6.8545403694E+03               0
GRID*                986               0-6.274858330E+02-1.740499873E+03+
*       6.7595529407E+03               0
GRID*                987               0-7.567195805E+02-1.745579337E+03+
*       6.6167056312E+03               0
GRID*                988               0-6.194591348E+02-1.805905699E+03+
*       6.5957960192E+03               0
GRID*                989               0-8.906149203E+02-1.660932995E+03+
*       6.6694064320E+03               0
GRID*                990               0-1.004382938E+03-1.564053571E+03+
*       6.7382070134E+03               0
GRID*                991               0-1.147934089E+03-1.632476954E+03+
*       6.1313867854E+03               0
GRID*                992               0-1.245432723E+03-1.559249901E+03+
*       6.1327982737E+03               0
GRID*                993               0-1.073089760E+03-1.668633059E+03+
*       6.2532564808E+03               0
GRID*                994               0-1.099486740E+03-1.618953588E+03+
*       6.4124530669E+03               0
GRID*                995               0-1.043110007E+03-1.702665133E+03+
*       6.1133505495E+03               0
GRID*                996               0-1.329571645E+03-1.489910220E+03+
*       6.1113507577E+03               0
GRID*                997               0-1.274631764E+03-1.520988224E+03+
*       6.2488107101E+03               0
GRID*                998               0-1.413827388E+03-1.409920314E+03+
*       6.1149564613E+03               0
GRID*                999               0-1.433403384E+03-1.370108188E+03+
*       6.2610619227E+03               0
GRID*               1000               0-1.147085868E+03-1.535889946E+03+
*       6.5702929307E+03               0
GRID*               1001               0-1.155367325E+03-1.449655735E+03+
*       6.7507491613E+03               0
GRID*               1002               0-1.329274101E+03-1.440797488E+03+
*       6.3963979974E+03               0
GRID*               1003               0-1.405422125E+03-1.355034685E+03+
*       6.4343579410E+03               0
GRID*               1004               0-1.235740508E+03-1.514661597E+03+
*       6.4227822086E+03               0
GRID*               1005               0-9.377537590E+02-1.762785158E+03+
*       6.1149109879E+03               0
GRID*               1006               0-8.331774112E+02-1.814349765E+03+
*       6.1180807343E+03               0
GRID*               1007               0-7.309155448E+02-1.848532943E+03+
*       6.2206518028E+03               0
GRID*               1008               0-7.735764962E+01-1.992485465E+03+
*       6.1549602730E+03               0
GRID*               1009               0-1.959370387E+02-1.983950087E+03+
*       6.1598441488E+03               0
GRID*               1010               01.9634802041E+02-1.985654639E+03+
*       6.1364618978E+03               0
GRID*               1011               03.1514103061E+02-1.970089275E+03+
*       6.1393911547E+03               0
GRID*               1012               04.2024838822E+01-1.976501428E+03+
*       6.3027718737E+03               0
GRID*               1013               01.4060448282E+02-1.942431417E+03+
*       6.4551764564E+03               0
GRID*               1014               0-2.745202420E+01-1.942085608E+03+
*       6.4770180242E+03               0
GRID*               1015               07.6855484977E+01-1.993703581E+03+
*       6.1386898132E+03               0
GRID*               1016               0-5.892390350E+02-1.870094943E+03+
*       6.3943879103E+03               0
GRID*               1017               0-4.643213575E+02-1.873159183E+03+
*       6.5250467685E+03               0
GRID*               1018               0-5.870422314E+02-1.904906998E+03+
*       6.1634318361E+03               0
GRID*               1019               0-4.694023576E+02-1.937827314E+03+
*       6.1564713426E+03               0
GRID*               1020               0-3.515610132E+02-1.962261196E+03+
*       6.1610390693E+03               0
GRID*               1021               0-2.811363994E+02-1.953225382E+03+
*       6.3253707054E+03               0
GRID*               1022               0-1.681777157E+02-1.938358170E+03+
*       6.4631210586E+03               0
GRID*               1023               0-3.376253549E+02-1.915704067E+03+
*       6.4648465081E+03               0
GRID*               1024               0-3.519487886E+02-1.849632054E+03+
*       6.6745300763E+03               0
GRID*               1025               0-1.810776235E+02-1.831601006E+03+
*       6.7825910860E+03               0
GRID*               1026               0-7.615173488E+01-1.898473711E+03+
*       6.6244948672E+03               0
GRID*               1027               0-2.723301736E+01-1.833372093E+03+
*       6.7987511702E+03               0
GRID*               1028               02.0091913502E+02-1.586321903E+03+
*       7.2013366299E+03               0
GRID*               1029               04.8003043912E+02-1.532174228E+03+
*       7.1924806130E+03               0
GRID*               1030               03.1590020863E+02-1.384300085E+03+
*       7.4085172469E+03               0
GRID*               1031               0-6.286846425E+01-1.610123888E+03+
*       7.1847122588E+03               0
GRID*               1032               0-2.784391861E+02-1.493269193E+03+
*       7.3010063248E+03               0
GRID*               1033               01.1109627000E+02-1.739462070E+03+
*       6.9807780242E+03               0
GRID*               1034               02.1127995904E+02-1.815278586E+03+
*       6.8124790349E+03               0
GRID*               1035               07.3084009527E+02-1.444106466E+03+
*       7.1749148241E+03               0
GRID*               1036               09.5497789920E+02-1.377057018E+03+
*       7.0916633734E+03               0
GRID*               1037               08.4755875934E+02-1.253028774E+03+
*       7.3082667509E+03               0
GRID*               1038               06.0151848097E+02-1.636042691E+03+
*       6.9805793899E+03               0
GRID*               1039               03.5851335133E+02-1.945521249E+03+
*       6.2939585829E+03               0
GRID*               1040               04.6236001311E+02-1.940278998E+03+
*       6.1467491503E+03               0
GRID*               1041               03.6581287122E+02-1.806584107E+03+
*       6.7761669534E+03               0
GRID*               1042               02.2211248337E+02-1.892747218E+03+
*       6.6067721284E+03               0
GRID*               1043               05.1589610815E+02-1.757315872E+03+
*       6.8035489997E+03               0
GRID*               1044               07.4406298406E+02-1.680170186E+03+
*       6.7895550659E+03               0
GRID*               1045               05.0947386905E+02-1.839481376E+03+
*       6.5972796133E+03               0
GRID*               1046               04.4403492023E+02-1.901204595E+03+
*       6.4338775061E+03               0
GRID*               1047               05.8164793995E+02-1.857875771E+03+
*       6.4582367099E+03               0
GRID*               1048               02.8154375557E+02-1.934457744E+03+
*       6.4226137813E+03               0
GRID*               1049               05.7858103003E+02-1.908866316E+03+
*       6.1465344458E+03               0
GRID*               1050               06.4071073308E+02-1.872175351E+03+
*       6.2905890821E+03               0
GRID*               1051               07.1490096593E+02-1.813848756E+03+
*       6.4459435358E+03               0
GRID*               1052               07.0215294199E+02-1.867696206E+03+
*       6.1367030104E+03               0
GRID*               1053               08.0991682256E+02-1.823569778E+03+
*       6.1364733044E+03               0
GRID*               1054               08.2256792439E+02-1.731075077E+03+
*       6.5716285713E+03               0
GRID*               1055               09.1810902733E+02-1.617400590E+03+
*       6.7355873182E+03               0
GRID*               1056               08.7472217853E+02-1.753935661E+03+
*       6.3982078082E+03               0
GRID*               1057               01.1422901550E+03-1.299079292E+03+
*       7.0037734606E+03               0
GRID*               1058               01.3113785619E+03-1.228790242E+03+
*       6.8776992503E+03               0
GRID*               1059               01.2575342847E+03-1.113636247E+03+
*       7.0855498711E+03               0
GRID*               1060               01.0234615249E+03-1.474663611E+03+
*       6.8819808312E+03               0
GRID*               1061               01.0892893376E+03-1.542568427E+03+
*       6.6587307608E+03               0
GRID*               1062               01.4466944425E+03-1.158569546E+03+
*       6.7515262403E+03               0
GRID*               1063               01.5759817934E+03-1.088833662E+03+
*       6.5750844829E+03               0
GRID*               1064               01.5665473623E+03-9.795732806E+02+
*       6.7657446743E+03               0
GRID*               1065               01.3351740247E+03-1.325198139E+03+
*       6.6790864534E+03               0
GRID*               1066               01.8230239336E+03-8.116370534E+02+
*       6.1335128412E+03               0
GRID*               1067               01.8675912262E+03-7.030683563E+02+
*       6.1333867672E+03               0
GRID*               1068               01.7189319293E+03-9.421123584E+02+
*       6.3971108438E+03               0
GRID*               1069               01.7898203272E+03-8.575251122E+02+
*       6.2473622460E+03               0
GRID*               1070               01.7686971808E+03-8.317657352E+02+
*       6.4241129754E+03               0
GRID*               1071               01.6523689201E+03-1.044375730E+03+
*       6.4230293137E+03               0
GRID*               1072               01.5430789009E+03-1.203723638E+03+
*       6.4122559079E+03               0
GRID*               1073               01.6792933770E+03-1.058018245E+03+
*       6.2461035634E+03               0
GRID*               1074               01.7200673242E+03-1.014569194E+03+
*       6.1096039355E+03               0
GRID*               1075               01.6586975129E+03-1.109560520E+03+
*       6.1326516422E+03               0
GRID*               1076               01.7759974020E+03-9.129029060E+02+
*       6.1115259856E+03               0
GRID*               1077               01.5879402494E+03-1.208739918E+03+
*       6.1318616552E+03               0
GRID*               1078               01.5047567427E+03-1.312759329E+03+
*       6.1111980645E+03               0
GRID*               1079               01.4239788515E+03-1.400137187E+03+
*       6.1090753925E+03               0
GRID*               1080               01.5280287611E+03-1.265844237E+03+
*       6.2505300720E+03               0
GRID*               1081               01.4516962129E+03-1.320919768E+03+
*       6.3843790872E+03               0
GRID*               1082               01.2313124167E+03-1.459465643E+03+
*       6.5948352970E+03               0
GRID*               1083               01.1221332548E+03-1.589863428E+03+
*       6.4616774971E+03               0
GRID*               1084               01.3568083818E+03-1.387765248E+03+
*       6.4828826003E+03               0
GRID*               1085               01.3494460925E+03-1.442917393E+03+
*       6.3114127067E+03               0
GRID*               1086               01.1751964270E+03-1.614477377E+03+
*       6.1112175352E+03               0
GRID*               1087               01.0751961296E+03-1.682801170E+03+
*       6.1101294088E+03               0
GRID*               1088               01.3373976736E+03-1.482671287E+03+
*       6.1142314469E+03               0
GRID*               1089               01.2456404434E+03-1.552589317E+03+
*       6.1945416701E+03               0
GRID*               1090               01.1742741375E+03-1.588802377E+03+
*       6.3110951070E+03               0
GRID*               1091               01.0041523355E+03-1.726737493E+03+
*       6.1002416566E+03               0
GRID*               1092               01.0279427459E+03-1.702694938E+03+
*       6.2101456026E+03               0
GRID*               1093               09.0307708582E+02-1.781618345E+03+
*       6.1014164417E+03               0
GRID*               1094               08.6288669607E+02-1.788229907E+03+
*       6.2401148164E+03               0
GRID*               1095               01.0465135064E+03-1.664475835E+03+
*       6.3665072803E+03               0
GRID*               1096               09.6905226000E+02-1.713227113E+03+
*       6.3546650703E+03               0
GRID*               1097               0-5.394793480E+021.7058670977E+03+
*       6.8938552997E+03               0
GRID*               1098               0-4.547844264E+021.8071125232E+03+
*       6.7262997175E+03               0
GRID*               1099               0-6.559958188E+021.5453112084E+03+
*       7.0870514851E+03               0
GRID*               1100               0-7.720360626E+021.3772252946E+03+
*       7.2276840222E+03               0
GRID*               1101               0-4.293997587E+021.6188066642E+03+
*       7.0931964391E+03               0
GRID*               1102               0-2.995646134E+021.4885875323E+03+
*       7.3016786340E+03               0
GRID*               1103               0-1.962044961E+021.6630720656E+03+
*       7.0934774234E+03               0
GRID*               1104               0-1.546808423E+021.3433990545E+03+
*       7.4735503924E+03               0
GRID*               1105               0-4.022982293E+001.1760371081E+03+
*       7.6176891658E+03               0
GRID*               1106               08.9973263817E+011.3858872841E+03+
*       7.4391734503E+03               0
GRID*               1107               0-4.065815134E+021.2913271832E+03+
*       7.4721290514E+03               0
GRID*               1108               0-6.507932719E+021.2332194227E+03+
*       7.4337497612E+03               0
GRID*               1109               0-5.108045512E+021.0683805487E+03+
*       7.6117189094E+03               0
GRID*               1110               0-8.859242625E+021.1721185207E+03+
*       7.3569349144E+03               0
GRID*               1111               0-1.000863572E+039.4376273964E+02+
*       7.4517514119E+03               0
GRID*               1112               0-1.101498575E+036.9973668361E+02+
*       7.5156080554E+03               0
GRID*               1113               0-8.606332642E+027.6048584969E+02+
*       7.6373664808E+03               0
GRID*               1114               0-1.186176316E+034.3722671299E+02+
*       7.5497801505E+03               0
GRID*               1115               01.6546186101E+029.9744325636E+02+
*       7.7256091353E+03               0
GRID*               1116               03.3857749621E+028.1334744089E+02+
*       7.7955028299E+03               0
GRID*               1117               04.1337522297E+021.0504206036E+03+
*       7.6509803151E+03               0
GRID*               1118               0-9.298550758E+019.4104625642E+02+
*       7.7623241720E+03               0
GRID*               1119               0-3.514161999E+028.7950186354E+02+
*       7.7615288627E+03               0
GRID*               1120               0-1.800283062E+026.7629643360E+02+
*       7.8735558824E+03               0
GRID*               1121               0-6.110486646E+028.2233307236E+02+
*       7.7176684140E+03               0
GRID*               1122               0-7.070545732E+025.5884000027E+02+
*       7.7854330764E+03               0
GRID*               1123               0-1.264117294E+031.8143685857E+02+
*       7.5391842189E+03               0
GRID*               1124               0-1.042096152E+032.3757794057E+02+
*       7.6904407727E+03               0
GRID*               1125               0-1.315628972E+03-7.096181394E+01+
*       7.5046865904E+03               0
GRID*               1126               0-1.367045059E+03-2.980257013E+02+
*       7.4291147261E+03               0
GRID*               1127               0-1.393121234E+03-5.150115769E+02+
*       7.3393925188E+03               0
GRID*               1128               0-1.178422171E+03-2.625231527E+02+
*       7.5944905130E+03               0
GRID*               1129               0-8.000759986E+022.8647159448E+02+
*       7.8104724684E+03               0
GRID*               1130               0-5.334382628E+023.3670587181E+02+
*       7.8979125518E+03               0
GRID*               1131               0-8.832195401E+021.5457855289E+01+
*       7.7943475822E+03               0
GRID*               1132               0-9.697355717E+02-2.463779064E+02+
*       7.7317357270E+03               0
GRID*               1133               0-1.028511134E+03-4.802003928E+02+
*       7.6466846652E+03               0
GRID*               1134               0-7.232625122E+02-2.138260040E+02+
*       7.8523418683E+03               0
GRID*               1135               0-2.557649105E+023.9072002196E+02+
*       7.9447162257E+03               0
GRID*               1136               01.2514392711E+014.6220043465E+02+
*       7.9458193964E+03               0
GRID*               1137               0-3.417731657E+021.0005893194E+02+
*       7.9680394824E+03               0
GRID*               1138               0-4.334922684E+02-1.990502412E+02+
*       7.9422827240E+03               0
GRID*               1139               0-5.297525474E+02-4.595370261E+02+
*       7.8730154305E+03               0
GRID*               1140               0-1.280840811E+02-1.651347326E+02+
*       7.9890509413E+03               0
GRID*               1141               05.3070063144E+026.2599286280E+02+
*       7.8238664826E+03               0
GRID*               1142               07.1853545140E+024.3503746894E+02+
*       7.8150612757E+03               0
GRID*               1143               07.6755293638E+026.8594624489E+02+
*       7.7147411186E+03               0
GRID*               1144               02.7520054694E+025.5442702249E+02+
*       7.9018083511E+03               0
GRID*               1145               02.1941271224E+022.6389039031E+02+
*       7.9703348637E+03               0
GRID*               1146               01.8303264416E+02-4.977933599E+01+
*       7.9909846311E+03               0
GRID*               1147               04.4257647262E+026.6293322294E+01+
*       7.9492897676E+03               0
GRID*               1148               08.5431607091E+01-3.633147769E+02+
*       7.9648675530E+03               0
GRID*               1149               08.9845906929E+022.4733764469E+02+
*       7.7696316270E+03               0
GRID*               1150               01.0615613637E+035.0343383707E+01+
*       7.6942698159E+03               0
GRID*               1151               01.1093282653E+033.0113366518E+02+
*       7.6366755566E+03               0
GRID*               1152               06.7199359296E+021.7160760784E+02+
*       7.8758928416E+03               0
GRID*               1153               06.2454934228E+02-1.225826979E+02+
*       7.8960250411E+03               0
GRID*               1154               0-7.576498889E+02-1.365934187E+03+
*       7.2490755495E+03               0
GRID*               1155               0-9.830977412E+02-1.337783019E+03+
*       7.1152818415E+03               0
GRID*               1156               0-6.435565479E+02-7.582175556E+02+
*       7.7352059879E+03               0
GRID*               1157               0-3.596450285E+02-7.465861326E+02+
*       7.8202371112E+03               0
GRID*               1158               0-7.348226264E+02-9.254643773E+02+
*       7.6135515060E+03               0
GRID*               1159               0-8.977823543E+02-6.530891013E+02+
*       7.6635685695E+03               0
GRID*               1160               0-7.313757654E+02-1.111463302E+03+
*       7.4932304543E+03               0
GRID*               1161               0-5.205836409E+02-1.299667577E+03+
*       7.4282357499E+03               0
GRID*               1162               0-9.701958693E+02-1.010212964E+03+
*       7.4276519212E+03               0
GRID*               1163               0-1.408009848E+03-1.286263563E+03+
*       6.6025208862E+03               0
GRID*               1164               0-1.291950772E+03-1.316411585E+03+
*       6.7732555318E+03               0
GRID*               1165               0-1.415300195E+03-1.167894511E+03+
*       6.7955801723E+03               0
GRID*               1166               0-1.146693937E+03-1.333039214E+03+
*       6.9529420899E+03               0
GRID*               1167               0-1.134354491E+03-1.189311060E+03+
*       7.1396386485E+03               0
GRID*               1168               0-1.419144811E+03-1.039560320E+03+
*       6.9514940600E+03               0
GRID*               1169               0-1.107479677E+03-6.558137765E+02+
*       7.5308155141E+03               0
GRID*               1170               0-1.419609480E+03-8.819721255E+02+
*       7.0985590239E+03               0
GRID*               1171               0-1.413542555E+03-7.046238303E+02+
*       7.2269472443E+03               0
GRID*               1172               0-1.287109049E+03-1.038231491E+03+
*       7.1249108436E+03               0
GRID*               1173               0-1.122997536E+03-1.029234731E+03+
*       7.2959746577E+03               0
GRID*               1174               0-1.136118658E+03-8.487648657E+02+
*       7.4102598175E+03               0
GRID*               1175               0-1.257573057E+03-6.867108714E+02+
*       7.3953273509E+03               0
GRID*               1176               0-2.194631091E+02-1.243625130E+03+
*       7.5508812530E+03               0
GRID*               1177               0-9.602207510E+01-9.686423232E+02+
*       7.7471439157E+03               0
GRID*               1178               04.4711704259E+01-6.779630419E+02+
*       7.8810543342E+03               0
GRID*               1179               01.5380255176E+02-1.178992285E+03+
*       7.6082034596E+03               0
GRID*               1180               04.6314154279E+02-1.113933139E+03+
*       7.5951962043E+03               0
GRID*               1181               07.4860860773E+02-1.100097434E+03+
*       7.4931071855E+03               0
GRID*               1182               09.8937661442E+02-1.029477771E+03+
*       7.4004676443E+03               0
GRID*               1183               06.0650928698E+02-8.748302697E+02+
*       7.6931675146E+03               0
GRID*               1184               08.1849840105E+02-6.776789380E+02+
*       7.6943463925E+03               0
GRID*               1185               05.2265226899E+02-6.930007338E+02+
*       7.8018276251E+03               0
GRID*               1186               03.4329454271E+02-5.784328654E+02+
*       7.8834974436E+03               0
GRID*               1187               05.6675817277E+02-3.639391880E+02+
*       7.8831707346E+03               0
GRID*               1188               01.1946701474E+03-1.358613578E+02+
*       7.5982185170E+03               0
GRID*               1189               01.3130143518E+03-3.300674730E+02+
*       7.4720888212E+03               0
GRID*               1190               01.3826137666E+03-9.154566100E+01+
*       7.4422195829E+03               0
GRID*               1191               09.9088207643E+02-2.059056574E+02+
*       7.7250373632E+03               0
GRID*               1192               07.9874598972E+02-2.532155001E+02+
*       7.8160081376E+03               0
GRID*               1193               09.3481031074E+02-4.330682987E+02+
*       7.7142282126E+03               0
GRID*               1194               01.4022324994E+03-5.141399400E+02+
*       7.3301879618E+03               0
GRID*               1195               01.2197818933E+03-5.727336301E+02+
*       7.4778717478E+03               0
GRID*               1196               01.5290173648E+03-8.402566113E+02+
*       6.9777897227E+03               0
GRID*               1197               01.6646465646E+03-7.838973745E+02+
*       6.7838717383E+03               0
GRID*               1198               01.4768169045E+03-6.852508148E+02+
*       7.1616531801E+03               0
GRID*               1199               01.5654614310E+03-4.623973697E+02+
*       7.1556457291E+03               0
GRID*               1200               01.3724581405E+03-9.032064529E+02+
*       7.1404275469E+03               0
GRID*               1201               01.0094653797E+03-6.265274438E+02+
*       7.6088627109E+03               0
GRID*               1202               01.1077042567E+03-8.010586177E+02+
*       7.4598950326E+03               0
GRID*               1203               01.1928287610E+03-9.699132485E+02+
*       7.2792293925E+03               0
GRID*               1204               01.7747757617E+03-7.112091747E+02+
*       6.5868152640E+03               0
GRID*               1205               01.8493777841E+03-6.345976334E+02+
*       6.4208133675E+03               0
GRID*               1206               01.7521122478E+03-5.630140315E+02+
*       6.7830179719E+03               0
GRID*               1207               01.7006783431E+03-4.185133769E+02+
*       6.9656796918E+03               0
GRID*               1208               01.8169578297E+03-3.635415013E+02+
*       6.7526633603E+03               0
GRID*               1209               01.6373213466E+03-2.424959238E+02+
*       7.1226630816E+03               0
GRID*               1210               01.7059673088E+03-1.031434853E+01+
*       7.0438230529E+03               0
GRID*               1211               01.5670627513E+03-3.415551647E+01+
*       7.2422343296E+03               0
GRID*               1212               01.9324889300E+032.8814667723E+01+
*       6.5144442702E+03               0
GRID*               1213               01.9596300135E+03-7.921551837E+01+
*       6.3918845644E+03               0
GRID*               1214               01.9688125260E+036.7176776751E+01+
*       6.3453398298E+03               0
GRID*               1215               01.7359971057E+033.0177839960E+02+
*       6.9461729093E+03               0
GRID*               1216               01.7303957514E+035.0892760750E+02+
*       6.8641301831E+03               0
GRID*               1217               01.6347470733E+034.2319218864E+02+
*       7.0716836738E+03               0
GRID*               1218               01.7469815169E+031.4297187436E+02+
*       6.9631267711E+03               0
GRID*               1219               01.8064319989E+03-5.822241703E+01+
*       6.8563923456E+03               0
GRID*               1220               01.8327333318E+032.4059125136E+02+
*       6.7636777235E+03               0
GRID*               1221               01.8968718406E+031.3716456612E+02+
*       6.6189180676E+03               0
GRID*               1222               01.8866264648E+032.8141143765E+02+
*       6.6012032535E+03               0
GRID*               1223               01.8843768223E+03-2.257114015E+01+
*       6.6697847172E+03               0
GRID*               1224               01.8497968946E+03-1.666903088E+02+
*       6.7419334218E+03               0
GRID*               1225               01.9790629519E+03-2.559982440E+02+
*       6.1333088220E+03               0
GRID*               1226               01.9594305510E+03-3.777197182E+02+
*       6.1340082495E+03               0
GRID*               1227               01.9760656525E+03-1.720103574E+02+
*       6.2560756344E+03               0
GRID*               1228               01.9441250002E+03-2.235130526E+02+
*       6.4128176982E+03               0
GRID*               1229               01.9925560060E+03-1.286600155E+02+
*       6.1147186703E+03               0
GRID*               1230               01.9378839353E+03-4.823606755E+02+
*       6.1092170869E+03               0
GRID*               1231               01.9379916769E+03-4.279141062E+02+
*       6.2471317973E+03               0
GRID*               1232               01.9050668163E+03-5.987822621E+02+
*       6.1103513492E+03               0
GRID*               1233               01.8771409192E+03-6.451822262E+02+
*       6.2451050437E+03               0
GRID*               1234               01.8903642450E+03-3.153602281E+02+
*       6.5718997109E+03               0
GRID*               1235               01.8902809931E+03-5.218069308E+02+
*       6.3931337385E+03               0
GRID*               1236               01.9128158745E+03-4.035082353E+02+
*       6.4222733396E+03               0
GRID*               1237               01.9966338908E+03-6.244027887E+00+
*       6.1158105479E+03               0
GRID*               1238               01.9933971858E+031.1050686232E+02+
*       6.1189470982E+03               0
GRID*               1239               01.9756318085E+032.1676219527E+02+
*       6.2233657767E+03               0
GRID*               1240               01.7992007503E+038.5759028762E+02+
*       6.1655662595E+03               0
GRID*               1241               01.8478397465E+037.4649863572E+02+
*       6.1680097903E+03               0
GRID*               1242               01.6578894711E+031.1075257542E+03+
*       6.1574431760E+03               0
GRID*               1243               01.5890099008E+031.2044164806E+03+
*       6.1562819135E+03               0
GRID*               1244               01.7203363634E+039.6187864149E+02+
*       6.3394535120E+03               0
GRID*               1245               01.6388955381E+031.0247536428E+03+
*       6.5137079047E+03               0
GRID*               1246               01.7267592109E+038.6218537205E+02+
*       6.5243418691E+03               0
GRID*               1247               01.7226750867E+031.0033755190E+03+
*       6.1600772033E+03               0
GRID*               1248               01.9286266715E+033.4538307725E+02+
*       6.4013833371E+03               0
GRID*               1249               01.8742225531E+034.4929741189E+02+
*       6.5342436483E+03               0
GRID*               1250               01.9585262576E+033.6915891955E+02+
*       6.1670208831E+03               0
GRID*               1251               01.9334200301E+034.8592736636E+02+
*       6.1604922241E+03               0
GRID*               1252               01.8999772101E+036.0210167406E+02+
*       6.1660073902E+03               0
GRID*               1253               01.8589881910E+036.5384715237E+02+
*       6.3415274262E+03               0
GRID*               1254               01.7927308532E+037.3832361959E+02+
*       6.4909096616E+03               0
GRID*               1255               01.8521250074E+035.7858379125E+02+
*       6.4846349253E+03               0
GRID*               1256               01.8006361109E+035.2660714629E+02+
*       6.6931032895E+03               0
GRID*               1257               01.7112922732E+036.4883371913E+02+
*       6.8065297350E+03               0
GRID*               1258               01.7102920384E+037.8718088544E+02+
*       6.6747154883E+03               0
GRID*               1259               01.6348630136E+037.8204418107E+02+
*       6.8459455017E+03               0
GRID*               1260               01.4595634445E+031.5943767938E+02+
*       7.3580325155E+03               0
GRID*               1261               01.4982766557E+033.8647873115E+02+
*       7.2672018260E+03               0
GRID*               1262               01.3055997754E+033.5030242135E+02+
*       7.4740062095E+03               0
GRID*               1263               06.5036541680E+021.0840511889E+03+
*       7.5497928240E+03               0
GRID*               1264               08.1844818386E+029.0971490438E+02+
*       7.5819477269E+03               0
GRID*               1265               08.7061618418E+021.1090564115E+03+
*       7.4184575768E+03               0
GRID*               1266               04.8389604466E+021.2526545294E+03+
*       7.4821263111E+03               0
GRID*               1267               01.1538019863E+035.4313012618E+02+
*       7.5406980375E+03               0
GRID*               1268               09.8927696469E+027.2661522656E+02+
*       7.5790373490E+03               0
GRID*               1269               01.1920557041E+037.5921926025E+02+
*       7.4151288683E+03               0
GRID*               1270               01.5219753924E+031.0746633495E+03+
*       6.7271082246E+03               0
GRID*               1271               01.5317870036E+031.1733290161E+03+
*       6.5262340194E+03               0
GRID*               1272               01.3961669999E+031.1015489055E+03+
*       6.9150443699E+03               0
GRID*               1273               01.2599143595E+031.2560902358E+03+
*       6.9137028650E+03               0
GRID*               1274               01.2435484598E+031.1169330496E+03+
*       7.0982009407E+03               0
GRID*               1275               01.5197714638E+039.3839773258E+02+
*       6.8998334167E+03               0
GRID*               1276               01.5109285161E+037.9362607397E+02+
*       7.0427127365E+03               0
GRID*               1277               01.4963689627E+036.1098923135E+02+
*       7.1779514422E+03               0
GRID*               1278               01.3670506927E+037.7431148391E+02+
*       7.2375830167E+03               0
GRID*               1279               01.2180627443E+039.5043559087E+02+
*       7.2700374350E+03               0
GRID*               1280               01.0673001696E+031.1173963278E+03+
*       7.2697620710E+03               0
GRID*               1281               09.1277369087E+021.2788741199E+03+
*       7.2374662166E+03               0
GRID*               1282               03.3245395446E+021.4091854489E+03+
*       7.3797349893E+03               0
GRID*               1283               01.8062780463E+021.5551335252E+03+
*       7.2445610507E+03               0
GRID*               1284               05.5768591702E+021.4266024480E+03+
*       7.2859982132E+03               0
GRID*               1285               05.3314242713E+011.6903418046E+03+
*       7.0676599691E+03               0
GRID*               1286               0-8.179176342E+011.7974281421E+03+
*       6.8732446404E+03               0
GRID*               1287               02.7786827859E+021.7011538698E+03+
*       7.0143268894E+03               0
GRID*               1288               0-3.125926096E+021.9564392862E+03+
*       6.2731750927E+03               0
GRID*               1289               0-2.526306265E+021.9795345416E+03+
*       6.1327254004E+03               0
GRID*               1290               0-3.239588163E+021.8471639219E+03+
*       6.6950048376E+03               0
GRID*               1291               0-4.489914881E+021.8730481166E+03+
*       6.5386022447E+03               0
GRID*               1292               0-1.980500282E+021.8561600752E+03+
*       6.7179445959E+03               0
GRID*               1293               03.0288939783E+011.8751433705E+03+
*       6.6949220742E+03               0
GRID*               1294               0-2.044787473E+021.9175389986E+03+
*       6.5303118814E+03               0
GRID*               1295               0-2.590374587E+021.9450697537E+03+
*       6.3867840181E+03               0
GRID*               1296               0-1.423987661E+021.9531853211E+03+
*       6.4059410458E+03               0
GRID*               1297               0-3.824570637E+021.9239576987E+03+
*       6.3900170884E+03               0
GRID*               1298               0-1.327833614E+021.9911996537E+03+
*       6.1322372808E+03               0
GRID*               1299               0-7.753809255E+011.9806260584E+03+
*       6.2666483913E+03               0
GRID*               1300               0-2.065811891E+011.9590522360E+03+
*       6.4021034154E+03               0
GRID*               1301               0-2.100203712E+011.9956162420E+03+
*       6.1306592753E+03               0
GRID*               1302               09.9098521315E+011.9934368671E+03+
*       6.1280000661E+03               0
GRID*               1303               01.5051617869E+031.2754100190E+03+
*       6.3283497823E+03               0
GRID*               1304               01.3877387425E+031.3415946425E+03+
*       6.5237383951E+03               0
GRID*               1305               01.4617886663E+031.3561668332E+03+
*       6.1548581687E+03               0
GRID*               1306               01.2667417146E+031.3708216994E+03+
*       6.7184766307E+03               0
GRID*               1307               01.2569683405E+031.4721002655E+03+
*       6.5029381825E+03               0
GRID*               1308               07.6334962577E+021.4239591647E+03+
*       7.1788279376E+03               0
GRID*               1309               06.1751569940E+021.5638915026E+03+
*       7.0830120448E+03               0
GRID*               1310               09.5333630301E+021.4175331164E+03+
*       7.0400707555E+03               0
GRID*               1311               01.1155662036E+031.4009447339E+03+
*       6.8904286480E+03               0
GRID*               1312               09.7658431070E+021.5324644514E+03+
*       6.8353632716E+03               0
GRID*               1313               04.9028049764E+021.6804603769E+03+
*       6.9673040774E+03               0
GRID*               1314               03.5905234379E+021.7949826834E+03+
*       6.8056786323E+03               0
GRID*               1315               06.8261704423E+021.6661905498E+03+
*       6.8705407778E+03               0
GRID*               1316               01.5317861506E+021.9777699289E+03+
*       6.2548699250E+03               0
GRID*               1317               02.0648580372E+021.9855674875E+03+
*       6.1219976793E+03               0
GRID*               1318               01.5268589104E+021.8839192622E+03+
*       6.6538589774E+03               0
GRID*               1319               03.5840498697E+011.9329002772E+03+
*       6.5124530943E+03               0
GRID*               1320               02.7508525322E+021.8675987813E+03+
*       6.6606028903E+03               0
GRID*               1321               04.6902100982E+021.8427519829E+03+
*       6.6199031554E+03               0
GRID*               1322               02.6936314275E+021.9226412989E+03+
*       6.4805068617E+03               0
GRID*               1323               09.3869245552E+011.9640797123E+03+
*       6.3654807269E+03               0
GRID*               1324               02.1081475104E+021.9564220648E+03+
*       6.3577275810E+03               0
GRID*               1325               03.2289964125E+021.9403223051E+03+
*       6.3617759499E+03               0
GRID*               1326               03.2418817521E+021.9699663817E+03+
*       6.1188692035E+03               0
GRID*               1327               03.6430255641E+021.9531598650E+03+
*       6.2290179528E+03               0
GRID*               1328               04.2415627191E+021.9235888764E+03+
*       6.3462576257E+03               0
GRID*               1329               04.1871932809E+021.9528455175E+03+
*       6.1051889546E+03               0
GRID*               1330               05.3389592643E+021.9244660827E+03+
*       6.1066756791E+03               0
GRID*               1331               01.1567728141E+031.6242491366E+03+
*       6.1539078791E+03               0
GRID*               1332               01.0573414225E+031.6906670399E+03+
*       6.1538490069E+03               0
GRID*               1333               01.3788398387E+031.4405945173E+03+
*       6.1532506213E+03               0
GRID*               1334               01.2322795441E+031.5419759691E+03+
*       6.3221706324E+03               0
GRID*               1335               01.1126172558E+031.5850206554E+03+
*       6.4997872412E+03               0
GRID*               1336               01.2851895338E+031.5239667748E+03+
*       6.1606619863E+03               0
GRID*               1337               08.4436881177E+021.6412008895E+03+
*       6.7703901403E+03               0
GRID*               1338               07.2086778477E+021.7423675448E+03+
*       6.6667107889E+03               0
GRID*               1339               09.9879196393E+021.6125519639E+03+
*       6.6341024045E+03               0
GRID*               1340               09.9054419059E+021.6808663664E+03+
*       6.4398920043E+03               0
GRID*               1341               06.1853157720E+021.8234429931E+03+
*       6.5408052927E+03               0
GRID*               1342               07.6727391867E+021.7902489505E+03+
*       6.4541986018E+03               0
GRID*               1343               05.2780556072E+021.8844472512E+03+
*       6.4126477130E+03               0
GRID*               1344               05.6135932461E+021.8994117465E+03+
*       6.2776839169E+03               0
GRID*               1345               06.3344001896E+021.8900908014E+03+
*       6.1621967537E+03               0
GRID*               1346               07.4809443356E+021.8475220404E+03+
*       6.1643654365E+03               0
GRID*               1347               07.8839322309E+021.8145195825E+03+
*       6.2931730362E+03               0
GRID*               1348               08.5719818401E+021.8029635554E+03+
*       6.1205360971E+03               0
GRID*               1349               08.8997387558E+021.7449634235E+03+
*       6.4037923019E+03               0
GRID*               1350               09.6426413545E+021.7479391427E+03+
*       6.1220665258E+03               0
GRID*               1351               01.0011226848E+031.7087419205E+03+
*       6.2791906168E+03               0
GRID*               1352               0-9.910707539E+021.5659999071E+03+
*       4.1333401770E+03               0
GRID*               1353               0-8.640655930E+021.6338875667E+03+
*       4.5033799057E+03               0
GRID*               1354               0-7.928854114E+021.6745011148E+03+
*       4.6093713959E+03               0
GRID*               1355               0-9.221801359E+021.6017376757E+03+
*       4.3867607725E+03               0
GRID*               1356               0-1.333585975E+021.8396574775E+03+
*       4.9910683626E+03               0
GRID*               1357               0-3.872642420E+021.8074267549E+03+
*       4.9219687979E+03               0
GRID*               1358               01.6761645268E-011.8499999822E+03+
*       4.9999999861E+03               0
GRID*               1359               0-5.046949050E+021.7792965353E+03+
*       4.8632982760E+03               0
GRID*               1360               0-6.110701264E+021.7404825706E+03+
*       4.7915755707E+03               0
GRID*               1361               09.9111984790E+021.5659341030E+03+
*       4.1329745980E+03               0
GRID*               1362               08.6430742709E+021.6337413049E+03+
*       4.5029645192E+03               0
GRID*               1363               07.9315816873E+021.6743625961E+03+
*       4.6090150249E+03               0
GRID*               1364               09.2232495302E+021.6016987204E+03+
*       4.3864151637E+03               0
GRID*               1365               01.3368675539E+021.8396072613E+03+
*       4.9910237117E+03               0
GRID*               1366               03.8757263890E+021.8073661243E+03+
*       4.9218393446E+03               0
GRID*               1367               05.0499608420E+021.7791982398E+03+
*       4.8631216069E+03               0
GRID*               1368               06.1141409473E+021.7403469713E+03+
*       4.7913105887E+03               0
GRID*               1369               01.0000000000E+03-1.553411743E+03+
*       2.1128712566E+02               0
GRID*               1370               01.0000000000E+03-1.553411743E+03+
*       4.9700141138E+02               0
GRID*               1371               01.0000000000E+03-1.553411743E+03+
*       7.6177639879E+02               0
GRID*               1372               01.0000000000E+03-1.553411743E+03+
*       1.0474906845E+03               0
GRID*               1373               01.0000000000E+03-1.553411743E+03+
*       3.5484132854E+03               0
GRID*               1374               01.0000000000E+03-1.553411743E+03+
*       3.3357748840E+03               0
GRID*               1375               01.0000000000E+03-1.553411743E+03+
*       3.8341275711E+03               0
GRID*               1376               01.0000000000E+03-1.553411743E+03+
*       1.3405835233E+03               0
GRID*               1377               01.0000000000E+03-1.553411743E+03+
*       1.6262978090E+03               0
GRID*               1378               01.0000000000E+03-1.553411743E+03+
*       1.9198682946E+03               0
GRID*               1379               01.0000000000E+03-1.553411743E+03+
*       2.2055825803E+03               0
GRID*               1380               01.0000000000E+03-1.553411743E+03+
*       3.0500605983E+03               0
GRID*               1381               01.0000000000E+03-1.553411743E+03+
*       2.7844712888E+03               0
GRID*               1382               01.0000000000E+03-1.553411743E+03+
*       2.4987570031E+03               0
GRID*               1383               01.0000000000E+031.5534117432E+03+
*       2.1156508616E+02               0
GRID*               1384               01.0000000000E+031.5534117432E+03+
*       4.9727937187E+02               0
GRID*               1385               01.0000000000E+031.5534117432E+03+
*       7.6241633535E+02               0
GRID*               1386               01.0000000000E+031.5534117432E+03+
*       1.0481306211E+03               0
GRID*               1387               01.0000000000E+031.5534117432E+03+
*       3.5489343765E+03               0
GRID*               1388               01.0000000000E+031.5534117432E+03+
*       3.3369898862E+03               0
GRID*               1389               01.0000000000E+031.5534117432E+03+
*       3.8346486622E+03               0
GRID*               1390               01.0000000000E+031.5534117432E+03+
*       1.3415726378E+03               0
GRID*               1391               01.0000000000E+031.5534117432E+03+
*       1.6272869235E+03               0
GRID*               1392               01.0000000000E+031.5534117432E+03+
*       1.9211822928E+03               0
GRID*               1393               01.0000000000E+031.5534117432E+03+
*       2.2068965785E+03               0
GRID*               1394               01.0000000000E+031.5534117432E+03+
*       3.0512756005E+03               0
GRID*               1395               01.0000000000E+031.5534117432E+03+
*       2.7860344883E+03               0
GRID*               1396               01.0000000000E+031.5534117432E+03+
*       2.5003202026E+03               0
GRID*               1397               01.8159258062E+03-2.588190416E+02+
*       0.0000000000E+00               0
GRID*               1398               01.7632761344E+03-5.533228141E+02+
*       0.0000000000E+00               0
GRID*               1399               01.8500000000E+03-1.637110993E-13+
*       0.0000000000E+00               0
GRID*               1400               01.2071067619E+03-1.394493105E+03+
*       0.0000000000E+00               0
GRID*               1401               01.3678389056E+03-1.241833650E+03+
*       0.0000000000E+00               0
GRID*               1402               01.5267574865E+03-1.034726859E+03+
*       0.0000000000E+00               0
GRID*               1403               01.6633756709E+03-7.945037338E+02+
*       0.0000000000E+00               0
GRID*               1404               01.8159258062E+032.5881904160E+02+
*       0.0000000000E+00               0
GRID*               1405               01.7632761344E+035.5332281411E+02+
*       0.0000000000E+00               0
GRID*               1406               01.2071067619E+031.3944931049E+03+
*       0.0000000000E+00               0
GRID*               1407               01.3678389056E+031.2418336500E+03+
*       0.0000000000E+00               0
GRID*               1408               01.5267574865E+031.0347268590E+03+
*       0.0000000000E+00               0
GRID*               1409               01.6633756709E+037.9450373383E+02+
*       0.0000000000E+00               0
GRID*               1410               0-4.671191034E+021.6345631606E+03+
*       5.5185277419E+03               0
GRID*               1411               0-1.542536889E+021.6929873481E+03+
*       5.2321779606E+03               0
GRID*               1412               01.2222420107E+03-1.181576932E+03+
*       5.5609298020E+03               0
GRID*               1413               01.0181273838E+03-1.361402343E+03+
*       5.1274174530E+03               0
GRID*               1414               09.5369587046E+02-1.407289445E+03+
*       4.7478679419E+03               0
GRID*               1415               08.0199393166E+02-1.498934513E+03+
*       5.5679062287E+03               0
GRID*               1416               06.2214814494E+02-1.582065661E+03+
*       5.1895716119E+03               0
GRID*               1417               02.8453829531E+02-1.676018400E+03+
*       5.1394505428E+03               0
GRID*               1418               03.1926052196E+02-1.669751970E+03+
*       5.5305553118E+03               0
GRID*               1419               07.6375754207E+02-1.518773963E+03+
*       4.9202503580E+03               0
GRID*               1420               07.9438464344E+021.5029813831E+03+
*       4.8893450728E+03               0
GRID*               1421               01.0263758041E+031.3551950418E+03+
*       5.0160947232E+03               0
GRID*               1422               01.0585900750E+031.3301831539E+03+
*       5.4793405761E+03               0
GRID*               1423               05.2654729788E+021.6163979497E+03+
*       5.5110714467E+03               0
GRID*               1424               07.3205770726E+021.5343040565E+03+
*       5.1422428710E+03               0
GRID*               1425               01.8074944519E+021.6903635256E+03+
*       5.2297145332E+03               0
GRID*               1426               02.9226057389E+011.6997485014E+03+
*       5.5803534244E+03               0
GRID*               1427               04.4174341171E+021.6416029943E+03+
*       5.1319185093E+03               0
GRID*               1428               01.4497533798E+038.8781475834E+02+
*       5.5526280819E+03               0
GRID*               1429               01.3233507825E+031.0671181106E+03+
*       5.1222870931E+03               0
GRID*               1430               01.2151414435E+031.1888779728E+03+
*       4.7634416118E+03               0
GRID*               1431               01.0948543717E+031.3004975337E+03+
*       4.4811073974E+03               0
GRID*               1432               01.3660839512E+03-1.011837263E+03+
*       1.8123584574E+03               0
GRID*               1433               01.6125660287E+03-5.381734916E+02+
*       2.0982333087E+03               0
GRID*               1434               01.6999555218E+03-1.229398276E+01+
*       2.3932244607E+03               0
GRID*               1435               01.6235075077E+035.0420564551E+02+
*       2.6900194442E+03               0
GRID*               1436               01.3924620351E+039.7521762270E+02+
*       2.9799807267E+03               0
GRID*               1437               01.3497894983E+031.0334739057E+03+
*       1.2153785212E+03               0
GRID*               1438               01.6060106492E+035.5743134202E+02+
*       1.4703152598E+03               0
GRID*               1439               01.6999962497E+03-3.569890139E+00+
*       1.7665575323E+03               0
GRID*               1440               01.3788271811E+039.9440210322E+02+
*       2.4021455557E+03               0
GRID*               1441               01.3679597339E+031.0092998344E+03+
*       1.8075658987E+03               0
GRID*               1442               01.6165564526E+035.2606575502E+02+
*       2.0885278151E+03               0
GRID*               1443               01.6055149032E+03-5.588575948E+02+
*       1.4711333221E+03               0
GRID*               1444               01.3502696279E+03-1.032846529E+03+
*       1.2145067746E+03               0
GRID*               1445               01.6999999691E+03-3.239456188E-01+
*       1.0522387532E+03               0
GRID*               1446               01.5761907992E+03-6.368848914E+02+
*       8.7138758207E+02               0
GRID*               1447               01.3261365418E+03-1.063654739E+03+
*       6.4937756006E+02               0
GRID*               1448               01.3257453115E+031.0641423231E+03+
*       6.5025709131E+02               0
GRID*               1449               01.5760626706E+036.3720189291E+02+
*       8.7152230057E+02               0
GRID*               1450               01.6752407174E+03-2.890821258E+02+
*       4.5846708861E+02               0
GRID*               1451               01.5303943024E+03-7.401981730E+02+
*       3.9906490431E+02               0
GRID*               1452               01.5302277928E+037.4054234026E+02+
*       3.9940896293E+02               0
GRID*               1453               01.6752237386E+032.8918049935E+02+
*       4.5832978736E+02               0
GRID*               1454               01.3397098130E+031.0465069491E+03+
*       4.4489521897E+03               0
GRID*               1455               01.5634605302E+036.6752595363E+02+
*       4.4227531300E+03               0
GRID*               1456               01.6975416550E+039.1382998174E+01+
*       4.5173271342E+03               0
GRID*               1457               01.6015764779E+03-5.700460713E+02+
*       4.3593122452E+03               0
GRID*               1458               01.3514370323E+03-1.031318474E+03+
*       4.4271878475E+03               0
GRID*               1459               01.1001538627E+03-1.296017513E+03+
*       4.4813308745E+03               0
GRID*               1460               01.5379589507E+03-7.243495555E+02+
*       5.5383757504E+03               0
GRID*               1461               01.3828123323E+03-9.888528976E+02+
*       5.1223767623E+03               0
GRID*               1462               01.2287514929E+03-1.174806311E+03+
*       4.7702199210E+03               0
GRID*               1463               01.6537387209E+033.9388822628E+02+
*       5.5565066442E+03               0
GRID*               1464               01.6920633930E+03-1.640769893E+02+
*       5.5330215790E+03               0
GRID*               1465               01.5642645667E+036.6563932429E+02+
*       5.1516798779E+03               0
GRID*               1466               01.6900541917E+031.8362123698E+02+
*       5.0956317706E+03               0
GRID*               1467               01.6397768200E+03-4.484767222E+02+
*       4.9887000049E+03               0
GRID*               1468               01.4610433197E+03-8.691101113E+02+
*       4.7331793351E+03               0
GRID*               1469               01.4594067046E+038.7185550563E+02+
*       4.7846926315E+03               0
GRID*               1470               01.6205421253E+035.1365670948E+02+
*       4.7980597261E+03               0
GRID*               1471               01.2224026154E+03-1.181410990E+03+
*       3.8274480074E+03               0
GRID*               1472               01.4341394563E+03-9.128218491E+02+
*       3.5930283111E+03               0
GRID*               1473               01.6151205833E+03-5.304578150E+02+
*       3.2893700644E+03               0
GRID*               1474               01.6997347649E+03-3.002353550E+01+
*       2.9864044274E+03               0
GRID*               1475               01.3612601282E+03-1.018317707E+03+
*       3.0658199352E+03               0
GRID*               1476               01.2137152154E+03-1.190334120E+03+
*       3.4909890228E+03               0
GRID*               1477               01.3686964499E+03-1.008300565E+03+
*       2.4196920118E+03               0
GRID*               1478               01.6120649003E+03-5.396727695E+02+
*       2.7086866148E+03               0
GRID*               1479               01.6338446570E+034.6962863845E+02+
*       3.2759611598E+03               0
GRID*               1480               01.4273826809E+039.2335169217E+02+
*       3.5440329612E+03               0
GRID*               1481               01.1937778559E+031.2103279058E+03+
*       3.7987104949E+03               0
GRID*               1482               01.1870305296E+03-1.216945955E+03+
*       4.1727320434E+03               0
GRID*               1483               01.4237971894E+03-9.288709538E+02+
*       4.0299340182E+03               0
GRID*               1484               01.6127485690E+03-5.376263180E+02+
*       3.8067461621E+03               0
GRID*               1485               01.6988577625E+03-6.230455325E+01+
*       3.5485380524E+03               0
GRID*               1486               01.6943438033E+03-1.385590749E+02+
*       4.0241095244E+03               0
GRID*               1487               01.6451420406E+034.2837709989E+02+
*       3.9100670621E+03               0
GRID*               1488               01.1779018119E+031.2257839390E+03+
*       4.1763077180E+03               0
GRID*               1489               01.4158635308E+039.4091989031E+02+
*       4.0528095903E+03               0
GRID*               1490               09.5555961281E+021.4060246993E+03+
*       4.7256110999E+03               0
GRID*               1491               0-1.006584399E+031.3699590193E+03+
*       4.8042493700E+03               0
GRID*               1492               0-1.212376731E+031.1916974031E+03+
*       5.1418697991E+03               0
GRID*               1493               0-1.384331710E+039.8672444055E+02+
*       5.5529328447E+03               0
GRID*               1494               0-7.914554187E+02-1.504525791E+03+
*       5.0762756593E+03               0
GRID*               1495               0-9.515573976E+02-1.408735769E+03+
*       5.5255822002E+03               0
GRID*               1496               0-3.312529371E+02-1.667414478E+03+
*       5.3623272887E+03               0
GRID*               1497               0-5.092848683E+02-1.621921192E+03+
*       5.1291894683E+03               0
GRID*               1498               0-6.434125501E+02-1.573537418E+03+
*       5.3882368618E+03               0
GRID*               1499               0-1.574613030E+03-6.407758132E+02+
*       5.5750543690E+03               0
GRID*               1500               0-1.451006872E+03-8.857639320E+02+
*       5.1719358439E+03               0
GRID*               1501               0-1.298780033E+03-1.096891148E+03+
*       4.8046685572E+03               0
GRID*               1502               0-1.131388023E+03-1.268841970E+03+
*       4.4951150639E+03               0
GRID*               1503               0-1.365963412E+031.0119999519E+03+
*       1.8126246391E+03               0
GRID*               1504               0-1.612399112E+035.3867325970E+02+
*       2.0987782853E+03               0
GRID*               1505               0-1.699947388E+031.3372186029E+01+
*       2.3938671836E+03               0
GRID*               1506               0-1.624061091E+03-5.024196722E+02+
*       2.6894725029E+03               0
GRID*               1507               0-1.394218541E+03-9.727047358E+02+
*       2.9776128341E+03               0
GRID*               1508               0-1.349860916E+03-1.033380618E+03+
*       1.2154128321E+03               0
GRID*               1509               0-1.606126198E+03-5.570982808E+02+
*       1.4705127369E+03               0
GRID*               1510               0-1.699995027E+034.1106473617E+00+
*       1.7669328652E+03               0
GRID*               1511               0-1.379447428E+03-9.935414779E+02+
*       2.4017088939E+03               0
GRID*               1512               0-1.368197960E+03-1.008976857E+03+
*       1.8076029044E+03               0
GRID*               1513               0-1.616827626E+03-5.252316107E+02+
*       2.0885546518E+03               0
GRID*               1514               0-1.605424278E+035.5911784145E+02+
*       1.4713852775E+03               0
GRID*               1515               0-1.350204597E+031.0329315262E+03+
*       1.2146135396E+03               0
GRID*               1516               0-1.699999916E+035.3497231283E-01+
*       1.0523853864E+03               0
GRID*               1517               0-1.576148858E+036.3698856008E+02+
*       8.7148833606E+02               0
GRID*               1518               0-1.326107858E+031.0636904724E+03+
*       6.4941782282E+02               0
GRID*               1519               0-1.325769327E+03-1.064112377E+03+
*       6.5026915169E+02               0
GRID*               1520               0-1.576114912E+03-6.370725477E+02+
*       8.7159246805E+02               0
GRID*               1521               0-1.675229376E+032.8914780780E+02+
*       4.5851866502E+02               0
GRID*               1522               0-1.530374819E+037.4023845455E+02+
*       3.9910161300E+02               0
GRID*               1523               0-1.530249843E+03-7.404967767E+02+
*       3.9943088122E+02               0
GRID*               1524               0-1.675236778E+03-2.891049192E+02+
*       4.5837404586E+02               0
GRID*               1525               0-1.228800246E+031.1747553175E+03+
*       3.8206309631E+03               0
GRID*               1526               0-1.436881976E+039.0849857426E+02+
*       3.5850970371E+03               0
GRID*               1527               0-1.615239946E+035.3009404305E+02+
*       3.2854335736E+03               0
GRID*               1528               0-1.699710692E+033.1359632763E+01+
*       2.9845147641E+03               0
GRID*               1529               0-1.361872117E+031.0174988541E+03+
*       3.0637869424E+03               0
GRID*               1530               0-1.216109509E+031.1878879235E+03+
*       3.4873430801E+03               0
GRID*               1531               0-1.368663414E+031.0083453388E+03+
*       2.4196042983E+03               0
GRID*               1532               0-1.612005926E+035.3984874746E+02+
*       2.7074227742E+03               0
GRID*               1533               0-1.648983673E+03-4.133427912E+02+
*       5.1373103070E+03               0
GRID*               1534               0-1.688067060E+032.0106961695E+02+
*       5.0363459958E+03               0
GRID*               1535               0-1.506137426E+037.8838446213E+02+
*       5.1226413710E+03               0
GRID*               1536               0-1.630785507E+034.8014429998E+02+
*       5.5456153261E+03               0
GRID*               1537               0-1.697158201E+03-9.825476314E+01+
*       5.5503844742E+03               0
GRID*               1538               0-1.634950822E+03-4.657635584E+02+
*       3.2673756605E+03               0
GRID*               1539               0-1.433882493E+03-9.132253068E+02+
*       3.5313617400E+03               0
GRID*               1540               0-1.203389956E+03-1.200771682E+03+
*       3.7906512838E+03               0
GRID*               1541               0-1.207545118E+031.1965930019E+03+
*       4.1608862822E+03               0
GRID*               1542               0-1.436140991E+039.0966951776E+02+
*       3.9993733068E+03               0
GRID*               1543               0-1.613594395E+035.3508216813E+02+
*       3.7859320504E+03               0
GRID*               1544               0-1.698858304E+036.2292194353E+01+
*       3.5403966841E+03               0
GRID*               1545               0-1.541023718E+03-7.178062156E+02+
*       4.7679636366E+03               0
GRID*               1546               0-1.680021188E+03-2.598632585E+02+
*       4.6831900336E+03               0
GRID*               1547               0-1.689150727E+031.9175295383E+02+
*       4.4955873599E+03               0
GRID*               1548               0-1.571104878E+036.4932981784E+02+
*       4.6729938725E+03               0
GRID*               1549               0-1.330226996E+031.0585346873E+03+
*       4.7678481553E+03               0
GRID*               1550               0-1.388844442E+03-9.803626700E+02+
*       4.4385799738E+03               0
GRID*               1551               0-1.594145444E+03-5.905083278E+02+
*       4.3524914432E+03               0
GRID*               1552               0-1.689473143E+03-1.888911845E+02+
*       4.2951237373E+03               0
GRID*               1553               0-1.599286027E+035.7644068354E+02+
*       4.2316736470E+03               0
GRID*               1554               0-1.403147727E+039.5977932422E+02+
*       4.3848762833E+03               0
GRID*               1555               0-1.141959861E+031.2593358448E+03+
*       4.4796013160E+03               0
GRID*               1556               0-1.694712485E+031.3397406265E+02+
*       4.0378184614E+03               0
GRID*               1557               0-1.646603387E+03-4.227258708E+02+
*       3.8639499517E+03               0
GRID*               1558               0-1.199722049E+03-1.204436396E+03+
*       4.1707722762E+03               0
GRID*               1559               0-1.437613968E+03-9.073398898E+02+
*       4.0265750564E+03               0
GRID*               1560               0-1.002211577E+03-1.373163022E+03+
*       4.7873017690E+03               0
GRID*               1561               0-1.153109637E+03-1.249134727E+03+
*       5.1542286049E+03               0
GRID*               1562               0-1.305171295E+03-1.089278512E+03+
*       5.5689534769E+03               0
GRID*               1563               0-9.780793936E+021.3904519843E+03+
*       5.4994303938E+03               0
GRID*               1564               0-6.841779734E+021.5562457366E+03+
*       5.1683326508E+03               0
GRID*               1565               0-4.158192283E+021.6483607773E+03+
*       5.1399185638E+03               0
GRID*               1566               0-9.343215444E+021.4202249033E+03+
*       5.1008809076E+03               0
GRID*               1567               0-7.724056512E+021.5143940364E+03+
*       4.9294757956E+03               0
GRID*               1568               06.5837067540E+02-1.567337860E+03+
*       5.7839658985E+03               0
GRID*               1569               09.0737790785E+02-1.437589792E+03+
*       5.7839496219E+03               0
GRID*               1570               03.9611857890E+02-1.653205946E+03+
*       5.0009976195E+03               0
GRID*               1571               04.5577316226E+02-1.637763351E+03+
*       5.1645132843E+03               0
GRID*               1572               05.6441258700E+02-1.603570473E+03+
*       5.0260753444E+03               0
GRID*               1573               02.7459251316E+02-1.677676631E+03+
*       5.0518970924E+03               0
GRID*               1574               01.4277233540E+02-1.693994208E+03+
*       5.0697193582E+03               0
GRID*               1575               01.3686063519E+02-1.694482057E+03+
*       5.2009265528E+03               0
GRID*               1576               04.1481992228E+02-1.648612775E+03+
*       5.7652773033E+03               0
GRID*               1577               05.6708887412E+02-1.602625793E+03+
*       5.5492473522E+03               0
GRID*               1578               01.3781570234E+02-1.694404607E+03+
*       5.7652742841E+03               0
GRID*               1579               01.4716574129E+02-1.693618063E+03+
*       5.5577956904E+03               0
GRID*               1580               04.7275284973E+02-1.632941653E+03+
*       5.3600606500E+03               0
GRID*               1581               07.1328959100E+02-1.543118895E+03+
*       5.3787349010E+03               0
GRID*               1582               03.0191552433E+02-1.672975275E+03+
*       5.3350029973E+03               0
GRID*               1583               01.5443392779E+02-1.692970632E+03+
*       5.3964809854E+03               0
GRID*               1584               01.1190759221E+03-1.279714412E+03+
*       5.7804732684E+03               0
GRID*               1585               01.3144743394E+03-1.078033074E+03+
*       5.7804650817E+03               0
GRID*               1586               01.0244746927E+03-1.356632177E+03+
*       5.5644314403E+03               0
GRID*               1587               09.1265567505E+02-1.434245111E+03+
*       5.3476500432E+03               0
GRID*               1588               08.2752159258E+02-1.484994306E+03+
*       5.1584930365E+03               0
GRID*               1589               01.1237710257E+03-1.275593413E+03+
*       5.3441735061E+03               0
GRID*               1590               08.3386062805E+02-1.481444064E+03+
*       4.7268681108E+03               0
GRID*               1591               09.0915658355E+02-1.436465910E+03+
*       4.6259254363E+03               0
GRID*               1592               08.9440549000E+02-1.445696668E+03+
*       5.0238206630E+03               0
GRID*               1593               06.9368379436E+02-1.552031575E+03+
*       5.0549034620E+03               0
GRID*               1594               08.6052452511E+02-1.466116677E+03+
*       4.8340476974E+03               0
GRID*               1595               09.8617787731E+02-1.384721212E+03+
*       4.9376432709E+03               0
GRID*               1596               07.3616408743E+02-1.532338961E+03+
*       4.8130677218E+03               0
GRID*               1597               06.3697031426E+02-1.576156247E+03+
*       4.8914073186E+03               0
GRID*               1598               08.8377002316E+021.4522225203E+03+
*       5.0791680903E+03               0
GRID*               1599               07.6338209442E+021.5189625207E+03+
*       5.0157976512E+03               0
GRID*               1600               09.1337133558E+021.4337897234E+03+
*       4.9527153512E+03               0
GRID*               1601               01.0425574455E+031.3427859226E+03+
*       5.2477176416E+03               0
GRID*               1602               09.0112846686E+021.4415154587E+03+
*       5.3107914592E+03               0
GRID*               1603               06.3063762152E+021.5787007975E+03+
*       5.3266604221E+03               0
GRID*               1604               08.0539203077E+021.4971114939E+03+
*       5.4952202926E+03               0
GRID*               1605               09.5627200782E+021.4055403189E+03+
*       5.7396649486E+03               0
GRID*               1606               01.1745563605E+031.2289897151E+03+
*       5.7396702380E+03               0
GRID*               1607               06.9127986197E+021.5531037333E+03+
*       5.7555378770E+03               0
GRID*               1608               04.2624164587E+021.6456967110E+03+
*       5.7555281997E+03               0
GRID*               1609               09.0667998710E+011.6975805656E+03+
*       5.1148582003E+03               0
GRID*               1610               02.2294280805E+021.6853177915E+03+
*       5.0969825046E+03               0
GRID*               1611               01.3308720043E+011.6999478353E+03+
*       5.2309496577E+03               0
GRID*               1612               0-7.702834393E+011.6982539464E+03+
*       5.1160889962E+03               0
GRID*               1613               01.0508950567E+021.6967487866E+03+
*       5.4050346208E+03               0
GRID*               1614               0-6.261596960E+011.6988463584E+03+
*       5.4062663497E+03               0
GRID*               1615               0-3.519705624E+021.6631645951E+03+
*       5.7592669266E+03               0
GRID*               1616               0-6.209100491E+021.5825519569E+03+
*       5.7592796687E+03               0
GRID*               1617               0-2.213449068E+021.6855284869E+03+
*       5.5494389371E+03               0
GRID*               1618               0-3.120433480E+021.6711159453E+03+
*       5.3753571250E+03               0
GRID*               1619               0-1.032610396E+021.6968609510E+03+
*       5.7901773283E+03               0
GRID*               1620               01.7744444292E+021.6907135660E+03+
*       5.7901771377E+03               0
GRID*               1621               02.8101330184E+021.6766126519E+03+
*       5.5457079608E+03               0
GRID*               1622               04.8430821619E+021.6295522161E+03+
*       5.3214948416E+03               0
GRID*               1623               05.8934396328E+021.5945763804E+03+
*       5.1370917870E+03               0
GRID*               1624               03.5556761449E+021.6623994167E+03+
*       5.3703913032E+03               0
GRID*               1625               03.1219943495E+021.6710868288E+03+
*       5.1808200677E+03               0
GRID*               1626               03.5386283109E+021.6627631566E+03+
*       5.0480773557E+03               0
GRID*               1627               06.5311230022E+021.5695363981E+03+
*       4.8758313626E+03               0
GRID*               1628               07.5192165875E+021.5246683572E+03+
*       4.7973409843E+03               0
GRID*               1629               06.2077673476E+021.5826042697E+03+
*       5.0022835240E+03               0
GRID*               1630               04.7414169624E+021.6325407037E+03+
*       4.9971300557E+03               0
GRID*               1631               01.6999814853E+03-7.931897951E+00+
*       2.0798909978E+03               0
GRID*               1632               01.6777111375E+03-2.743817442E+02+
*       1.9323956639E+03               0
GRID*               1633               01.6770013090E+03-2.786872394E+02+
*       2.2457291130E+03               0
GRID*               1634               01.6792874709E+032.6456318728E+02+
*       1.9275429287E+03               0
GRID*               1635               01.6113598402E+035.4177425710E+02+
*       1.7794215344E+03               0
GRID*               1636               01.6766331237E+032.8089390021E+02+
*       1.6184366330E+03               0
GRID*               1637               01.6799605395E+032.6025510363E+02+
*       2.2408764138E+03               0
GRID*               1638               01.6816782625E+032.4891439696E+02+
*       2.5416222270E+03               0
GRID*               1639               01.6200691417E+035.1514655066E+02+
*       2.3892736240E+03               0
GRID*               1640               01.5040498971E+037.9235970127E+02+
*       1.6389404630E+03               0
GRID*               1641               01.3589291934E+031.0214262170E+03+
*       1.5114722191E+03               0
GRID*               1642               01.4969439947E+038.0570386884E+02+
*       1.3428467730E+03               0
GRID*               1643               01.5116892846E+037.7768594172E+02+
*       1.9480468196E+03               0
GRID*               1644               01.5158847167E+037.6947607619E+02+
*       2.2453366633E+03               0
GRID*               1645               01.3734136686E+031.0018656823E+03+
*       2.1048557259E+03               0
GRID*               1646               01.5210414390E+037.5923176673E+02+
*       2.5460825343E+03               0
GRID*               1647               01.5262612676E+037.4868320891E+02+
*       2.8350001351E+03               0
GRID*               1648               01.3856780716E+039.8483310111E+02+
*       2.6910631396E+03               0
GRID*               1649               01.2045196531E+031.1996384103E+03+
*       2.5585364346E+03               0
GRID*               1650               01.2045203156E+031.1996377668E+03+
*       2.2651128255E+03               0
GRID*               1651               01.2127963880E+031.1912703047E+03+
*       2.8474540884E+03               0
GRID*               1652               01.2127958848E+031.1912708045E+03+
*       3.1126951874E+03               0
GRID*               1653               01.1872203094E+031.2167612095E+03+
*       1.3778337799E+03               0
GRID*               1654               01.1872211576E+031.2167604017E+03+
*       1.0843917788E+03               0
GRID*               1655               01.1979968507E+031.2061523544E+03+
*       1.6739275811E+03               0
GRID*               1656               01.1979961232E+031.2061530558E+03+
*       1.9678229353E+03               0
GRID*               1657               01.1875029862E+03-1.216485332E+03+
*       1.3764087956E+03               0
GRID*               1658               01.1875038304E+03-1.216484528E+03+
*       1.0833159723E+03               0
GRID*               1659               01.1968765515E+03-1.207264040E+03+
*       1.6753347325E+03               0
GRID*               1660               01.3582181367E+03-1.022371541E+03+
*       1.5134326243E+03               0
GRID*               1661               01.6090736736E+03-5.485269383E+02+
*       1.7846833137E+03               0
GRID*               1662               01.6759132437E+03-2.851575350E+02+
*       1.6188456317E+03               0
GRID*               1663               01.5029612833E+03-7.944226717E+02+
*       1.6417457684E+03               0
GRID*               1664               01.4967733098E+03-8.060209091E+02+
*       1.3428199277E+03               0
GRID*               1665               01.5080351905E+03-7.847482465E+02+
*       1.9552958133E+03               0
GRID*               1666               01.6999988846E+03-1.946912869E+00+
*       1.4093981428E+03               0
GRID*               1667               01.6763646753E+032.8249163503E+02+
*       1.2612772166E+03               0
GRID*               1668               01.6761850629E+03-2.835554211E+02+
*       1.2616862440E+03               0
GRID*               1669               01.6687300838E+03-3.245608704E+02+
*       9.6181351062E+02               0
GRID*               1670               01.5913320972E+03-5.980486734E+02+
*       1.1712605905E+03               0
GRID*               1671               01.1734241921E+03-1.230071381E+03+
*       8.0075127808E+02               0
GRID*               1672               01.1734249364E+03-1.230070647E+03+
*       5.3597630926E+02               0
GRID*               1673               01.3382898897E+03-1.048322415E+03+
*       9.3194221914E+02               0
GRID*               1674               01.4765633324E+03-8.424729976E+02+
*       1.0429469656E+03               0
GRID*               1675               01.4667688243E+03-8.594118885E+02+
*       7.6038242875E+02               0
GRID*               1676               01.1731979970E+031.2302871178E+03+
*       8.0183097835E+02               0
GRID*               1677               01.3378534992E+031.0488792734E+03+
*       9.3281785440E+02               0
GRID*               1678               01.1731987367E+031.2302863878E+03+
*       5.3669403373E+02               0
GRID*               1679               01.5915375345E+035.9750174905E+02+
*       1.1709189228E+03               0
GRID*               1680               01.6687592875E+033.2441068267E+02+
*       9.6188087278E+02               0
GRID*               1681               01.4762828129E+038.4296445567E+02+
*       1.0434501984E+03               0
GRID*               1682               01.4665243174E+038.5982904912E+02+
*       7.6088955502E+02               0
GRID*               1683               01.6418330049E+03-4.408897176E+02+
*       2.2923348382E+02               0
GRID*               1684               01.6937988827E+03-1.450701685E+02+
*       2.2923394464E+02               0
GRID*               1685               01.1707294466E+03-1.232636309E+03+
*       2.1128747714E+02               0
GRID*               1686               01.3238033927E+03-1.066557043E+03+
*       3.2468875732E+02               0
GRID*               1687               01.4373919697E+03-9.076912572E+02+
*       5.2422122191E+02               0
GRID*               1688               01.4354010201E+03-9.108364272E+02+
*       1.9953241317E+02               0
GRID*               1689               01.5643750233E+03-6.653796371E+02+
*       1.9953248104E+02               0
GRID*               1690               01.6186114115E+03-5.197085666E+02+
*       4.2876649950E+02               0
GRID*               1691               01.5541507368E+03-6.889229821E+02+
*       6.3522623334E+02               0
GRID*               1692               01.6349902355E+03-4.656248295E+02+
*       6.6492743080E+02               0
GRID*               1693               01.4352985665E+039.1099786654E+02+
*       1.9970444229E+02               0
GRID*               1694               01.5643001782E+036.6555557728E+02+
*       1.9970450975E+02               0
GRID*               1695               01.1707294459E+031.2326363100E+03+
*       2.1156543792E+02               0
GRID*               1696               01.3236072631E+031.0668004290E+03+
*       3.2512852309E+02               0
GRID*               1697               01.4371229252E+039.0811717118E+02+
*       5.2483301778E+02               0
GRID*               1698               01.6937946222E+031.4511990283E+02+
*       2.2916529403E+02               0
GRID*               1699               01.6999999993E+034.9915515316E-02+
*       4.5839956091E+02               0
GRID*               1700               01.6418200581E+034.4093792770E+02+
*       2.2916483307E+02               0
GRID*               1701               01.6185376936E+035.1993810104E+02+
*       4.2886987917E+02               0
GRID*               1702               01.5540039370E+036.8925405746E+02+
*       6.3546562146E+02               0
GRID*               1703               01.6349297254E+034.6583725474E+02+
*       6.6492614093E+02               0
GRID*               1704               01.6937847453E+03-1.452352659E+02+
*       7.5535330691E+02               0
GRID*               1705               01.6938081360E+031.4496222798E+02+
*       7.5528465835E+02               0
GRID*               1706               01.4729714236E+03-8.487373879E+02+
*       5.7691877421E+03               0
GRID*               1707               01.5925812467E+03-5.947128620E+02+
*       5.7691880471E+03               0
GRID*               1708               01.3989198360E+03-9.659312579E+02+
*       5.5496530447E+03               0
GRID*               1709               01.4663585431E+03-8.601120323E+02+
*       5.3303761024E+03               0
GRID*               1710               01.3060882262E+03-1.088178141E+03+
*       5.3416534604E+03               0
GRID*               1711               01.2148247800E+03-1.189201474E+03+
*       5.1248977154E+03               0
GRID*               1712               01.3090863095E+03-1.084569600E+03+
*       4.9462985096E+03               0
GRID*               1713               01.1272905266E+03-1.272484151E+03+
*       4.9488185580E+03               0
GRID*               1714               01.0973765775E+03-1.298369967E+03+
*       4.7590455782E+03               0
GRID*               1715               01.0284323887E+03-1.353634672E+03+
*       4.6146013974E+03               0
GRID*               1716               09.8554611178E+02-1.385170887E+03+
*       4.4926657961E+03               0
GRID*               1717               01.1660260894E+03-1.237086143E+03+
*       4.6257754212E+03               0
GRID*               1718               01.6188165952E+035.1906921373E+02+
*       5.7782535406E+03               0
GRID*               1719               01.6821709451E+032.4556274672E+02+
*       5.7782533754E+03               0
GRID*               1720               01.5171068664E+037.6706353027E+02+
*       5.7763140465E+03               0
GRID*               1721               01.5712718495E+036.4892476638E+02+
*       5.5545677557E+03               0
GRID*               1722               01.6707909838E+03-3.137792685E+02+
*       5.7665108140E+03               0
GRID*               1723               01.6391320024E+03-4.508277124E+02+
*       5.5356991558E+03               0
GRID*               1724               01.6996497452E+03-3.449700778E+01+
*       5.7665110251E+03               0
GRID*               1725               01.6960013638E+031.1652361848E+02+
*       5.5447648722E+03               0
GRID*               1726               01.5948471634E+03-5.886095984E+02+
*       5.2635380983E+03               0
GRID*               1727               01.5352500019E+03-7.300736068E+02+
*       5.0555385250E+03               0
GRID*               1728               01.6719796129E+03-3.073826687E+02+
*       5.2608607968E+03               0
GRID*               1729               01.6999715975E+039.8238677474E+00+
*       5.3143271696E+03               0
GRID*               1730               01.6946449709E+03-1.348238444E+02+
*       5.0421668067E+03               0
GRID*               1731               01.5110992620E+037.7883155663E+02+
*       5.3521539712E+03               0
GRID*               1732               01.6147335130E+035.3163497348E+02+
*       5.3540935166E+03               0
GRID*               1733               01.3894532609E+039.7949965608E+02+
*       5.3374576730E+03               0
GRID*               1734               01.4576946035E+038.7471506340E+02+
*       5.1369833156E+03               0
GRID*               1735               01.6751996235E+032.8932021835E+02+
*       5.3260692124E+03               0
GRID*               1736               01.6449159749E+034.2924431235E+02+
*       5.1236561456E+03               0
GRID*               1737               01.3535701522E+03-1.028517265E+03+
*       4.7516999549E+03               0
GRID*               1738               01.4231862249E+03-9.298068010E+02+
*       4.9277780551E+03               0
GRID*               1739               01.2920802711E+03-1.104774830E+03+
*       4.5987040548E+03               0
GRID*               1740               01.2329196247E+03-1.170431266E+03+
*       4.4542598626E+03               0
GRID*               1741               01.4085759444E+03-9.517949823E+02+
*       4.5801836067E+03               0
GRID*               1742               01.5385882381E+03-7.230119165E+02+
*       4.5462457910E+03               0
GRID*               1743               01.4944047335E+03-8.104036291E+02+
*       4.3932499151E+03               0
GRID*               1744               01.3948047757E+039.7186395710E+02+
*       4.9534899503E+03               0
GRID*               1745               01.5153501468E+037.7052821834E+02+
*       4.9681862849E+03               0
GRID*               1746               01.2707004422E+031.1293007309E+03+
*       4.9428644758E+03               0
GRID*               1747               01.3466501551E+031.0375610495E+03+
*       4.7740675064E+03               0
GRID*               1748               01.2794015459E+031.1194334021E+03+
*       4.6061970610E+03               0
GRID*               1749               01.1563416633E+031.2461433514E+03+
*       4.6222745056E+03               0
GRID*               1750               01.2238896148E+031.1798704312E+03+
*       4.4650302363E+03               0
GRID*               1751               01.4022814041E+039.6104462078E+02+
*       4.6168224464E+03               0
GRID*               1752               01.5646060051E+03-6.648364620E+02+
*       4.8609400032E+03               0
GRID*               1753               01.6218160618E+03-5.096200916E+02+
*       4.6740061130E+03               0
GRID*               1754               01.6903483333E+03-1.808934493E+02+
*       4.7530140970E+03               0
GRID*               1755               01.6823818593E+03-2.441135384E+02+
*       4.4383202610E+03               0
GRID*               1756               01.5148859340E+037.7144051556E+02+
*       4.6037228929E+03               0
GRID*               1757               01.4638997389E+038.6429019757E+02+
*       4.4358524444E+03               0
GRID*               1758               01.6724226065E+033.0496319744E+02+
*       4.6576935135E+03               0
GRID*               1759               01.5938615688E+035.9127340842E+02+
*       4.6104065299E+03               0
GRID*               1760               01.6557561035E+033.8532006117E+02+
*       4.4700404657E+03               0
GRID*               1761               01.6944254774E+031.3755552288E+02+
*       4.8064794630E+03               0
GRID*               1762               01.6635056719E+033.5035552683E+02+
*       4.9468457653E+03               0
GRID*               1763               01.5942178385E+035.9031202482E+02+
*       4.9748698966E+03               0
GRID*               1764               01.5503482560E+036.9743828029E+02+
*       4.7913763108E+03               0
GRID*               1765               01.1153820276E+03-1.282935166E+03+
*       3.7478512781E+03               0
GRID*               1766               01.1153814902E+03-1.282935645E+03+
*       3.9137236992E+03               0
GRID*               1767               01.1106750765E+03-1.287012283E+03+
*       3.5796217768E+03               0
GRID*               1768               01.1106757544E+03-1.287011681E+03+
*       3.3669833859E+03               0
GRID*               1769               01.2180671294E+03-1.185880469E+03+
*       3.6592185153E+03               0
GRID*               1770               01.3350488315E+03-1.052446465E+03+
*       3.7102384832E+03               0
GRID*               1771               01.3311829978E+03-1.057331827E+03+
*       3.5420090426E+03               0
GRID*               1772               01.3986929892E+03-9.662597088E+02+
*       3.3294241028E+03               0
GRID*               1773               01.5365655412E+03-7.273007317E+02+
*       3.4411992105E+03               0
GRID*               1774               01.5080452450E+03-7.847288975E+02+
*       3.1775949768E+03               0
GRID*               1775               01.1939970676E+03-1.210111764E+03+
*       3.1543995704E+03               0
GRID*               1776               01.1939978290E+03-1.210111053E+03+
*       2.8888102782E+03               0
GRID*               1777               01.2903529038E+03-1.106791878E+03+
*       3.2784044490E+03               0
GRID*               1778               01.1968758024E+03-1.207264760E+03+
*       1.9689052029E+03               0
GRID*               1779               01.1984346258E+03-1.205717336E+03+
*       2.2725719841E+03               0
GRID*               1780               01.3673913404E+03-1.010069764E+03+
*       2.1160252345E+03               0
GRID*               1781               01.1984338475E+03-1.205718078E+03+
*       2.5657463910E+03               0
GRID*               1782               01.3649874702E+03-1.013315970E+03+
*       2.7427559736E+03               0
GRID*               1783               01.6768715180E+03-2.794671180E+02+
*       2.5509557694E+03               0
GRID*               1784               01.6123156377E+03-5.389231920E+02+
*       2.4034599617E+03               0
GRID*               1785               01.6753911969E+03-2.882087032E+02+
*       2.8475457279E+03               0
GRID*               1786               01.6135993200E+03-5.350674714E+02+
*       2.9990283395E+03               0
GRID*               1787               01.6762073010E+03-2.834237485E+02+
*       3.1378874539E+03               0
GRID*               1788               01.6998682583E+03-2.115894940E+01+
*       2.6898144462E+03               0
GRID*               1789               01.6829529802E+032.4014447195E+02+
*       2.8382122775E+03               0
GRID*               1790               01.5057991401E+03-7.890303274E+02+
*       2.8872532276E+03               0
GRID*               1791               01.5086839937E+03-7.835001868E+02+
*       2.5641892522E+03               0
GRID*               1792               01.5090485562E+03-7.827977972E+02+
*       2.2589625948E+03               0
GRID*               1793               01.6287675479E+034.8694563727E+02+
*       2.9829903175E+03               0
GRID*               1794               01.5341200182E+037.3244509298E+02+
*       3.1279711054E+03               0
GRID*               1795               01.6854065708E+032.2227166101E+02+
*       3.1311831644E+03               0
GRID*               1796               01.0999493738E+031.2961910720E+03+
*       3.7340036044E+03               0
GRID*               1797               01.0999489825E+031.2961914052E+03+
*       3.8993549349E+03               0
GRID*               1798               01.4101598841E+039.4944665499E+02+
*       3.2620068273E+03               0
GRID*               1799               01.2344968550E+031.1687675773E+03+
*       3.3947214296E+03               0
GRID*               1800               01.5473299538E+037.0410927446E+02+
*       3.4099972715E+03               0
GRID*               1801               01.0999499109E+031.2961906119E+03+
*       3.5220591235E+03               0
GRID*               1802               01.3184139978E+031.0732115183E+03+
*       3.6713722207E+03               0
GRID*               1803               01.0963438254E+03-1.299242142E+03+
*       4.0863657462E+03               0
GRID*               1804               01.0796057801E+03-1.313183685E+03+
*       4.2185101779E+03               0
GRID*               1805               01.2048482341E+03-1.199308212E+03+
*       4.0000900347E+03               0
GRID*               1806               01.3133392816E+03-1.079415711E+03+
*       4.1013335401E+03               0
GRID*               1807               01.3291153586E+03-1.059929719E+03+
*       3.9286913269E+03               0
GRID*               1808               01.6993728980E+03-4.616699645E+01+
*       3.2674712077E+03               0
GRID*               1809               01.6874413039E+032.0625665282E+02+
*       3.4122500289E+03               0
GRID*               1810               01.6734394410E+03-2.993331743E+02+
*       3.4189541542E+03               0
GRID*               1811               01.4289910224E+03-9.208606459E+02+
*       3.8114811708E+03               0
GRID*               1812               01.5308193356E+03-7.393187523E+02+
*       3.9183400864E+03               0
GRID*               1813               01.5349462989E+03-7.307119112E+02+
*       3.6998872423E+03               0
GRID*               1814               01.6139385575E+03-5.340433774E+02+
*       3.5480581131E+03               0
GRID*               1815               01.6727705530E+03-3.030488347E+02+
*       3.6776422025E+03               0
GRID*               1816               01.0336053818E+03-1.349688838E+03+
*       4.3728098700E+03               0
GRID*               1817               01.1442735110E+03-1.257234232E+03+
*       4.3270314526E+03               0
GRID*               1818               01.2726188859E+03-1.127138190E+03+
*       4.2999600514E+03               0
GRID*               1819               01.6620238329E+03-3.573190842E+02+
*       4.1917109180E+03               0
GRID*               1820               01.6998355869E+03-2.363765638E+01+
*       4.2707185012E+03               0
GRID*               1821               01.3885629726E+03-9.807613511E+02+
*       4.2285609432E+03               0
GRID*               1822               01.5232853238E+03-7.547196695E+02+
*       4.1946230683E+03               0
GRID*               1823               01.6072450846E+03-5.538621502E+02+
*       4.0830292471E+03               0
GRID*               1824               01.6655428475E+03-3.405393062E+02+
*       3.9154278306E+03               0
GRID*               1825               01.6396232934E+034.4903767849E+02+
*       3.5930140838E+03               0
GRID*               1826               01.5560662214E+036.8458573284E+02+
*       3.7270502656E+03               0
GRID*               1827               01.6899026164E+031.8501093437E+02+
*       3.7293029153E+03               0
GRID*               1828               01.6970290232E+03-1.004558454E+02+
*       3.7863238210E+03               0
GRID*               1829               01.6936318207E+031.4700694708E+02+
*       3.9670890265E+03               0
GRID*               1830               01.1369902773E+031.2638247236E+03+
*       4.3287075137E+03               0
GRID*               1831               01.2619913063E+031.1390248244E+03+
*       4.3126300648E+03               0
GRID*               1832               01.0914830008E+031.3033283551E+03+
*       4.0881536107E+03               0
GRID*               1833               01.1858649582E+031.2180818180E+03+
*       3.9875091078E+03               0
GRID*               1834               01.0747855230E+031.3171317922E+03+
*       4.2199400999E+03               0
GRID*               1835               01.0309420476E+031.3517242552E+03+
*       4.3723401303E+03               0
GRID*               1836               01.6798136612E+032.6120146461E+02+
*       4.2136970955E+03               0
GRID*               1837               01.6087573509E+035.4945411279E+02+
*       4.1664103083E+03               0
GRID*               1838               01.5518057732E+036.9418918665E+02+
*       3.9814385549E+03               0
GRID*               1839               01.4216502483E+039.3215356410E+02+
*       3.7984212766E+03               0
GRID*               1840               01.3117557780E+031.0813395332E+03+
*       3.9257605142E+03               0
GRID*               1841               01.3046821779E+031.0898637200E+03+
*       4.1145591994E+03               0
GRID*               1842               01.4959228488E+038.0759791732E+02+
*       4.2377812848E+03               0
GRID*               1843               01.3788020820E+039.9443695761E+02+
*       4.2508809233E+03               0
GRID*               1844               08.3511330134E+021.4807380287E+03+
*       4.7154697279E+03               0
GRID*               1845               08.7631126071E+021.4567357127E+03+
*       4.8074732630E+03               0
GRID*               1846               09.1033044045E+021.4357222886E+03+
*       4.6143946979E+03               0
GRID*               1847               09.8293223964E+021.3870276614E+03+
*       4.4921513174E+03               0
GRID*               1848               01.0265648485E+031.3550515117E+03+
*       4.6033610105E+03               0
GRID*               1849               01.0907491588E+031.3039425702E+03+
*       4.7445278250E+03               0
GRID*               1850               01.1238245362E+031.2755462536E+03+
*       4.8897679320E+03               0
GRID*               1851               09.9129463896E+021.3810628099E+03+
*       4.8708537316E+03               0
GRID*               1852               01.1836463045E+031.2202376582E+03+
*       5.0691910666E+03               0
GRID*               1853               01.1982033479E+031.2059466816E+03+
*       5.3008140455E+03               0
GRID*               1854               01.3701780799E+031.0062863077E+03+
*       5.7763142024E+03               0
GRID*               1855               01.2735295984E+031.1261091250E+03+
*       5.5159851919E+03               0
GRID*               1856               0-7.785213677E+02-1.511258825E+03+
*       5.7628005220E+03               0
GRID*               1857               0-1.016646192E+03-1.362508692E+03+
*       5.7627877399E+03               0
GRID*               1858               0-3.151001675E+02-1.670542034E+03+
*       5.7925202689E+03               0
GRID*               1859               0-1.795904597E+02-1.690487308E+03+
*       5.4736814102E+03               0
GRID*               1860               0-4.644269724E+02-1.635330248E+03+
*       5.6811592768E+03               0
GRID*               1861               0-6.190703251E+02-1.583272525E+03+
*       5.6941266450E+03               0
GRID*               1862               0-8.017244047E+02-1.499078743E+03+
*       5.4569188824E+03               0
GRID*               1863               0-4.895944034E+02-1.627971606E+03+
*       5.3752837300E+03               0
GRID*               1864               0-4.208893462E+02-1.647073252E+03+
*       5.2457441632E+03               0
GRID*               1865               0-5.768564164E+02-1.599136270E+03+
*       5.2587152734E+03               0
GRID*               1866               0-7.182690535E+02-1.540807067E+03+
*       5.2322531753E+03               0
GRID*               1867               0-8.728086507E+02-1.458837001E+03+
*       5.3009280035E+03               0
GRID*               1868               0-6.530127036E+02-1.569577704E+03+
*       5.1027250112E+03               0
GRID*               1869               0-1.723262087E+02-1.691243273E+03+
*       5.3123667058E+03               0
GRID*               1870               0-6.514725409E+02-1.570217610E+03+
*       4.9693641660E+03               0
GRID*               1871               0-7.503729502E+02-1.525431129E+03+
*       4.8908710312E+03               0
GRID*               1872               0-5.076952200E+02-1.622419584E+03+
*       4.9958295105E+03               0
GRID*               1873               0-1.386688341E+02-1.694335049E+03+
*       5.1133688558E+03               0
GRID*               1874               0-2.980270470E+02-1.673672423E+03+
*       5.1633298574E+03               0
GRID*               1875               0-3.880348606E+02-1.655122000E+03+
*       5.0467459050E+03               0
GRID*               1876               0-1.699977515E+038.7414337994E+00+
*       2.0804000242E+03               0
GRID*               1877               0-1.677626449E+032.7489912262E+02+
*       1.9328563246E+03               0
GRID*               1878               0-1.676871222E+032.7946893474E+02+
*       2.2463234707E+03               0
GRID*               1879               0-1.679399152E+03-2.638533727E+02+
*       1.9277444703E+03               0
GRID*               1880               0-1.611555585E+03-5.411916294E+02+
*       1.7795336883E+03               0
GRID*               1881               0-1.676707993E+03-2.804465881E+02+
*       1.6187236091E+03               0
GRID*               1882               0-1.680111581E+03-2.592782086E+02+
*       2.2412116326E+03               0
GRID*               1883               0-1.681895014E+03-2.474455456E+02+
*       2.5416704912E+03               0
GRID*               1884               0-1.620484526E+03-5.138382965E+02+
*       2.3890135791E+03               0
GRID*               1885               0-1.504230871E+03-7.920160867E+02+
*       1.6390583682E+03               0
GRID*               1886               0-1.359084678E+03-1.021219264E+03+
*       1.5115078794E+03               0
GRID*               1887               0-1.497059936E+03-8.054884360E+02+
*       1.3429634253E+03               0
GRID*               1888               0-1.511987994E+03-7.771050588E+02+
*       1.9480792901E+03               0
GRID*               1889               0-1.516330526E+03-7.685972479E+02+
*       2.2451322507E+03               0
GRID*               1890               0-1.373844301E+03-1.001275065E+03+
*       2.1046558974E+03               0
GRID*               1891               0-1.521702619E+03-7.579057749E+02+
*       2.5455911489E+03               0
GRID*               1892               0-1.527353011E+03-7.464534953E+02+
*       2.8335430771E+03               0
GRID*               1893               0-1.386871975E+03-9.831510367E+02+
*       2.6896608597E+03               0
GRID*               1894               0-1.204900098E+03-1.199256338E+03+
*       2.5583172011E+03               0
GRID*               1895               0-1.204900120E+03-1.199256316E+03+
*       2.2648935755E+03               0
GRID*               1896               0-1.213874640E+03-1.190171582E+03+
*       2.8462691582E+03               0
GRID*               1897               0-1.213874748E+03-1.190171474E+03+
*       3.1115102743E+03               0
GRID*               1898               0-1.187269490E+03-1.216713276E+03+
*       1.3778501971E+03               0
GRID*               1899               0-1.187269573E+03-1.216713195E+03+
*       1.0844081805E+03               0
GRID*               1900               0-1.198143854E+03-1.206006350E+03+
*       1.6739452054E+03               0
GRID*               1901               0-1.198143780E+03-1.206006422E+03+
*       1.9678405754E+03               0
GRID*               1902               0-1.187471846E+031.2165157839E+03+
*       1.3764614353E+03               0
GRID*               1903               0-1.187471929E+031.2165157024E+03+
*       1.0833685966E+03               0
GRID*               1904               0-1.196809746E+031.2073302958E+03+
*       1.6754669596E+03               0
GRID*               1905               0-1.358124569E+031.0224957686E+03+
*       1.5136190959E+03               0
GRID*               1906               0-1.608944125E+035.4890674288E+02+
*       1.7850817788E+03               0
GRID*               1907               0-1.675845644E+032.8555440017E+02+
*       1.6191598779E+03               0
GRID*               1908               0-1.502854881E+037.9462394656E+02+
*       1.6420055158E+03               0
GRID*               1909               0-1.496687201E+038.0618081031E+02+
*       1.3430000487E+03               0
GRID*               1910               0-1.507873333E+037.8505922512E+02+
*       1.9557020011E+03               0
GRID*               1911               0-1.699998412E+032.3228011525E+00+
*       1.4096591257E+03               0
GRID*               1912               0-1.676412233E+03-2.822091355E+02+
*       1.2614498705E+03               0
GRID*               1913               0-1.676145193E+032.8379085395E+02+
*       1.2618861453E+03               0
GRID*               1914               0-1.668699388E+033.2471870633E+02+
*       9.6193789606E+02               0
GRID*               1915               0-1.591264198E+035.9822933374E+02+
*       1.1714368245E+03               0
GRID*               1916               0-1.173411241E+031.2300836625E+03+
*       8.0077079903E+02               0
GRID*               1917               0-1.173411385E+031.2300835282E+03+
*       5.3599581406E+02               0
GRID*               1918               0-1.338244848E+031.0483800273E+03+
*       9.3201567290E+02               0
GRID*               1919               0-1.476510014E+038.4256637987E+02+
*       1.0430515045E+03               0
GRID*               1920               0-1.466730135E+038.5947798042E+02+
*       7.6045360356E+02               0
GRID*               1921               0-1.173215512E+03-1.230270341E+03+
*       8.0183640113E+02               0
GRID*               1922               0-1.337903619E+03-1.048815453E+03+
*       9.3284098354E+02               0
GRID*               1923               0-1.173215658E+03-1.230270205E+03+
*       5.3669944019E+02               0
GRID*               1924               0-1.591624203E+03-5.972708528E+02+
*       1.1710526216E+03               0
GRID*               1925               0-1.668792861E+03-3.242379846E+02+
*       9.6198996307E+02               0
GRID*               1926               0-1.476347404E+03-8.428512728E+02+
*       1.0435032162E+03               0
GRID*               1927               0-1.466570476E+03-8.597503823E+02+
*       7.6093133329E+02               0
GRID*               1928               0-1.641824009E+034.4092322307E+02+
*       2.2925953668E+02               0
GRID*               1929               0-1.693796109E+031.4510258161E+02+
*       2.2925950162E+02               0
GRID*               1930               0-1.170729960E+031.2326358115E+03+
*       2.1128688872E+02               0
GRID*               1931               0-1.323789171E+031.0665746868E+03+
*       3.2470890231E+02               0
GRID*               1932               0-1.437368578E+039.0772827587E+02+
*       5.2425992876E+02               0
GRID*               1933               0-1.435388761E+039.1085574245E+02+
*       1.9955099951E+02               0
GRID*               1934               0-1.564366183E+036.6540041913E+02+
*       1.9955079880E+02               0
GRID*               1935               0-1.618593690E+035.1976374719E+02+
*       4.2881013728E+02               0
GRID*               1936               0-1.554118802E+036.8899504082E+02+
*       6.3529495341E+02               0
GRID*               1937               0-1.634964682E+034.6571461888E+02+
*       6.6500361805E+02               0
GRID*               1938               0-1.435311853E+03-9.109769280E+02+
*       1.9971563261E+02               0
GRID*               1939               0-1.564310000E+03-6.655324898E+02+
*       1.9971543299E+02               0
GRID*               1940               0-1.170729959E+03-1.232635812E+03+
*       2.1156484966E+02               0
GRID*               1941               0-1.323619464E+03-1.066785283E+03+
*       3.2513456676E+02               0
GRID*               1942               0-1.437147485E+03-9.080782797E+02+
*       5.2485022659E+02               0
GRID*               1943               0-1.693797966E+03-1.450808987E+02+
*       2.2918719208E+02               0
GRID*               1944               0-1.700000000E+032.1759427674E-02+
*       4.5844663733E+02               0
GRID*               1945               0-1.641829654E+03-4.409022042E+02+
*       2.2918722714E+02               0
GRID*               1946               0-1.618556464E+03-5.198796581E+02+
*       4.2890246182E+02               0
GRID*               1947               0-1.554042266E+03-6.891676531E+02+
*       6.3551165361E+02               0
GRID*               1948               0-1.634958237E+03-4.657372471E+02+
*       6.6498337467E+02               0
GRID*               1949               0-1.693773197E+031.4536991419E+02+
*       7.5545218367E+02               0
GRID*               1950               0-1.693820717E+03-1.448151874E+02+
*       7.5537987589E+02               0
GRID*               1951               0-1.118880980E+031.2798843505E+03+
*       3.7444432382E+03               0
GRID*               1952               0-1.118880877E+031.2798844407E+03+
*       3.9103156633E+03               0
GRID*               1953               0-1.111987570E+031.2858779909E+03+
*       3.5777992943E+03               0
GRID*               1954               0-1.111987556E+031.2858780028E+03+
*       3.3651608924E+03               0
GRID*               1955               0-1.222472590E+031.1813385853E+03+
*       3.6539870230E+03               0
GRID*               1956               0-1.339470332E+031.0468136460E+03+
*       3.7028639804E+03               0
GRID*               1957               0-1.333826801E+031.0539951772E+03+
*       3.5362199987E+03               0
GRID*               1958               0-1.400436152E+039.6373153226E+02+
*       3.3244419843E+03               0
GRID*               1959               0-1.537747992E+037.2479723745E+02+
*       3.4352655869E+03               0
GRID*               1960               0-1.508380002E+037.8408530386E+02+
*       3.1746108176E+03               0
GRID*               1961               0-1.194375163E+031.2097388153E+03+
*       3.1533823536E+03               0
GRID*               1962               0-1.194375281E+031.2097386976E+03+
*       2.8877930444E+03               0
GRID*               1963               0-1.291793182E+031.1051108858E+03+
*       3.2755647924E+03               0
GRID*               1964               0-1.196809654E+031.2073303875E+03+
*       1.9690374455E+03               0
GRID*               1965               0-1.198422413E+031.2057295426E+03+
*       2.2725272777E+03               0
GRID*               1966               0-1.367314640E+031.0101735393E+03+
*       2.1161144688E+03               0
GRID*               1967               0-1.198422295E+031.2057296604E+03+
*       2.5657017004E+03               0
GRID*               1968               0-1.365275599E+031.0129275734E+03+
*       2.7416956240E+03               0
GRID*               1969               0-1.676769483E+032.8007868336E+02+
*       2.5506457170E+03               0
GRID*               1970               0-1.612202602E+035.3926111003E+02+
*       2.4031005284E+03               0
GRID*               1971               0-1.675263875E+032.8894781897E+02+
*       2.8459694823E+03               0
GRID*               1972               0-1.613630295E+035.3497387169E+02+
*       2.9964281733E+03               0
GRID*               1973               0-1.676129893E+032.8388115342E+02+
*       3.1349748527E+03               0
GRID*               1974               0-1.699852828E+032.2366322448E+01+
*       2.6891909751E+03               0
GRID*               1975               0-1.683180748E+03-2.385426081E+02+
*       2.8369942856E+03               0
GRID*               1976               0-1.506002984E+037.8864124608E+02+
*       2.8856054308E+03               0
GRID*               1977               0-1.508636647E+037.8359138140E+02+
*       2.5635140645E+03               0
GRID*               1978               0-1.508921923E+037.8304189422E+02+
*       2.2591918205E+03               0
GRID*               1979               0-1.448627937E+038.8964927411E+02+
*       5.3377871649E+03               0
GRID*               1980               0-1.374123496E+031.0008914827E+03+
*       5.1322555842E+03               0
GRID*               1981               0-1.302382310E+031.0926115966E+03+
*       5.3474010912E+03               0
GRID*               1982               0-1.528696575E+037.4369807934E+02+
*       5.5492745460E+03               0
GRID*               1983               0-1.467109994E+038.5882848770E+02+
*       5.7764665929E+03               0
GRID*               1984               0-1.589131351E+036.0387203068E+02+
*       5.7728076116E+03               0
GRID*               1985               0-1.576014724E+036.3732054490E+02+
*       5.3341282851E+03               0
GRID*               1986               0-1.665283019E+033.4180523255E+02+
*       5.2909808676E+03               0
GRID*               1987               0-1.623869750E+035.0303775856E+02+
*       5.0794938760E+03               0
GRID*               1988               0-1.683456134E+03-2.365913411E+02+
*       5.7751924452E+03               0
GRID*               1989               0-1.699437929E+034.3710359755E+01+
*       5.7751922853E+03               0
GRID*               1990               0-1.658218678E+03-3.745784190E+02+
*       5.5627199503E+03               0
GRID*               1991               0-1.622074379E+03-5.087972577E+02+
*       5.7875271873E+03               0
GRID*               1992               0-1.615805733E+03-5.283669488E+02+
*       5.3561823269E+03               0
GRID*               1993               0-1.517767854E+03-7.657550195E+02+
*       5.3734953212E+03               0
GRID*               1994               0-1.567895535E+03-6.570412952E+02+
*       5.1546232064E+03               0
GRID*               1995               0-1.680472775E+03-2.569268352E+02+
*       5.3438476821E+03               0
GRID*               1996               0-1.666850483E+033.3407757122E+02+
*       5.7728078672E+03               0
GRID*               1997               0-1.688918489E+031.9378695784E+02+
*       5.5480005657E+03               0
GRID*               1998               0-1.699216881E+035.1593276498E+01+
*       5.2933652813E+03               0
GRID*               1999               0-1.696572418E+03-1.078976421E+02+
*       5.0868287210E+03               0
GRID*               2000               0-1.629608947E+03-4.841225013E+02+
*       2.9784240784E+03               0
GRID*               2001               0-1.535652403E+03-7.292267719E+02+
*       3.1224946392E+03               0
GRID*               2002               0-1.685757897E+03-2.195905100E+02+
*       3.1259457271E+03               0
GRID*               2003               0-1.105122039E+03-1.291783230E+03+
*       3.7299744667E+03               0
GRID*               2004               0-1.105121698E+03-1.291783532E+03+
*       3.8953257917E+03               0
GRID*               2005               0-1.414360479E+03-9.431778128E+02+
*       3.2544872854E+03               0
GRID*               2006               0-1.238627035E+03-1.164389646E+03+
*       3.3883846733E+03               0
GRID*               2007               0-1.550647054E+03-6.967734243E+02+
*       3.3993690103E+03               0
GRID*               2008               0-1.105122375E+03-1.291782934E+03+
*       3.5180299891E+03               0
GRID*               2009               0-1.326445134E+03-1.063270032E+03+
*       3.6610064063E+03               0
GRID*               2010               0-1.107359494E+031.2898657299E+03+
*       4.0804432827E+03               0
GRID*               2011               0-1.090731658E+031.3039569113E+03+
*       4.2125940232E+03               0
GRID*               2012               0-1.218222158E+031.1857212359E+03+
*       3.9907586328E+03               0
GRID*               2013               0-1.329599177E+031.0593232606E+03+
*       4.0801296770E+03               0
GRID*               2014               0-1.339043579E+031.0473594522E+03+
*       3.9100020949E+03               0
GRID*               2015               0-1.699354887E+034.6827736775E+01+
*       3.2624557267E+03               0
GRID*               2016               0-1.687686749E+03-2.042377791E+02+
*       3.4038867535E+03               0
GRID*               2017               0-1.673476303E+032.9912694052E+02+
*       3.4129157972E+03               0
GRID*               2018               0-1.436511640E+039.0908406184E+02+
*       3.7922351704E+03               0
GRID*               2019               0-1.536330311E+037.2779747009E+02+
*       3.8926529409E+03               0
GRID*               2020               0-1.536626167E+037.2717260017E+02+
*       3.6855148138E+03               0
GRID*               2021               0-1.614419014E+035.3258898535E+02+
*       3.5356828076E+03               0
GRID*               2022               0-1.673012414E+033.0171068574E+02+
*       3.6631650486E+03               0
GRID*               2023               0-1.498378087E+03-8.030335834E+02+
*       4.9699499076E+03               0
GRID*               2024               0-1.378942976E+03-9.942412388E+02+
*       4.9883022935E+03               0
GRID*               2025               0-1.432495453E+03-9.153996952E+02+
*       4.7863164559E+03               0
GRID*               2026               0-1.273039832E+031.1266629861E+03+
*       4.9548588833E+03               0
GRID*               2027               0-1.178745055E+031.2249734517E+03+
*       4.7860487144E+03               0
GRID*               2028               0-1.113052309E+031.2849565227E+03+
*       4.9730597613E+03               0
GRID*               2029               0-1.602253337E+03-5.681406676E+02+
*       4.9526369303E+03               0
GRID*               2030               0-1.626713808E+03-4.937632360E+02+
*       4.7255769256E+03               0
GRID*               2031               0-1.666271454E+03-3.369541341E+02+
*       4.9102502623E+03               0
GRID*               2032               0-1.424593605E+039.2764914039E+02+
*       4.9452448446E+03               0
GRID*               2033               0-1.540189028E+037.1959547862E+02+
*       4.8978176164E+03               0
GRID*               2034               0-1.465026279E+038.6237836021E+02+
*       4.7204215323E+03               0
GRID*               2035               0-1.699741080E+03-2.966732580E+01+
*       4.8597681805E+03               0
GRID*               2036               0-1.699652770E+03-3.435598935E+01+
*       4.5893888401E+03               0
GRID*               2037               0-1.688615312E+031.9641208620E+02+
*       4.7659666790E+03               0
GRID*               2038               0-1.644921758E+034.2922288541E+02+
*       4.8546702533E+03               0
GRID*               2039               0-1.646100280E+034.2468074512E+02+
*       4.5842909603E+03               0
GRID*               2040               0-1.075685246E+031.3163970156E+03+
*       4.6419254075E+03               0
GRID*               2041               0-1.008044231E+031.3688851096E+03+
*       4.4918267904E+03               0
GRID*               2042               0-9.363319331E+021.4189019815E+03+
*       4.6541453789E+03               0
GRID*               2043               0-1.240163746E+031.1627528015E+03+
*       4.6237245601E+03               0
GRID*               2044               0-1.367581344E+031.0098120702E+03+
*       4.5763622762E+03               0
GRID*               2045               0-1.281329475E+031.1172262892E+03+
*       4.4322384538E+03               0
GRID*               2046               0-1.345074568E+03-1.039602587E+03+
*       4.6216242786E+03               0
GRID*               2047               0-1.218127889E+03-1.185818079E+03+
*       4.6498917199E+03               0
GRID*               2048               0-1.268337053E+03-1.131954533E+03+
*       4.4668471576E+03               0
GRID*               2049               0-1.470804998E+03-8.524852779E+02+
*       4.6032720608E+03               0
GRID*               2050               0-1.504187017E+03-7.920993841E+02+
*       4.3955361784E+03               0
GRID*               2051               0-1.568876110E+03-6.546964650E+02+
*       4.5602275400E+03               0
GRID*               2052               0-1.495213320E+038.0891092234E+02+
*       4.5289354592E+03               0
GRID*               2053               0-1.585614568E+036.1304684673E+02+
*       4.4523337238E+03               0
GRID*               2054               0-1.513410810E+037.7433049886E+02+
*       4.3082753606E+03               0
GRID*               2055               0-1.645404723E+03-4.273677313E+02+
*       4.5178409519E+03               0
GRID*               2056               0-1.654041291E+03-3.926150366E+02+
*       4.3238079555E+03               0
GRID*               2057               0-1.685120861E+03-2.244271249E+02+
*       4.4891568372E+03               0
GRID*               2058               0-1.699999390E+031.4397695784E+00+
*       4.3953555804E+03               0
GRID*               2059               0-1.661789850E+033.5840377037E+02+
*       4.1347465799E+03               0
GRID*               2060               0-1.655427882E+033.8672665708E+02+
*       4.3636308504E+03               0
GRID*               2061               0-1.692178065E+031.6288790506E+02+
*       4.2667029253E+03               0
GRID*               2062               0-1.055528075E+031.3326142095E+03+
*       4.3719514115E+03               0
GRID*               2063               0-1.175171486E+031.2284020762E+03+
*       4.3202436778E+03               0
GRID*               2064               0-1.310697648E+031.0826224680E+03+
*       4.2728810831E+03               0
GRID*               2065               0-1.699776305E+03-2.757531924E+01+
*       4.1664711113E+03               0
GRID*               2066               0-1.419863666E+039.3487274806E+02+
*       4.1921247758E+03               0
GRID*               2067               0-1.526835487E+037.4751149609E+02+
*       4.1155237395E+03               0
GRID*               2068               0-1.606573910E+035.5580568996E+02+
*       4.0088028812E+03               0
GRID*               2069               0-1.666267023E+033.3697688992E+02+
*       3.9118757916E+03               0
GRID*               2070               0-1.640918254E+03-4.442826432E+02+
*       3.5656627958E+03               0
GRID*               2071               0-1.559650837E+03-6.763791719E+02+
*       3.6976560761E+03               0
GRID*               2072               0-1.690219721E+03-1.820899032E+02+
*       3.7021738519E+03               0
GRID*               2073               0-1.697164154E+039.8152213069E+01+
*       3.7891075986E+03               0
GRID*               2074               0-1.693688514E+03-1.463504947E+02+
*       3.9508847418E+03               0
GRID*               2075               0-1.165997259E+03-1.237113440E+03+
*       4.3329434965E+03               0
GRID*               2076               0-1.299111680E+03-1.096498322E+03+
*       4.3046758727E+03               0
GRID*               2077               0-1.103149389E+03-1.293468268E+03+
*       4.0853862658E+03               0
GRID*               2078               0-1.201557394E+03-1.202605443E+03+
*       3.9807117798E+03               0
GRID*               2079               0-1.086565358E+03-1.307430716E+03+
*       4.2171889126E+03               0
GRID*               2080               0-1.050038855E+03-1.336943701E+03+
*       4.3793601445E+03               0
GRID*               2081               0-1.672133517E+03-3.065442493E+02+
*       4.0795370552E+03               0
GRID*               2082               0-1.622544889E+03-5.072947970E+02+
*       4.1082206346E+03               0
GRID*               2083               0-1.561034540E+03-6.731795494E+02+
*       3.9452626972E+03               0
GRID*               2084               0-1.435751481E+03-9.102841320E+02+
*       3.7789683884E+03               0
GRID*               2085               0-1.328621578E+03-1.060549150E+03+
*       3.9086130420E+03               0
GRID*               2086               0-1.327001911E+03-1.062575042E+03+
*       4.0986735213E+03               0
GRID*               2087               0-1.524139466E+03-7.529933043E+02+
*       4.1895335147E+03               0
GRID*               2088               0-1.413697339E+03-9.441715156E+02+
*       4.2325774727E+03               0
GRID*               2089               0-1.516218160E+03-7.688188984E+02+
*       5.7875274429E+03               0
GRID*               2090               0-8.597805185E+02-1.466553168E+03+
*       4.7463818045E+03               0
GRID*               2091               0-8.992247631E+02-1.442704055E+03+
*       4.9317849019E+03               0
GRID*               2092               0-9.342770518E+02-1.420255717E+03+
*       4.6452848502E+03               0
GRID*               2093               0-1.002515869E+03-1.372940155E+03+
*       4.4991969786E+03               0
GRID*               2094               0-1.068062842E+03-1.322589068E+03+
*       4.6412085113E+03               0
GRID*               2095               0-1.197592618E+03-1.206553756E+03+
*       5.7844743145E+03               0
GRID*               2096               0-1.379837893E+03-9.929987726E+02+
*       5.7844768223E+03               0
GRID*               2097               0-1.139625006E+03-1.261449053E+03+
*       5.5472720679E+03               0
GRID*               2098               0-9.806255029E+02-1.388658341E+03+
*       5.1152566562E+03               0
GRID*               2099               0-1.079433330E+03-1.313325334E+03+
*       4.9707653288E+03               0
GRID*               2100               0-1.055346824E+03-1.332757750E+03+
*       5.3399095956E+03               0
GRID*               2101               0-1.231739912E+03-1.171672718E+03+
*       5.3615909929E+03               0
GRID*               2102               0-1.457254075E+03-8.754477791E+02+
*       5.5720044376E+03               0
GRID*               2103               0-1.381843313E+03-9.902062482E+02+
*       5.3704447461E+03               0
GRID*               2104               0-1.158767963E+03-1.243887581E+03+
*       4.7959853285E+03               0
GRID*               2105               0-1.228309425E+03-1.175268525E+03+
*       4.9794485347E+03               0
GRID*               2106               0-1.314662265E+03-1.077804681E+03+
*       5.1630818754E+03               0
GRID*               2107               0-8.758082711E+021.4570380611E+03+
*       5.7497180498E+03               0
GRID*               2108               0-7.328208598E+021.5339400983E+03+
*       5.5089893058E+03               0
GRID*               2109               0-1.103698487E+031.2929998603E+03+
*       5.7497218850E+03               0
GRID*               2110               0-5.769787872E+021.5990919638E+03+
*       5.3434470205E+03               0
GRID*               2111               0-8.352369733E+021.4806685085E+03+
*       5.3338869283E+03               0
GRID*               2112               0-4.415237718E+021.6416620195E+03+
*       5.3292232905E+03               0
GRID*               2113               0-2.859052255E+021.6757857048E+03+
*       5.1860529699E+03               0
GRID*               2114               0-5.519215873E+021.6079122500E+03+
*       5.1541455566E+03               0
GRID*               2115               0-2.093999587E+021.6870540101E+03+
*       5.0983016430E+03               0
GRID*               2116               0-3.404132682E+021.6655685492E+03+
*       5.0521762308E+03               0
GRID*               2117               0-4.609426797E+021.6363164857E+03+
*       5.0013142349E+03               0
GRID*               2118               0-5.958870031E+021.5921424773E+03+
*       5.0155145645E+03               0
GRID*               2119               0-7.285929913E+021.5359527921E+03+
*       5.0489069316E+03               0
GRID*               2120               0-8.120977279E+021.4934848800E+03+
*       5.1346144613E+03               0
GRID*               2121               0-8.546521861E+021.4695476374E+03+
*       5.0151748744E+03               0
GRID*               2122               0-6.413682359E+021.5743717897E+03+
*       4.8960766887E+03               0
GRID*               2123               0-7.404860553E+021.5302551059E+03+
*       4.8177239201E+03               0
GRID*               2124               0-8.618698072E+021.4653263984E+03+
*       4.7551018466E+03               0
GRID*               2125               0-9.707847763E+021.3955557396E+03+
*       4.9525712201E+03               0
GRID*               2126               0-1.079408273E+031.3133459341E+03+
*       5.1213847732E+03               0
GRID*               2127               0-8.924183412E+021.4469234899E+03+
*       4.8668541633E+03               0
GRID*               2128               0-1.305730834E+031.0886077250E+03+
*       5.7764661923E+03               0
GRID*               2129               0-1.198337851E+031.2058135998E+03+
*       5.5261880225E+03               0
GRID*               2130               0-1.099722553E+031.2963831874E+03+
*       5.3206568020E+03               0
GRID*               2131               0-9.563171973E+021.4055078814E+03+
*       5.3001556815E+03               0
GRID*               2132               03.5126343544E+021.9689118978E+03+
*       5.7385527783E+03               0
GRID*               2133               02.3426620396E+021.9862322905E+03+
*       5.3785599115E+03               0
GRID*               2134               0-1.469556906E+031.3566141172E+03+
*       5.8415031747E+03               0
GRID*               2135               0-1.267266501E+031.5472670439E+03+
*       5.3240613258E+03               0
GRID*               2136               0-9.861488308E+021.7399742769E+03+
*       4.9752050071E+03               0
GRID*               2137               0-1.359556984E+03-1.466832758E+03+
*       8.5133636140E+02               0
GRID*               2138               0-1.693815695E+03-1.063476152E+03+
*       1.0913107149E+03               0
GRID*               2139               0-1.923784233E+03-5.468529466E+02+
*       1.3878243837E+03               0
GRID*               2140               0-1.999976583E+03-9.394233155E+00+
*       1.7068618487E+03               0
GRID*               2141               0-1.931749639E+035.1801535366E+02+
*       2.0017732425E+03               0
GRID*               2142               0-1.726513406E+031.0095293647E+03+
*       2.2894501474E+03               0
GRID*               2143               0-1.405308335E+031.4230624451E+03+
*       2.5758702284E+03               0
GRID*               2144               0-1.415754698E+031.4126702635E+03+
*       1.4051059622E+03               0
GRID*               2145               0-1.738884488E+039.8806846717E+02+
*       1.6937466229E+03               0
GRID*               2146               0-1.412697291E+031.4157277172E+03+
*       1.9943408999E+03               0
GRID*               2147               0-1.380292381E+031.4473384774E+03+
*       8.2826919232E+02               0
GRID*               2148               0-1.753596260E+039.6171691170E+02+
*       1.0293288891E+03               0
GRID*               2149               0-1.940005877E+034.8618406179E+02+
*       1.4123171382E+03               0
GRID*               2150               0-1.916464498E+03-5.719761645E+02+
*       6.6026991931E+02               0
GRID*               2151               0-1.310206096E+03-1.511076775E+03+
*       3.8884087228E+02               0
GRID*               2152               0-1.622626544E+03-1.169223310E+03+
*       4.9724826160E+02               0
GRID*               2153               0-1.893362202E+036.4434299798E+02+
*       4.8672670746E+02               0
GRID*               2154               0-1.317649767E+031.5045901916E+03+
*       3.7409890389E+02               0
GRID*               2155               0-1.632450262E+031.1554676883E+03+
*       4.4907701186E+02               0
GRID*               2156               0-1.998156492E+038.5836593050E+01+
*       5.3022266435E+02               0
GRID*               2157               0-1.952169688E+034.3477932683E+02+
*       9.1310373817E+02               0
GRID*               2158               0-1.999932480E+03-1.623358233E+01+
*       1.1045756981E+03               0
GRID*               2159               0-1.238764303E+03-1.570179206E+03+
*       4.1369101627E+03               0
GRID*               2160               0-1.499547438E+03-1.323388262E+03+
*       3.9347697355E+03               0
GRID*               2161               0-1.790969109E+03-8.901842251E+02+
*       3.6555072191E+03               0
GRID*               2162               0-1.956188225E+03-4.163261355E+02+
*       3.2342647403E+03               0
GRID*               2163               0-1.998846942E+036.7898985547E+01+
*       2.9004425938E+03               0
GRID*               2164               0-1.922203511E+035.5238579108E+02+
*       2.5906923117E+03               0
GRID*               2165               0-1.722295642E+03-1.016707847E+03+
*       1.7060129514E+03               0
GRID*               2166               0-1.740380448E+03-9.854308547E+02+
*       2.3186738204E+03               0
GRID*               2167               0-1.758596424E+03-9.525430283E+02+
*       2.9579642275E+03               0
GRID*               2168               0-1.999839773E+032.5244048913E+01+
*       2.3044528448E+03               0
GRID*               2169               0-1.933283127E+03-5.122629473E+02+
*       2.0068691843E+03               0
GRID*               2170               0-1.943330978E+03-4.727193334E+02+
*       2.6202741632E+03               0
GRID*               2171               0-1.392902404E+03-1.435207588E+03+
*       1.4181329938E+03               0
GRID*               2172               0-1.411386094E+03-1.417034847E+03+
*       2.0094996840E+03               0
GRID*               2173               0-1.423027930E+03-1.405343909E+03+
*       2.6209943033E+03               0
GRID*               2174               0-1.239542300E+03-1.569565106E+03+
*       3.7762294281E+03               0
GRID*               2175               0-1.422620513E+03-1.405756394E+03+
*       3.3176014316E+03               0
GRID*               2176               0-1.228456021E+03-1.578257073E+03+
*       4.6782228863E+03               0
GRID*               2177               0-1.450613656E+03-1.376851419E+03+
*       4.4370115614E+03               0
GRID*               2178               0-1.725569043E+03-1.011142536E+03+
*       4.2386018964E+03               0
GRID*               2179               0-1.893847690E+03-6.429159017E+02+
*       4.1166983402E+03               0
GRID*               2180               0-1.972745466E+03-3.290446990E+02+
*       3.8097112068E+03               0
GRID*               2181               0-1.996700875E+031.1482671470E+02+
*       3.4855876672E+03               0
GRID*               2182               0-1.912825743E+035.8403395567E+02+
*       3.1738814407E+03               0
GRID*               2183               0-1.713858518E+031.0308669735E+03+
*       2.8713314138E+03               0
GRID*               2184               0-1.192272685E+03-1.605763161E+03+
*       4.4149329619E+03               0
GRID*               2185               0-1.247978875E+03-1.562865463E+03+
*       5.1748096035E+03               0
GRID*               2186               0-1.442293030E+03-1.385565150E+03+
*       4.9332836898E+03               0
GRID*               2187               0-1.699657264E+03-1.054117568E+03+
*       4.7221707947E+03               0
GRID*               2188               0-1.882594475E+03-6.751578084E+02+
*       4.5325192885E+03               0
GRID*               2189               0-1.980691119E+03-2.772345998E+02+
*       4.3146216744E+03               0
GRID*               2190               0-1.994055565E+031.5408531181E+02+
*       4.0408588424E+03               0
GRID*               2191               0-1.903379212E+036.1412337502E+02+
*       3.7434761205E+03               0
GRID*               2192               0-1.701046427E+031.0518739074E+03+
*       3.4432014301E+03               0
GRID*               2193               0-1.395464025E+031.4327169836E+03+
*       3.1495631664E+03               0
GRID*               2194               0-1.203397784E+03-1.597443836E+03+
*       4.9310948754E+03               0
GRID*               2195               0-1.318764138E+03-1.503615476E+03+
*       5.7010159992E+03               0
GRID*               2196               0-1.464497724E+03-1.362074115E+03+
*       5.3943475927E+03               0
GRID*               2197               0-1.686884992E+03-1.074438628E+03+
*       5.1842635532E+03               0
GRID*               2198               0-1.869176303E+03-7.114632000E+02+
*       5.0049894670E+03               0
GRID*               2199               0-1.978146737E+03-2.948435300E+02+
*       4.8049884171E+03               0
GRID*               2200               0-1.993470786E+031.6147499976E+02+
*       4.5780686338E+03               0
GRID*               2201               0-1.895301367E+036.3861777986E+02+
*       4.3061699931E+03               0
GRID*               2202               0-1.685721139E+031.0762630696E+03+
*       4.0040512953E+03               0
GRID*               2203               0-1.381739774E+031.4459573111E+03+
*       3.7136979712E+03               0
GRID*               2204               0-1.238604850E+03-1.570304991E+03+
*       5.4204525256E+03               0
GRID*               2205               0-1.984822004E+03-2.459280462E+02+
*       5.7327364077E+03               0
GRID*               2206               0-1.970602412E+03-3.416504081E+02+
*       5.3191362070E+03               0
GRID*               2207               0-1.846468447E+03-7.684751494E+02+
*       5.4724388957E+03               0
GRID*               2208               0-1.934812698E+03-5.064571215E+02+
*       5.6411652847E+03               0
GRID*               2209               0-1.882730744E+03-6.747777207E+02+
*       5.7948008586E+03               0
GRID*               2210               0-1.941400321E+03-4.805868917E+02+
*       5.8358374581E+03               0
GRID*               2211               0-1.677930056E+03-1.088370543E+03+
*       5.5727462817E+03               0
GRID*               2212               0-1.781217855E+03-9.095396117E+02+
*       5.7833657939E+03               0
GRID*               2213               0-1.541623537E+03-1.274125808E+03+
*       5.7540618691E+03               0
GRID*               2214               0-1.672811794E+03-1.096221031E+03+
*       5.8255438494E+03               0
GRID*               2215               0-1.999390574E+034.9364814940E+01+
*       5.5070772231E+03               0
GRID*               2216               0-1.954016998E+034.2640043852E+02+
*       5.3984518937E+03               0
GRID*               2217               0-1.891418727E+036.5002702635E+02+
*       4.9211491359E+03               0
GRID*               2218               0-1.665242685E+031.1076850392E+03+
*       4.5610569917E+03               0
GRID*               2219               0-1.358567393E+031.4677505569E+03+
*       4.2579232068E+03               0
GRID*               2220               0-1.997162400E+031.0649835244E+02+
*       5.0904177189E+03               0
GRID*               2221               0-1.767685323E+039.3556855791E+02+
*       5.7685816078E+03               0
GRID*               2222               0-1.811511991E+038.4759806978E+02+
*       5.4215295079E+03               0
GRID*               2223               0-1.978760470E+032.9069768974E+02+
*       5.6962796948E+03               0
GRID*               2224               0-1.906575572E+036.0412723064E+02+
*       5.7368003314E+03               0
GRID*               2225               0-1.986559533E+032.3147516461E+02+
*       5.8731225756E+03               0
GRID*               2226               0-1.999410173E+034.8564403161E+01+
*       5.8037555934E+03               0
GRID*               2227               0-1.961079648E+033.9264053029E+02+
*       5.8649335629E+03               0
GRID*               2228               0-1.620964599E+031.1715262804E+03+
*       5.8650639421E+03               0
GRID*               2229               0-1.574757895E+031.2329384343E+03+
*       5.5809681440E+03               0
GRID*               2230               0-1.620977012E+031.1715091049E+03+
*       5.1020169089E+03               0
GRID*               2231               0-1.325098113E+031.4980363533E+03+
*       4.7916948451E+03               0
GRID*               2232               0-7.336695506E+021.8605721610E+03+
*       5.7715265145E+03               0
GRID*               2233               0-8.581807828E+021.8065224527E+03+
*       5.3739026200E+03               0
GRID*               2234               0-1.052753886E+031.7005025250E+03+
*       5.7102711364E+03               0
GRID*               2235               0-1.312438865E+031.5091397449E+03+
*       5.7503897301E+03               0
GRID*               2236               04.4318744909E+011.9995088708E+03+
*       5.7120701931E+03               0
GRID*               2237               0-2.414458843E+021.9853723399E+03+
*       5.7419888376E+03               0
GRID*               2238               0-4.604186578E+021.9462822134E+03+
*       5.8111859790E+03               0
GRID*               2239               0-4.991096361E+021.9367213219E+03+
*       5.5175139836E+03               0
GRID*               2240               0-1.511100659E+021.9942833455E+03+
*       5.3860152481E+03               0
GRID*               2241               03.0134866000E+02-1.977166862E+03+
*       5.3770593536E+03               0
GRID*               2242               04.3454306967E+02-1.952221987E+03+
*       5.7705814493E+03               0
GRID*               2243               06.8983921972E+01-1.998809911E+03+
*       5.7376344784E+03               0
GRID*               2244               0-5.599200965E+02-1.920023337E+03+
*       5.7364873696E+03               0
GRID*               2245               0-2.431645030E+02-1.985162490E+03+
*       5.4257791446E+03               0
GRID*               2246               0-2.554901738E+02-1.983613853E+03+
*       5.8187755542E+03               0
GRID*               2247               0-8.866207672E+02-1.792734930E+03+
*       5.0090683090E+03               0
GRID*               2248               0-8.635130353E+02-1.803979721E+03+
*       5.7452261392E+03               0
GRID*               2249               0-7.613725282E+02-1.849408616E+03+
*       5.3833200188E+03               0
GRID*               2250               01.4620275175E+031.3647251482E+03+
*       5.7882333357E+03               0
GRID*               2251               01.3684383880E+031.4585528531E+03+
*       5.5343052960E+03               0
GRID*               2252               01.2772436298E+031.5390413998E+03+
*       5.2044962008E+03               0
GRID*               2253               01.1021022723E+031.6689428088E+03+
*       4.8258504346E+03               0
GRID*               2254               01.0829047661E+031.6814627610E+03+
*       5.4970632879E+03               0
GRID*               2255               09.1284604046E+021.7795258337E+03+
*       5.7700572699E+03               0
GRID*               2256               01.2133650188E+031.5898879614E+03+
*       5.7954125035E+03               0
GRID*               2257               06.2585418187E+021.8995543019E+03+
*       5.8320256127E+03               0
GRID*               2258               06.8209337016E+021.8800925083E+03+
*       5.4784935762E+03               0
GRID*               2259               09.5916380373E+021.7549928721E+03+
*       5.1896673098E+03               0
GRID*               2260               09.9788022380E+02-1.733271783E+03+
*       5.0628254221E+03               0
GRID*               2261               01.1977441203E+03-1.601688900E+03+
*       5.4650676375E+03               0
GRID*               2262               01.3245165167E+03-1.498551311E+03+
*       5.7570428517E+03               0
GRID*               2263               01.0529840534E+03-1.700359549E+03+
*       5.7764674813E+03               0
GRID*               2264               08.9089495853E+02-1.790616185E+03+
*       5.4819999786E+03               0
GRID*               2265               06.2461714050E+02-1.899961360E+03+
*       5.5337597511E+03               0
GRID*               2266               06.7563192193E+02-1.882424038E+03+
*       5.2722976817E+03               0
GRID*               2267               07.5375131778E+02-1.852527703E+03+
*       5.7618541408E+03               0
GRID*               2268               01.4267487342E+031.4015662857E+03+
*       1.4293176091E+03               0
GRID*               2269               01.7418292890E+039.8286836993E+02+
*       1.7156789417E+03               0
GRID*               2270               01.9343496751E+035.0822330719E+02+
*       2.0002059930E+03               0
GRID*               2271               01.9999948965E+034.5166506012E+00+
*       2.2802965386E+03               0
GRID*               2272               01.9369191443E+03-4.983409599E+02+
*       2.5597913797E+03               0
GRID*               2273               01.7478545924E+03-9.721131258E+02+
*       2.8433859203E+03               0
GRID*               2274               01.4371018160E+03-1.390948729E+03+
*       3.1336963527E+03               0
GRID*               2275               01.4243073305E+03-1.404047271E+03+
*       2.5675733052E+03               0
GRID*               2276               01.7400883371E+03-9.859472988E+02+
*       2.2846710637E+03               0
GRID*               2277               01.9335378054E+03-5.113034238E+02+
*       2.0038033121E+03               0
GRID*               2278               01.9999708870E+03-1.078847069E+01+
*       1.7229278468E+03               0
GRID*               2279               01.9402648273E+034.8515139944E+02+
*       1.4386727522E+03               0
GRID*               2280               01.7570935435E+039.5531257682E+02+
*       1.1419631720E+03               0
GRID*               2281               01.4376567257E+031.3903751769E+03+
*       8.5936891627E+02               0
GRID*               2282               01.4229435442E+03-1.405429341E+03+
*       1.4440290145E+03               0
GRID*               2283               01.7369091398E+03-9.915372491E+02+
*       1.7266059889E+03               0
GRID*               2284               01.4206453944E+03-1.407752346E+03+
*       2.0036666783E+03               0
GRID*               2285               01.4375522331E+03-1.390483215E+03+
*       8.9889881334E+02               0
GRID*               2286               01.7381611141E+03-9.893408996E+02+
*       1.1749878900E+03               0
GRID*               2287               01.9308559997E+03-5.213395702E+02+
*       1.4493881354E+03               0
GRID*               2288               01.9306601914E+03-5.220642983E+02+
*       3.7771390495E+02               0
GRID*               2289               01.9300486313E+03-5.243207034E+02+
*       9.0511362761E+02               0
GRID*               2290               01.7464472501E+03-9.746392157E+02+
*       6.3426162532E+02               0
GRID*               2291               01.5022576484E+03-1.320311217E+03+
*       4.2088775617E+02               0
GRID*               2292               01.9997763532E+03-2.990403417E+01+
*       1.1710576187E+03               0
GRID*               2293               01.9994272412E+03-4.785640129E+01+
*       6.2892564919E+02               0
GRID*               2294               01.9502507753E+034.4330759346E+02+
*       8.8485634111E+02               0
GRID*               2295               01.9666296378E+033.6382319005E+02+
*       4.0747568077E+02               0
GRID*               2296               01.7905104446E+038.9110713697E+02+
*       5.1864360069E+02               0
GRID*               2297               01.4341565566E+031.3939852765E+03+
*       3.3573703559E+02               0
GRID*               2298               01.4302330247E+03-1.398010587E+03+
*       5.5227887800E+03               0
GRID*               2299               01.6328646586E+03-1.154881766E+03+
*       5.4271617219E+03               0
GRID*               2300               01.8422299814E+03-7.785811712E+02+
*       5.3877970756E+03               0
GRID*               2301               01.9593855721E+03-4.010088631E+02+
*       5.4480700786E+03               0
GRID*               2302               01.9990600179E+03-6.130062787E+01+
*       5.5373648320E+03               0
GRID*               2303               01.9786528406E+032.9143248016E+02+
*       5.4819522955E+03               0
GRID*               2304               01.8853653158E+036.6737986853E+02+
*       5.4612476027E+03               0
GRID*               2305               01.7234829675E+031.0146950532E+03+
*       5.5145450416E+03               0
GRID*               2306               01.5619249337E+031.2491556977E+03+
*       5.5926442281E+03               0
GRID*               2307               01.8248927750E+038.1839264013E+02+
*       5.7608319038E+03               0
GRID*               2308               01.6627281423E+031.1114563212E+03+
*       5.8053193416E+03               0
GRID*               2309               01.9943710842E+031.4994389453E+02+
*       5.7721870141E+03               0
GRID*               2310               01.9415066614E+034.8015729342E+02+
*       5.7800386886E+03               0
GRID*               2311               01.9141953275E+03-5.795312575E+02+
*       5.7291603990E+03               0
GRID*               2312               01.9780782467E+03-2.953072714E+02+
*       5.7592305269E+03               0
GRID*               2313               01.9984362795E+03-7.906156024E+01+
*       5.8194849746E+03               0
GRID*               2314               01.7791889041E+03-9.135024115E+02+
*       5.7574682413E+03               0
GRID*               2315               01.5587210254E+03-1.253151338E+03+
*       5.7779517894E+03               0
GRID*               2316               01.4179503461E+031.4104669233E+03+
*       3.1443137049E+03               0
GRID*               2317               01.7308346037E+031.0021033618E+03+
*       2.8430677770E+03               0
GRID*               2318               01.9301042660E+035.2411575761E+02+
*       2.5578964675E+03               0
GRID*               2319               01.4192754712E+031.4091334651E+03+
*       1.9996397512E+03               0
GRID*               2320               01.4159825631E+031.4124423544E+03+
*       2.5686360023E+03               0
GRID*               2321               01.7346573716E+039.9547140129E+02+
*       2.2807509395E+03               0
GRID*               2322               01.3913107882E+03-1.436751369E+03+
*       5.1806932974E+03               0
GRID*               2323               01.6854046549E+03-1.076759536E+03+
*       4.9235717680E+03               0
GRID*               2324               01.9344438463E+03-5.078648829E+02+
*       5.0134638295E+03               0
GRID*               2325               01.9916637534E+03-1.824161321E+02+
*       5.2460926687E+03               0
GRID*               2326               01.9985324201E+037.6594132423E+01+
*       5.2611786626E+03               0
GRID*               2327               01.9559280860E+034.1754644024E+02+
*       5.0686652929E+03               0
GRID*               2328               01.7768025192E+039.1813542684E+02+
*       5.1439886165E+03               0
GRID*               2329               01.5556920291E+031.2569097044E+03+
*       5.3083076558E+03               0
GRID*               2330               01.4416873964E+031.3861952580E+03+
*       3.7763122247E+03               0
GRID*               2331               01.7365249512E+039.9221000614E+02+
*       3.3876470346E+03               0
GRID*               2332               01.9265583940E+035.3700351932E+02+
*       3.1048622346E+03               0
GRID*               2333               01.9998301245E+032.6060302139E+01+
*       2.8321253149E+03               0
GRID*               2334               01.9447676367E+03-4.667742736E+02+
*       3.1125609600E+03               0
GRID*               2335               01.7700988186E+03-9.309941570E+02+
*       3.4013134488E+03               0
GRID*               2336               01.4728053046E+03-1.353086800E+03+
*       3.7013360195E+03               0
GRID*               2337               01.5346012833E+031.2825751632E+03+
*       4.8262997217E+03               0
GRID*               2338               01.2987506157E+031.5209360937E+03+
*       4.3735811220E+03               0
GRID*               2339               01.6635120198E+031.1102827232E+03+
*       4.2694026961E+03               0
GRID*               2340               01.7632958153E+039.4381560886E+02+
*       3.8393138515E+03               0
GRID*               2341               01.9213377470E+035.5539305803E+02+
*       3.6268662283E+03               0
GRID*               2342               01.9991021680E+035.9916271191E+01+
*       3.3754436783E+03               0
GRID*               2343               01.8996666755E+036.2551293000E+02+
*       4.1337477635E+03               0
GRID*               2344               01.9968174552E+031.1277785912E+02+
*       3.9140323491E+03               0
GRID*               2345               01.9571308252E+03-4.118722677E+02+
*       3.6591388405E+03               0
GRID*               2346               01.9992053997E+03-5.636416124E+01+
*       4.9566043401E+03               0
GRID*               2347               01.9917885682E+031.8104817805E+02+
*       4.5072181584E+03               0
GRID*               2348               01.8448131293E+037.7244057944E+02+
*       4.6575468925E+03               0
GRID*               2349               01.9777003622E+03-2.978274363E+02+
*       4.6366419239E+03               0
GRID*               2350               01.9706110569E+03-3.416018952E+02+
*       4.1934582876E+03               0
GRID*               2351               01.8099476598E+03-8.509342873E+02+
*       3.9577685897E+03               0
GRID*               2352               01.8623097079E+03-7.292477008E+02+
*       4.5012000676E+03               0
GRID*               2353               01.5733464686E+03-1.234739015E+03+
*       4.2897411442E+03               0
GRID*               2354               01.2822489518E+03-1.534873724E+03+
*       4.6708753591E+03               0
GRID*               2355               0-1.732724672E+039.9883107764E+02+
*       1.9916145905E+03               0
GRID*               2356               0-1.850287049E+037.5923285688E+02+
*       1.8477537337E+03               0
GRID*               2357               0-1.845557590E+037.7065779738E+02+
*       2.1455296794E+03               0
GRID*               2358               0-1.590219159E+031.2129314195E+03+
*       1.8439935835E+03               0
GRID*               2359               0-1.414235917E+031.4141907100E+03+
*       1.6997247549E+03               0
GRID*               2360               0-1.591526927E+031.2112149004E+03+
*       1.5494486082E+03               0
GRID*               2361               0-1.582662721E+031.2227747030E+03+
*       2.1419327247E+03               0
GRID*               2362               0-1.579491901E+031.2268677965E+03+
*       2.4325836315E+03               0
GRID*               2363               0-1.409034695E+031.4193729724E+03+
*       2.2851108466E+03               0
GRID*               2364               0-1.218379971E+031.5860480454E+03+
*       1.5596853080E+03               0
GRID*               2365               0-1.218381948E+031.5860465502E+03+
*       1.2739953059E+03               0
GRID*               2366               0-1.216670832E+031.5873593794E+03+
*       1.8543614994E+03               0
GRID*               2367               0-1.216670239E+031.5873598058E+03+
*       2.1400715722E+03               0
GRID*               2368               0-1.212537787E+031.5905183332E+03+
*       2.4309319963E+03               0
GRID*               2369               0-1.212538104E+031.5905180445E+03+
*       2.7167042966E+03               0
GRID*               2370               0-1.935936056E+035.0214406980E+02+
*       1.7070562746E+03               0
GRID*               2371               0-1.985509605E+032.4030332031E+02+
*       1.5595666588E+03               0
GRID*               2372               0-1.983466707E+032.5661977715E+02+
*       1.8542671491E+03               0
GRID*               2373               0-1.856473763E+037.4397768707E+02+
*       1.5529738729E+03               0
GRID*               2374               0-1.746286258E+039.7492726354E+02+
*       1.3615418055E+03               0
GRID*               2375               0-1.862034344E+037.2994970804E+02+
*       1.2208342047E+03               0
GRID*               2376               0-1.198607717E+031.6010418695E+03+
*       9.8553248338E+02               0
GRID*               2377               0-1.398140430E+031.4301054627E+03+
*       1.1166908146E+03               0
GRID*               2378               0-1.198618749E+031.6010340496E+03+
*       6.9984408087E+02               0
GRID*               2379               0-1.600619218E+031.1991738746E+03+
*       1.2171624009E+03               0
GRID*               2380               0-1.585628431E+031.2189259561E+03+
*       9.2880309215E+02               0
GRID*               2381               0-1.865061128E+03-7.221808663E+02+
*       3.3016361006E+02               0
GRID*               2382               0-1.951877157E+03-4.360906591E+02+
*       3.3015779851E+02               0
GRID*               2383               0-1.160368042E+03-1.628969339E+03+
*       4.8008762787E+02               0
GRID*               2384               0-1.187194616E+03-1.609523444E+03+
*       7.1138134330E+02               0
GRID*               2385               0-1.335063002E+03-1.489160495E+03+
*       6.2009216576E+02               0
GRID*               2386               0-1.160378144E+03-1.628961926E+03+
*       1.9442891101E+02               0
GRID*               2387               0-1.390174314E+03-1.437849463E+03+
*       1.9440046650E+02               0
GRID*               2388               0-1.718896583E+03-1.022442261E+03+
*       2.4861972952E+02               0
GRID*               2389               0-1.794555273E+03-8.829316231E+02+
*       5.7875451170E+02               0
GRID*               2390               0-1.547299034E+03-1.267224651E+03+
*       2.4863825698E+02               0
GRID*               2391               0-1.476332982E+03-1.349236156E+03+
*       4.4304033007E+02               0
GRID*               2392               0-1.498475893E+03-1.324599877E+03+
*       6.7425048292E+02               0
GRID*               2393               0-1.659060726E+03-1.116921423E+03+
*       7.9429119920E+02               0
GRID*               2394               0-1.821781292E+03-8.252914568E+02+
*       8.7574964140E+02               0
GRID*               2395               0-1.539931391E+03-1.276167907E+03+
*       9.7132048018E+02               0
GRID*               2396               0-1.851011759E+037.5746309800E+02+
*       2.4337952247E+02               0
GRID*               2397               0-1.943238801E+034.7309562280E+02+
*       2.4336736884E+02               0
GRID*               2398               0-1.164386029E+031.6260998064E+03+
*       4.7272637148E+02               0
GRID*               2399               0-1.349272450E+031.4762981933E+03+
*       6.0118351555E+02               0
GRID*               2400               0-1.164398774E+031.6260904888E+03+
*       1.8705290342E+02               0
GRID*               2401               0-1.393717198E+031.4344157361E+03+
*       1.8703070707E+02               0
GRID*               2402               0-1.513398126E+031.3075241589E+03+
*       6.3863869226E+02               0
GRID*               2403               0-1.485334533E+031.3393197339E+03+
*       4.1158463936E+02               0
GRID*               2404               0-1.695784376E+031.0603338969E+03+
*       7.3922000054E+02               0
GRID*               2405               0-1.781326702E+039.0932628411E+02+
*       4.6790155506E+02               0
GRID*               2406               0-1.830359063E+038.0608832112E+02+
*       7.5800317488E+02               0
GRID*               2407               0-1.723194160E+031.0151827894E+03+
*       2.2452891368E+02               0
GRID*               2408               0-1.552645005E+031.2606690544E+03+
*       2.2454469141E+02               0
GRID*               2409               0-1.997154386E+03-1.066441108E+02+
*       2.6512642509E+02               0
GRID*               2410               0-1.984754164E+03-2.464630983E+02+
*       5.9523335752E+02               0
GRID*               2411               0-1.990737042E+031.9225736661E+02+
*       2.6513311714E+02               0
GRID*               2412               0-1.965693849E+033.6884375078E+02+
*       5.0847263852E+02               0
GRID*               2413               0-1.925614417E+035.4037193877E+02+
*       6.9992689264E+02               0
GRID*               2414               0-1.982851198E+032.6133042521E+02+
*       7.2165535741E+02               0
GRID*               2415               0-1.871516567E+037.0528405909E+02+
*       9.7118852679E+02               0
GRID*               2416               0-1.946255984E+034.6052881458E+02+
*       1.1627128916E+03               0
GRID*               2417               0-1.999957594E+03-1.279130461E+01+
*       1.4057252342E+03               0
GRID*               2418               0-1.979718287E+03-2.840913874E+02+
*       1.2461686892E+03               0
GRID*               2419               0-1.980203177E+03-2.806921825E+02+
*       1.5473187470E+03               0
GRID*               2420               0-1.985918336E+032.3690151355E+02+
*       1.2584111054E+03               0
GRID*               2421               0-1.988875387E+032.1064285010E+02+
*       1.0088294357E+03               0
GRID*               2422               0-1.920168283E+03-5.594166107E+02+
*       1.0240535064E+03               0
GRID*               2423               0-1.827143030E+03-8.133522027E+02+
*       1.2395607139E+03               0
GRID*               2424               0-1.977816954E+03-2.970393878E+02+
*       8.8241281013E+02               0
GRID*               2425               0-1.999695132E+033.4829443666E+01+
*       8.1741031463E+02               0
GRID*               2426               0-1.876657332E+03-6.914891758E+02+
*       3.0960923849E+03               0
GRID*               2427               0-1.775054504E+03-9.215101821E+02+
*       3.3066617825E+03               0
GRID*               2428               0-1.888458928E+03-6.585763497E+02+
*       3.4447991191E+03               0
GRID*               2429               0-1.949975137E+03-4.445179479E+02+
*       2.9272328974E+03               0
GRID*               2430               0-1.992278092E+03-1.755786407E+02+
*       3.0672615263E+03               0
GRID*               2431               0-1.989538012E+03-2.042926217E+02+
*       2.7603435116E+03               0
GRID*               2432               0-1.866431074E+03-7.186340873E+02+
*       2.7890429478E+03               0
GRID*               2433               0-1.859617186E+03-7.360863980E+02+
*       2.4694594508E+03               0
GRID*               2434               0-1.749576131E+03-9.690108685E+02+
*       2.6382954162E+03               0
GRID*               2435               0-1.851992390E+03-7.550640079E+02+
*       2.1627059447E+03               0
GRID*               2436               0-1.845103423E+03-7.717441994E+02+
*       1.8564269845E+03               0
GRID*               2437               0-1.731423883E+03-1.001084226E+03+
*       2.0123358606E+03               0
GRID*               2438               0-1.938420927E+03-4.924662653E+02+
*       2.3135645181E+03               0
GRID*               2439               0-1.999455185E+034.6659154541E+01+
*       2.6024478691E+03               0
GRID*               2440               0-1.975431987E+033.1251447386E+02+
*       2.7454832685E+03               0
GRID*               2441               0-1.978650421E+032.9144156820E+02+
*       2.4475229538E+03               0
GRID*               2442               0-1.987242060E+03-2.255304632E+02+
*       2.4622952811E+03               0
GRID*               2443               0-1.984843649E+03-2.457453307E+02+
*       2.1556340128E+03               0
GRID*               2444               0-1.928618848E+03-5.295512582E+02+
*       1.6973483876E+03               0
GRID*               2445               0-1.982640112E+03-2.629297600E+02+
*       1.8568182129E+03               0
GRID*               2446               0-1.838100869E+03-7.882763169E+02+
*       1.5468676968E+03               0
GRID*               2447               0-1.708224066E+03-1.040175501E+03+
*       1.3986646964E+03               0
GRID*               2448               0-1.927033494E+035.3529261133E+02+
*       2.2962581459E+03               0
GRID*               2449               0-1.981168499E+032.7379886904E+02+
*       2.1530677467E+03               0
GRID*               2450               0-1.838591130E+037.8713310396E+02+
*       2.4400358272E+03               0
GRID*               2451               0-1.999982912E+037.9730683352E+00+
*       2.0056662992E+03               0
GRID*               2452               0-1.554486889E+03-1.258397838E+03+
*       1.2546655231E+03               0
GRID*               2453               0-1.571577385E+03-1.236988952E+03+
*       1.5620649379E+03               0
GRID*               2454               0-1.376325964E+03-1.451110868E+03+
*       1.1347401393E+03               0
GRID*               2455               0-1.187181159E+03-1.609532818E+03+
*       9.9703962996E+02               0
GRID*               2456               0-1.205595943E+03-1.595786382E+03+
*       1.2804932507E+03               0
GRID*               2457               0-1.579552671E+03-1.226789297E+03+
*       1.8576926104E+03               0
GRID*               2458               0-1.590597396E+03-1.212435421E+03+
*       2.1640749436E+03               0
GRID*               2459               0-1.402176567E+03-1.426148107E+03+
*       1.7138143476E+03               0
GRID*               2460               0-1.205587581E+03-1.595792584E+03+
*       1.5661416469E+03               0
GRID*               2461               0-1.215933228E+03-1.587924408E+03+
*       1.8618832599E+03               0
GRID*               2462               0-1.595550587E+03-1.205909627E+03+
*       2.4697633029E+03               0
GRID*               2463               0-1.606848788E+03-1.190813528E+03+
*       2.7894667983E+03               0
GRID*               2464               0-1.417229456E+03-1.411190998E+03+
*       2.3152307194E+03               0
GRID*               2465               0-1.215918823E+03-1.587935407E+03+
*       2.1475440594E+03               0
GRID*               2466               0-1.222502015E+03-1.582873224E+03+
*       2.4533383293E+03               0
GRID*               2467               0-1.239153339E+03-1.569872205E+03+
*       3.9565697954E+03               0
GRID*               2468               0-1.374744083E+03-1.452610082E+03+
*       4.0358583662E+03               0
GRID*               2469               0-1.375096031E+03-1.452276845E+03+
*       3.8554171390E+03               0
GRID*               2470               0-1.122238615E+03-1.655467204E+03+
*       4.0684469111E+03               0
GRID*               2471               0-1.129652210E+03-1.650416844E+03+
*       4.2055731564E+03               0
GRID*               2472               0-1.122646876E+03-1.655190340E+03+
*       3.8881070480E+03               0
GRID*               2473               0-1.122647737E+03-1.655189759E+03+
*       3.6023942378E+03               0
GRID*               2474               0-1.606623082E+03-1.191118030E+03+
*       3.1376943136E+03               0
GRID*               2475               0-1.627379419E+03-1.162598921E+03+
*       3.4864499009E+03               0
GRID*               2476               0-1.422836103E+03-1.405538158E+03+
*       2.9692586745E+03               0
GRID*               2477               0-1.222475079E+03-1.582894012E+03+
*       2.7390533122E+03               0
GRID*               2478               0-1.222311563E+03-1.583020256E+03+
*       3.0873866600E+03               0
GRID*               2479               0-1.222275330E+03-1.583048215E+03+
*       3.3732256998E+03               0
GRID*               2480               0-1.461616845E+03-1.365165034E+03+
*       3.6260953762E+03               0
GRID*               2481               0-1.659395411E+03-1.116425593E+03+
*       3.7950630550E+03               0
GRID*               2482               0-1.333477447E+03-1.490581782E+03+
*       3.5468157238E+03               0
GRID*               2483               0-1.105406014E+03-1.666754797E+03+
*       4.3445886218E+03               0
GRID*               2484               0-1.215660035E+03-1.588133266E+03+
*       4.2759227518E+03               0
GRID*               2485               0-1.112759208E+03-1.661854285E+03+
*       4.4796349433E+03               0
GRID*               2486               0-1.131551095E+03-1.649115619E+03+
*       4.6112770501E+03               0
GRID*               2487               0-1.138630161E+03-1.644235729E+03+
*       4.7426318093E+03               0
GRID*               2488               0-1.210445557E+03-1.592110678E+03+
*       4.5465782853E+03               0
GRID*               2489               0-1.720176879E+031.0202888731E+03+
*       2.5804375310E+03               0
GRID*               2490               0-1.571795517E+031.2367124719E+03+
*       2.7236474501E+03               0
GRID*               2491               0-1.833697545E+037.9846693136E+02+
*       2.7309126645E+03               0
GRID*               2492               0-1.326447845E+03-1.496841227E+03+
*       4.4259911372E+03               0
GRID*               2493               0-1.343323603E+03-1.481714897E+03+
*       4.5576518410E+03               0
GRID*               2494               0-1.348196432E+03-1.477282445E+03+
*       4.2868864185E+03               0
GRID*               2495               0-1.475338863E+03-1.350323772E+03+
*       4.1859074269E+03               0
GRID*               2496               0-1.917535781E+035.6837798064E+02+
*       2.8823126844E+03               0
GRID*               2497               0-1.827025433E+038.1361839170E+02+
*       3.0224925873E+03               0
GRID*               2498               0-1.972788405E+033.2878974201E+02+
*       3.0371578202E+03               0
GRID*               2499               0-1.997907715E+039.1455522272E+01+
*       3.1929644867E+03               0
GRID*               2500               0-1.968810167E+033.5182971735E+02+
*       3.3295969528E+03               0
GRID*               2501               0-1.994211618E+03-1.520522658E+02+
*       3.3599123718E+03               0
GRID*               2502               0-1.964956462E+03-3.727522640E+02+
*       3.5219086680E+03               0
GRID*               2503               0-1.997085647E+03-1.079277486E+02+
*       3.6475542499E+03               0
GRID*               2504               0-1.902662198E+03-6.163412506E+02+
*       3.7325746924E+03               0
GRID*               2505               0-1.846578616E+03-7.682096503E+02+
*       3.8860418107E+03               0
GRID*               2506               0-1.939634055E+03-4.876664730E+02+
*       3.9631615385E+03               0
GRID*               2507               0-1.620118912E+03-1.172695513E+03+
*       4.0866489153E+03               0
GRID*               2508               0-1.598602881E+03-1.201860478E+03+
*       4.3378315927E+03               0
GRID*               2509               0-1.759283605E+03-9.512733159E+02+
*       3.9469822407E+03               0
GRID*               2510               0-1.819044436E+03-8.313097633E+02+
*       4.1776377942E+03               0
GRID*               2511               0-1.998060258E+03-8.806001507E+01+
*       3.9252463763E+03               0
GRID*               2512               0-1.995473500E+031.3448159976E+02+
*       3.7631004254E+03               0
GRID*               2513               0-1.976883208E+03-3.031974854E+02+
*       4.0620808902E+03               0
GRID*               2514               0-1.999036764E+03-6.206051848E+01+
*       4.1776906323E+03               0
GRID*               2515               0-1.965940875E+033.6752574665E+02+
*       3.6144919015E+03               0
GRID*               2516               0-1.908120596E+035.9922859136E+02+
*       3.4585797556E+03               0
GRID*               2517               0-1.962283772E+033.8657743461E+02+
*       3.8920160486E+03               0
GRID*               2518               0-1.400456147E+031.4278377269E+03+
*       2.8627495406E+03               0
GRID*               2519               0-1.207025915E+031.5947046506E+03+
*       3.0038027048E+03               0
GRID*               2520               0-1.567590516E+031.2420381665E+03+
*       3.0102697212E+03               0
GRID*               2521               0-1.822023697E+038.2475894377E+02+
*       3.3085788372E+03               0
GRID*               2522               0-1.815567439E+038.3887613352E+02+
*       3.5930490046E+03               0
GRID*               2523               0-1.707321831E+031.0416572422E+03+
*       3.1573654126E+03               0
GRID*               2524               0-1.559797060E+031.2518113550E+03+
*       3.2963291138E+03               0
GRID*               2525               0-1.125651768E+03-1.653148372E+03+
*       4.8690721890E+03               0
GRID*               2526               0-1.215966372E+03-1.587898747E+03+
*       4.8046591473E+03               0
GRID*               2527               0-1.132505368E+03-1.648460808E+03+
*       4.9958812693E+03               0
GRID*               2528               0-1.155634454E+03-1.632329624E+03+
*       5.1177360826E+03               0
GRID*               2529               0-1.162156263E+03-1.627693104E+03+
*       5.2399490604E+03               0
GRID*               2530               0-1.225825673E+03-1.580300798E+03+
*       5.0529535760E+03               0
GRID*               2531               0-1.327116482E+03-1.496248573E+03+
*       4.9322111050E+03               0
GRID*               2532               0-1.348073259E+03-1.477395080E+03+
*       5.0540919701E+03               0
GRID*               2533               0-1.338857371E+03-1.485751842E+03+
*       4.8057281246E+03               0
GRID*               2534               0-1.446450923E+03-1.381223963E+03+
*       4.6851496638E+03               0
GRID*               2535               0-1.583406969E+03-1.221810946E+03+
*       4.5795337230E+03               0
GRID*               2536               0-1.712733265E+03-1.032735575E+03+
*       4.4803870451E+03               0
GRID*               2537               0-1.579722108E+03-1.226571512E+03+
*       4.8277759013E+03               0
GRID*               2538               0-1.945889368E+03-4.620753060E+02+
*       4.2156307537E+03               0
GRID*               2539               0-1.888274915E+03-6.591037833E+02+
*       4.3245777617E+03               0
GRID*               2540               0-1.941853569E+03-4.787521173E+02+
*       4.4235683687E+03               0
GRID*               2541               0-1.811899441E+03-8.467695508E+02+
*       4.3855270756E+03               0
GRID*               2542               0-1.801130679E+03-8.694402830E+02+
*       4.6273695149E+03               0
GRID*               2543               0-1.205615124E+03-1.595772173E+03+
*       5.6212920432E+03               0
GRID*               2544               0-1.211630401E+03-1.591210159E+03+
*       5.7366536734E+03               0
GRID*               2545               0-1.355571681E+03-1.470518108E+03+
*       5.4074179174E+03               0
GRID*               2546               0-1.279118180E+03-1.537483695E+03+
*       5.5607339613E+03               0
GRID*               2547               0-1.393456220E+03-1.434670517E+03+
*       5.5477226484E+03               0
GRID*               2548               0-1.359949048E+03-1.466470833E+03+
*       5.2845848740E+03               0
GRID*               2549               0-1.453430146E+03-1.373877934E+03+
*       5.1638348142E+03               0
GRID*               2550               0-1.243297424E+03-1.566592241E+03+
*       5.2976310638E+03               0
GRID*               2551               0-1.157296898E+03-1.631152289E+03+
*       5.3627731440E+03               0
GRID*               2552               0-1.163603286E+03-1.626660018E+03+
*       5.4810119972E+03               0
GRID*               2553               0-1.207005000E+031.5947204106E+03+
*       3.2897057067E+03               0
GRID*               2554               0-1.388544282E+031.4394242903E+03+
*       3.4319682405E+03               0
GRID*               2555               0-1.554146898E+031.2588192519E+03+
*       3.5786119628E+03               0
GRID*               2556               0-1.198960476E+031.6007764668E+03+
*       3.5730953261E+03               0
GRID*               2557               0-1.572308941E+03-1.236059956E+03+
*       5.0587542597E+03               0
GRID*               2558               0-1.693282729E+03-1.064327303E+03+
*       4.9532425055E+03               0
GRID*               2559               0-1.582273152E+03-1.223278914E+03+
*       5.2893532726E+03               0
GRID*               2560               0-1.693305920E+031.0642897994E+03+
*       3.7232373353E+03               0
GRID*               2561               0-1.545687160E+031.2691925110E+03+
*       3.8575466304E+03               0
GRID*               2562               0-1.809236869E+038.5244361266E+02+
*       3.8734644029E+03               0
GRID*               2563               0-1.899366897E+036.2642269628E+02+
*       4.0246014318E+03               0
GRID*               2564               0-1.803916143E+038.6364610730E+02+
*       4.1548724281E+03               0
GRID*               2565               0-1.959673791E+033.9959800949E+02+
*       4.1734034462E+03               0
GRID*               2566               0-1.993775917E+031.5766264134E+02+
*       4.3093472223E+03               0
GRID*               2567               0-1.958984346E+034.0296431774E+02+
*       4.4421062489E+03               0
GRID*               2568               0-1.999153971E+03-5.816295182E+01+
*       4.4462812205E+03               0
GRID*               2569               0-1.792620678E+03-8.868537706E+02+
*       4.8635508114E+03               0
GRID*               2570               0-1.875948762E+03-6.934091610E+02+
*       4.7687630709E+03               0
GRID*               2571               0-1.787291753E+03-8.975450272E+02+
*       5.0946649553E+03               0
GRID*               2572               0-1.939717277E+03-4.873353772E+02+
*       4.6687150394E+03               0
GRID*               2573               0-1.934913379E+03-5.060723870E+02+
*       4.9050250127E+03               0
GRID*               2574               0-1.979422829E+03-2.861503773E+02+
*       4.5597667473E+03               0
GRID*               2575               0-1.998872643E+03-6.713860868E+01+
*       4.6915514557E+03               0
GRID*               2576               0-1.199442129E+031.6004155823E+03+
*       3.8588408503E+03               0
GRID*               2577               0-1.858017755E+03-7.401147933E+02+
*       5.2387765959E+03               0
GRID*               2578               0-1.773258778E+03-9.249611199E+02+
*       5.3283508539E+03               0
GRID*               2579               0-1.954443551E+03-4.244410290E+02+
*       5.4802035378E+03               0
GRID*               2580               0-1.964136756E+03-3.770498282E+02+
*       5.6869472978E+03               0
GRID*               2581               0-1.978269877E+03-2.940174801E+02+
*       5.5260065724E+03               0
GRID*               2582               0-1.928751728E+03-5.290711137E+02+
*       5.1620433518E+03               0
GRID*               2583               0-1.974488122E+03-3.184252628E+02+
*       5.0621122535E+03               0
GRID*               2584               0-1.920446634E+03-5.584664588E+02+
*       5.3958127244E+03               0
GRID*               2585               0-1.895157430E+03-6.390447994E+02+
*       5.5568020037E+03               0
GRID*               2586               0-1.898318821E+03-6.295916261E+02+
*       5.8974232393E+03               0
GRID*               2587               0-1.859308003E+03-7.368674470E+02+
*       5.8974237530E+03               0
GRID*               2588               0-1.966619471E+03-3.638783543E+02+
*       5.7842970885E+03               0
GRID*               2589               0-1.938144481E+03-4.935533312E+02+
*       5.7385211963E+03               0
GRID*               2590               0-1.976738941E+03-3.041403143E+02+
*       5.8664189796E+03               0
GRID*               2591               0-1.990870530E+03-1.908788575E+02+
*       5.8664198006E+03               0
GRID*               2592               0-1.955061487E+03-4.215855622E+02+
*       5.9179367201E+03               0
GRID*               2593               0-1.927818626E+03-5.324610183E+02+
*       5.9179363293E+03               0
GRID*               2594               0-1.914525033E+03-5.784411034E+02+
*       5.8153195599E+03               0
GRID*               2595               0-1.910630340E+03-5.911784088E+02+
*       5.7179991245E+03               0
GRID*               2596               0-1.682406030E+03-1.081438622E+03+
*       5.3785474761E+03               0
GRID*               2597               0-1.577148934E+03-1.229878390E+03+
*       5.4835622933E+03               0
GRID*               2598               0-1.865167205E+03-7.219080290E+02+
*       5.6336593389E+03               0
GRID*               2599               0-1.815220469E+03-8.396266440E+02+
*       5.6279491542E+03               0
GRID*               2600               0-1.835736707E+03-7.937696032E+02+
*       5.7890803186E+03               0
GRID*               2601               0-1.769462256E+03-9.322034221E+02+
*       5.5226083835E+03               0
GRID*               2602               0-1.731861863E+03-1.000326290E+03+
*       5.6780677363E+03               0
GRID*               2603               0-1.573993006E+03-1.233914756E+03+
*       5.8770523933E+03               0
GRID*               2604               0-1.501011155E+03-1.321727841E+03+
*       5.8770542109E+03               0
GRID*               2605               0-1.808358475E+03-8.543054350E+02+
*       5.8917026573E+03               0
GRID*               2606               0-1.609671909E+03-1.186994669E+03+
*       5.7898077510E+03               0
GRID*               2607               0-1.675370121E+03-1.092307074E+03+
*       5.6991708458E+03               0
GRID*               2608               0-1.612473704E+03-1.183185777E+03+
*       5.6634272292E+03               0
GRID*               2609               0-1.639794634E+03-1.145021203E+03+
*       5.9127831900E+03               0
GRID*               2610               0-1.702474284E+03-1.049561574E+03+
*       5.9127830155E+03               0
GRID*               2611               0-1.729540746E+03-1.004334067E+03+
*       5.8044560303E+03               0
GRID*               2612               0-1.756654199E+03-9.561201312E+02+
*       5.8917040796E+03               0
GRID*               2613               0-1.503687762E+03-1.318681963E+03+
*       5.5742426719E+03               0
GRID*               2614               0-1.434778393E+03-1.393345246E+03+
*       5.7276069764E+03               0
GRID*               2615               0-1.198303559E+03-1.601270685E+03+
*       5.8861448877E+03               0
GRID*               2616               0-1.306152575E+03-1.514583836E+03+
*       5.8505081439E+03               0
GRID*               2617               0-1.390440269E+03-1.437593658E+03+
*       5.8505875172E+03               0
GRID*               2618               0-1.369411728E+031.4576380038E+03+
*       3.9841007076E+03               0
GRID*               2619               0-1.190720556E+031.6069142938E+03+
*       4.1286538139E+03               0
GRID*               2620               0-1.533756179E+031.2835850638E+03+
*       4.1301196284E+03               0
GRID*               2621               0-1.675409162E+031.0922465907E+03+
*       4.2824639208E+03               0
GRID*               2622               0-1.521441988E+031.2981577170E+03+
*       4.4110430405E+03               0
GRID*               2623               0-1.795551988E+038.8090369208E+02+
*       4.4334099323E+03               0
GRID*               2624               0-1.893504984E+036.4392453427E+02+
*       4.6136208650E+03               0
GRID*               2625               0-1.957741708E+034.0895874709E+02+
*       4.7494806036E+03               0
GRID*               2626               0-1.792935415E+038.8621727457E+02+
*       4.7413627911E+03               0
GRID*               2627               0-1.994597083E+03-1.469091410E+02+
*       5.4130953807E+03               0
GRID*               2628               0-1.997572914E+03-9.849848592E+01+
*       5.6199471051E+03               0
GRID*               2629               0-1.982076246E+032.6715590617E+02+
*       5.2444299361E+03               0
GRID*               2630               0-1.998486884E+037.7778993064E+01+
*       5.2988194978E+03               0
GRID*               2631               0-1.985667517E+032.3900613849E+02+
*       5.4527536374E+03               0
GRID*               2632               0-1.963171501E+033.8204384221E+02+
*       5.0058000884E+03               0
GRID*               2633               0-1.995522735E+031.3374903872E+02+
*       4.8342562584E+03               0
GRID*               2634               0-1.926021266E+035.3892651988E+02+
*       5.1599139897E+03               0
GRID*               2635               0-1.996500275E+03-1.182637895E+02+
*       5.2048167175E+03               0
GRID*               2636               0-1.997756665E+03-9.469820121E+01+
*       4.9476611707E+03               0
GRID*               2637               0-1.894514042E+036.4094967422E+02+
*       5.4099554662E+03               0
GRID*               2638               0-1.854317129E+037.4933829729E+02+
*       5.1715803641E+03               0
GRID*               2639               0-1.863047177E+037.2736174426E+02+
*       5.5791844690E+03               0
GRID*               2640               0-1.844609144E+037.7292753405E+02+
*       5.7526762196E+03               0
GRID*               2641               0-1.790259003E+038.9161172798E+02+
*       5.5951603921E+03               0
GRID*               2642               0-1.967566789E+033.5872034369E+02+
*       5.5474189946E+03               0
GRID*               2643               0-1.992741645E+031.7023737800E+02+
*       5.6016903204E+03               0
GRID*               2644               0-1.932402891E+035.1557558309E+02+
*       5.5677096025E+03               0
GRID*               2645               0-1.948982810E+034.4884899736E+02+
*       5.7165309500E+03               0
GRID*               2646               0-1.811240348E+038.4817837882E+02+
*       5.8843223322E+03               0
GRID*               2647               0-1.759915667E+039.5010350405E+02+
*       5.8843471011E+03               0
GRID*               2648               0-1.880186802E+036.8183402046E+02+
*       5.8684785793E+03               0
GRID*               2649               0-1.995084036E+031.4014098106E+02+
*       5.8384425902E+03               0
GRID*               2650               0-1.982882703E+032.6110308009E+02+
*       5.7847253693E+03               0
GRID*               2651               0-1.992764572E+031.6996876667E+02+
*       5.7500213557E+03               0
GRID*               2652               0-1.999402353E+034.8885370780E+01+
*       5.6554758496E+03               0
GRID*               2653               0-1.997549098E+03-9.898032313E+01+
*       5.7682477468E+03               0
GRID*               2654               0-1.998752062E+037.0637088033E+01+
*       5.9019125558E+03               0
GRID*               2655               0-1.993407868E+031.6224983917E+02+
*       5.9365745381E+03               0
GRID*               2656               0-1.999526927E+03-4.349321918E+01+
*       5.9019090142E+03               0
GRID*               2657               0-1.980901877E+032.7572825253E+02+
*       5.9365789402E+03               0
GRID*               2658               0-1.936708284E+034.9915924862E+02+
*       5.8008728955E+03               0
GRID*               2659               0-1.970589437E+033.4172528107E+02+
*       5.7806303464E+03               0
GRID*               2660               0-1.916003414E+035.7352517490E+02+
*       5.8684642684E+03               0
GRID*               2661               0-1.944462224E+034.6804461387E+02+
*       5.9324900831E+03               0
GRID*               2662               0-1.975462785E+033.1232201692E+02+
*       5.8690283609E+03               0
GRID*               2663               0-1.967998272E+033.5634554219E+02+
*       5.9324840649E+03               0
GRID*               2664               0-1.556682033E+031.2556833719E+03+
*       5.9325647673E+03               0
GRID*               2665               0-1.478792223E+031.3465410164E+03+
*       5.9207774664E+03               0
GRID*               2666               0-1.548026299E+031.2663389351E+03+
*       5.8532826858E+03               0
GRID*               2667               0-1.625774919E+031.1648416013E+03+
*       5.9325518489E+03               0
GRID*               2668               0-1.689578539E+031.0701977542E+03+
*       5.9325355922E+03               0
GRID*               2669               0-1.698459516E+031.0560462395E+03+
*       5.8168301846E+03               0
GRID*               2670               0-1.450285449E+031.3771971429E+03+
*       5.6656573692E+03               0
GRID*               2671               0-1.290460896E+031.5279757972E+03+
*       5.5372821823E+03               0
GRID*               2672               0-1.429803686E+031.3984496829E+03+
*       5.4523766915E+03               0
GRID*               2673               0-1.598249251E+031.2023307175E+03+
*       5.7230569785E+03               0
GRID*               2674               0-1.523547881E+031.2956856210E+03+
*       5.7112803228E+03               0
GRID*               2675               0-1.677805051E+031.0885632223E+03+
*       5.6747189235E+03               0
GRID*               2676               0-1.704155590E+031.0468294582E+03+
*       5.5012587886E+03               0
GRID*               2677               0-1.136949052E+031.6453983724E+03+
*       4.3923190359E+03               0
GRID*               2678               0-1.775649428E+039.2036337556E+02+
*       5.0115167226E+03               0
GRID*               2679               0-1.644205752E+031.1386779356E+03+
*       4.8323110232E+03               0
GRID*               2680               0-1.723954702E+031.0138925386E+03+
*       5.2615442001E+03               0
GRID*               2681               0-1.598451439E+031.2020619016E+03+
*       5.3416214171E+03               0
GRID*               2682               0-1.344139812E+031.4809744995E+03+
*       4.5288234228E+03               0
GRID*               2683               0-1.509167402E+031.3124073026E+03+
*       4.6768338086E+03               0
GRID*               2684               0-1.108067611E+031.6649862206E+03+
*       4.6467064828E+03               0
GRID*               2685               0-1.161955250E+031.6278355791E+03+
*       4.8812681883E+03               0
GRID*               2686               0-9.347935883E+021.7680953328E+03+
*       4.7410945603E+03               0
GRID*               2687               0-1.482394598E+031.3425741234E+03+
*       4.9458316992E+03               0
GRID*               2688               0-1.296342120E+031.5229890969E+03+
*       5.0579174434E+03               0
GRID*               2689               0-1.130308687E+031.6499680671E+03+
*       5.1488621354E+03               0
GRID*               2690               0-1.456563474E+031.3705555565E+03+
*       5.2132201025E+03               0
GRID*               2691               0-8.969910998E+021.7875698641E+03+
*       5.7410150849E+03               0
GRID*               2692               0-7.968078429E+021.8344198167E+03+
*       5.5728450046E+03               0
GRID*               2693               0-9.574330013E+021.7559388484E+03+
*       5.5415977132E+03               0
GRID*               2694               0-1.003249939E+031.7301703569E+03+
*       5.8552279160E+03               0
GRID*               2695               0-1.100348539E+031.6700997247E+03+
*       5.8550912937E+03               0
GRID*               2696               0-7.398188556E+021.8581355764E+03+
*       5.8856820500E+03               0
GRID*               2697               0-6.323476930E+021.8974022436E+03+
*       5.8857890053E+03               0
GRID*               2698               0-8.448241982E+021.8128072471E+03+
*       5.8855871912E+03               0
GRID*               2699               0-1.399580697E+031.4286965814E+03+
*       5.9207987043E+03               0
GRID*               2700               0-1.319302605E+031.5031430305E+03+
*       5.8752468448E+03               0
GRID*               2701               0-1.393091878E+031.4350243191E+03+
*       5.7959183304E+03               0
GRID*               2702               0-1.231429913E+031.5759378519E+03+
*       5.8753069068E+03               0
GRID*               2703               0-1.186511817E+031.6100272980E+03+
*       5.7302749796E+03               0
GRID*               2704               0-1.071061479E+031.6890313833E+03+
*       5.3485135353E+03               0
GRID*               2705               0-9.219524990E+021.7748246105E+03+
*       5.1754642958E+03               0
GRID*               2706               0-1.163102342E+031.6270184017E+03+
*       5.5175265938E+03               0
GRID*               2707               01.9874935147E+021.9901002227E+03+
*       5.7252140441E+03               0
GRID*               2708               02.9477180194E+021.9781579191E+03+
*       5.5570909273E+03               0
GRID*               2709               01.3972451905E+021.9951132661E+03+
*       5.5450829925E+03               0
GRID*               2710               09.7282996133E+011.9976325404E+03+
*       5.8557269730E+03               0
GRID*               2711               0-1.730525076E+011.9999251125E+03+
*       5.8556716464E+03               0
GRID*               2712               03.6388038813E+021.9666191870E+03+
*       5.8690535415E+03               0
GRID*               2713               05.0162332344E+021.9360713675E+03+
*       5.9159942149E+03               0
GRID*               2714               04.9000542190E+021.9390442666E+03+
*       5.7857766152E+03               0
GRID*               2715               02.5066667837E+021.9842292410E+03+
*       5.8692194777E+03               0
GRID*               2716               0-4.950608452E+021.9377602232E+03+
*       5.9053745725E+03               0
GRID*               2717               0-5.987483924E+021.9082714413E+03+
*       5.7912075460E+03               0
GRID*               2718               0-3.831044941E+021.9629647917E+03+
*       5.9054482209E+03               0
GRID*               2719               0-2.739426408E+021.9811497184E+03+
*       5.8707775381E+03               0
GRID*               2720               0-3.516172822E+021.9688485432E+03+
*       5.7770853950E+03               0
GRID*               2721               0-1.599348438E+021.9935949056E+03+
*       5.8708866062E+03               0
GRID*               2722               0-9.930044723E+011.9975330108E+03+
*       5.7268182185E+03               0
GRID*               2723               0-7.555976295E+021.8517755105E+03+
*       4.9309771519E+03               0
GRID*               2724               0-6.860725607E+021.8786440456E+03+
*       5.1212961686E+03               0
GRID*               2725               0-7.457804399E+011.9986090073E+03+
*       5.1960568977E+03               0
GRID*               2726               04.0801499750E+011.9995837455E+03+
*       5.3823247257E+03               0
GRID*               2727               01.1556978180E+021.9966581375E+03+
*       5.1949848269E+03               0
GRID*               2728               0-3.392864065E+021.9710110000E+03+
*       5.1455358319E+03               0
GRID*               2729               0-5.090099946E+021.9341428940E+03+
*       5.1952332190E+03               0
GRID*               2730               0-6.823302151E+021.8800065672E+03+
*       5.4443784443E+03               0
GRID*               2731               0-3.284819661E+021.9728394938E+03+
*       5.4550870380E+03               0
GRID*               2732               0-6.179198792E+021.9021494103E+03+
*       5.6434583884E+03               0
GRID*               2733               0-5.496781295E+011.9992443745E+03+
*       5.5501797073E+03               0
GRID*               2734               0-3.703609714E+021.9654080745E+03+
*       5.6306588029E+03               0
GRID*               2735               0-1.982737869E+021.9901476272E+03+
*       5.5632762875E+03               0
GRID*               2736               0-4.793061264E+021.9417171905E+03+
*       5.6640615327E+03               0
GRID*               2737               0-9.527359641E+02-1.758493659E+03+
*       4.4147059183E+03               0
GRID*               2738               0-9.509590858E+02-1.759452865E+03+
*       4.5412471997E+03               0
GRID*               2739               02.5310987290E+02-1.983918906E+03+
*       5.7538607716E+03               0
GRID*               2740               01.8630420398E+02-1.991303820E+03+
*       5.5572482748E+03               0
GRID*               2741               03.6997384361E+02-1.965481942E+03+
*       5.5729897368E+03               0
GRID*               2742               01.3129878785E+02-1.995685426E+03+
*       5.8685574766E+03               0
GRID*               2743               01.6822943385E+01-1.999929236E+03+
*       5.8686651021E+03               0
GRID*               2744               04.2665612772E+02-1.953961015E+03+
*       5.8852346609E+03               0
GRID*               2745               05.3764950266E+02-1.926378047E+03+
*       5.8851696951E+03               0
GRID*               2746               03.1428001226E+02-1.975152557E+03+
*       5.8853186514E+03               0
GRID*               2747               0-9.374898882E+01-1.997801156E+03+
*       5.7785116498E+03               0
GRID*               2748               0-1.453511179E+02-1.994711075E+03+
*       5.9093034448E+03               0
GRID*               2749               02.8450957831E+01-1.999797605E+03+
*       5.4012705661E+03               0
GRID*               2750               0-1.183989563E+02-1.996492359E+03+
*       5.2179031749E+03               0
GRID*               2751               01.4824621160E+02-1.994498349E+03+
*       5.1956071063E+03               0
GRID*               2752               0-8.760605354E+01-1.998080009E+03+
*       5.5821403693E+03               0
GRID*               2753               0-2.500685397E+02-1.984304608E+03+
*       5.6219382289E+03               0
GRID*               2754               0-4.087887300E+02-1.957776962E+03+
*       5.7772734053E+03               0
GRID*               2755               0-4.039467442E+02-1.958781365E+03+
*       5.5805305220E+03               0
GRID*               2756               0-2.593635613E+02-1.983111109E+03+
*       5.9092617190E+03               0
GRID*               2757               0-5.238044165E+02-1.930188813E+03+
*       5.8679390115E+03               0
GRID*               2758               0-6.337829289E+02-1.896923288E+03+
*       5.8678184624E+03               0
GRID*               2759               0-3.724781108E+02-1.965008878E+03+
*       5.9092555279E+03               0
GRID*               2760               0-9.691925019E+02-1.749475989E+03+
*       4.9116183731E+03               0
GRID*               2761               0-9.750351640E+02-1.746226444E+03+
*       5.0355715110E+03               0
GRID*               2762               0-8.827113986E+02-1.794664294E+03+
*       4.7642894500E+03               0
GRID*               2763               0-6.984564111E+02-1.874075347E+03+
*       4.9473542786E+03               0
GRID*               2764               0-9.562499064E+02-1.756583131E+03+
*       4.6652771267E+03               0
GRID*               2765               0-7.854268559E+02-1.839321680E+03+
*       5.8728877662E+03               0
GRID*               2766               0-7.146410923E+02-1.867963431E+03+
*       5.7413325177E+03               0
GRID*               2767               0-1.008627368E+03-1.727041028E+03+
*       5.8869935793E+03               0
GRID*               2768               0-9.836887978E+02-1.741366220E+03+
*       5.7589919916E+03               0
GRID*               2769               0-9.771454385E+02-1.745046366E+03+
*       5.6443674303E+03               0
GRID*               2770               0-8.892869059E+02-1.791414887E+03+
*       5.8725355518E+03               0
GRID*               2771               0-9.279125590E+02-1.771715887E+03+
*       5.4627522440E+03               0
GRID*               2772               0-8.123477533E+02-1.827591257E+03+
*       5.5641571883E+03               0
GRID*               2773               0-9.817789922E+02-1.742443765E+03+
*       5.1550635628E+03               0
GRID*               2774               0-9.211782247E+02-1.775226322E+03+
*       5.3454393644E+03               0
GRID*               2775               0-8.221581043E+02-1.823199372E+03+
*       5.1960484232E+03               0
GRID*               2776               0-3.820960568E+02-1.963161403E+03+
*       5.1597863071E+03               0
GRID*               2777               0-6.619027737E+02-1.887294472E+03+
*       5.5616727560E+03               0
GRID*               2778               0-5.102399315E+02-1.933818788E+03+
*       5.4084142861E+03               0
GRID*               2779               0-6.288101132E+02-1.898577595E+03+
*       5.1297706311E+03               0
GRID*               2780               01.2310039247E+031.5762703459E+03+
*       5.5157276151E+03               0
GRID*               2781               01.3235768554E+031.4993813155E+03+
*       5.3694599544E+03               0
GRID*               2782               01.1828924200E+031.6126884415E+03+
*       5.3517573409E+03               0
GRID*               2783               01.4209890132E+031.4074055973E+03+
*       5.8941919369E+03               0
GRID*               2784               01.4989468754E+031.3240686051E+03+
*       5.8941415754E+03               0
GRID*               2785               09.6421015603E+021.7522266895E+03+
*       5.8849826731E+03               0
GRID*               2786               08.6260489141E+021.8044148130E+03+
*       5.8850756317E+03               0
GRID*               2787               01.1493760383E+031.6367449788E+03+
*       5.6460397338E+03               0
GRID*               2788               09.9923021126E+021.7324940760E+03+
*       5.6335062659E+03               0
GRID*               2789               01.0673783527E+031.6913609875E+03+
*       5.7826525302E+03               0
GRID*               2790               01.2928019773E+031.5259956747E+03+
*       5.6650826150E+03               0
GRID*               2791               01.3424858675E+031.4824748912E+03+
*       5.7918624724E+03               0
GRID*               2792               01.4160622731E+031.4123625520E+03+
*       5.6612794016E+03               0
GRID*               2793               01.2978941176E+031.5216670597E+03+
*       5.8976805580E+03               0
GRID*               2794               01.2089448007E+031.5932516420E+03+
*       5.8977210112E+03               0
GRID*               2795               01.1160433022E+031.6596527821E+03+
*       5.8977613732E+03               0
GRID*               2796               07.1972292712E+021.8660113322E+03+
*       5.9158452617E+03               0
GRID*               2797               07.7180020476E+021.8450809408E+03+
*       5.8010982934E+03               0
GRID*               2798               06.1171985102E+021.9041530517E+03+
*       5.9159019503E+03               0
GRID*               2799               03.8076075132E+021.9634208234E+03+
*       5.1365634186E+03               0
GRID*               2800               08.2553636211E+021.8216721600E+03+
*       4.8620660657E+03               0
GRID*               2801               09.8816596415E+021.7388291872E+03+
*       4.6636775021E+03               0
GRID*               2802               04.6446194018E+021.9453206124E+03+
*       5.4298137028E+03               0
GRID*               2803               05.1841876835E+021.9316411490E+03+
*       5.6100434731E+03               0
GRID*               2804               07.3809549548E+021.8588205343E+03+
*       5.0307504222E+03               0
GRID*               2805               01.0347795494E+031.7114997104E+03+
*       5.0128297789E+03               0
GRID*               2806               05.9814381221E+021.9084610958E+03+
*       5.1729606771E+03               0
GRID*               2807               08.2234770069E+021.8231138648E+03+
*       5.3327836410E+03               0
GRID*               2808               01.1247208906E+031.6537844117E+03+
*       5.1970669451E+03               0
GRID*               2809               01.1917203643E+031.6061759050E+03+
*       5.0153225146E+03               0
GRID*               2810               01.0224739877E+031.7188776022E+03+
*       5.3425973974E+03               0
GRID*               2811               08.8801256195E+021.7920473910E+03+
*       5.4868224130E+03               0
GRID*               2812               06.5380282670E+021.8901167615E+03+
*       5.6552481022E+03               0
GRID*               2813               07.9912671342E+021.8334100368E+03+
*       5.6238995985E+03               0
GRID*               2814               01.1930697311E+03-1.605173788E+03+
*       5.7667145216E+03               0
GRID*               2815               01.1268761478E+03-1.652316597E+03+
*       5.6209243498E+03               0
GRID*               2816               01.2624290468E+03-1.551216491E+03+
*       5.6110209040E+03               0
GRID*               2817               01.2821576702E+03-1.534949977E+03+
*       5.8786375501E+03               0
GRID*               2818               01.3675276992E+03-1.459406742E+03+
*       5.8785697498E+03               0
GRID*               2819               01.0522446874E+03-1.700817287E+03+
*       5.8882813683E+03               0
GRID*               2820               09.5348338669E+02-1.758086840E+03+
*       5.8883794472E+03               0
GRID*               2821               01.1475393659E+03-1.638033210E+03+
*       5.8881834926E+03               0
GRID*               2822               07.6201297704E+02-1.849144447E+03+
*       4.9714892713E+03               0
GRID*               2823               09.4143299319E+02-1.764568176E+03+
*       4.7849292569E+03               0
GRID*               2824               04.1265239870E+02-1.956965894E+03+
*       5.1332320335E+03               0
GRID*               2825               09.4440811006E+02-1.762977814E+03+
*       5.2720144193E+03               0
GRID*               2826               01.1000316797E+03-1.670308318E+03+
*       5.2633908542E+03               0
GRID*               2827               01.0485895596E+03-1.703072513E+03+
*       5.4733664296E+03               0
GRID*               2828               08.3878622475E+02-1.815609509E+03+
*       5.1699875191E+03               0
GRID*               2829               05.9296333220E+02-1.910077151E+03+
*       5.0676499703E+03               0
GRID*               2830               07.8457017337E+02-1.839686827E+03+
*       5.3783800418E+03               0
GRID*               2831               06.5197645443E+02-1.890747394E+03+
*       5.4042650166E+03               0
GRID*               2832               07.5992512632E+02-1.850003530E+03+
*       5.5082168677E+03               0
GRID*               2833               04.9533697287E+02-1.937689115E+03+
*       5.3275810429E+03               0
GRID*               2834               04.6566073754E+02-1.945033764E+03+
*       5.4548977258E+03               0
GRID*               2835               05.9626821306E+02-1.909047990E+03+
*       5.7662967339E+03               0
GRID*               2836               06.9662720538E+02-1.874755903E+03+
*       5.8809021916E+03               0
GRID*               2837               06.8990876265E+02-1.877238635E+03+
*       5.6476738613E+03               0
GRID*               2838               08.2330168279E+02-1.822682941E+03+
*       5.6221879621E+03               0
GRID*               2839               05.3037053727E+02-1.928393566E+03+
*       5.6521582763E+03               0
GRID*               2840               08.0263325690E+02-1.831878678E+03+
*       5.8808215575E+03               0
GRID*               2841               09.0666616075E+02-1.782682409E+03+
*       5.7691594901E+03               0
GRID*               2842               09.7325958088E+02-1.747215983E+03+
*       5.6291134528E+03               0
GRID*               2843               01.2307019484E+031.5765063919E+03+
*       1.0010059789E+03               0
GRID*               2844               01.2307109720E+031.5764993554E+03+
*       7.1539697672E+02               0
GRID*               2845               01.2245436632E+031.5812945313E+03+
*       1.2861017066E+03               0
GRID*               2846               01.4322187643E+031.3959761557E+03+
*       1.1443406453E+03               0
GRID*               2847               01.6074497734E+031.1900021449E+03+
*       1.2855431201E+03               0
GRID*               2848               01.5980342497E+031.2026164759E+03+
*       1.5725194716E+03               0
GRID*               2849               01.7495177263E+039.6911680310E+02+
*       1.4288196003E+03               0
GRID*               2850               01.6120919408E+031.1837058387E+03+
*       1.0006950156E+03               0
GRID*               2851               01.9842014694E+032.5088747761E+02+
*       1.8614804273E+03               0
GRID*               2852               01.9832257038E+032.5848751931E+02+
*       2.1401889419E+03               0
GRID*               2853               01.9999975364E+03-3.138165811E+00+
*       2.0016266217E+03               0
GRID*               2854               01.9856590096E+032.3907773806E+02+
*       1.5807608186E+03               0
GRID*               2855               01.9373409616E+034.9669860685E+02+
*       1.7194489904E+03               0
GRID*               2856               01.8577762831E+037.4072060014E+02+
*       1.5770777146E+03               0
GRID*               2857               01.8635517905E+037.2606785275E+02+
*       1.2903200616E+03               0
GRID*               2858               01.8533286906E+037.5177955344E+02+
*       1.8579258970E+03               0
GRID*               2859               01.2304041893E+03-1.576738692E+03+
*       2.9957969247E+03               0
GRID*               2860               01.2304106891E+03-1.576733601E+03+
*       3.2816218557E+03               0
GRID*               2861               01.2231799181E+03-1.582349570E+03+
*       2.7124955389E+03               0
GRID*               2862               01.4307457225E+03-1.397485886E+03+
*       2.8506513523E+03               0
GRID*               2863               01.6006488779E+03-1.199134113E+03+
*       2.7054985244E+03               0
GRID*               2864               01.5959128982E+03-1.205430072E+03+
*       2.4259879437E+03               0
GRID*               2865               01.7439504270E+03-9.790998129E+02+
*       2.5640572683E+03               0
GRID*               2866               01.6061497915E+03-1.191755892E+03+
*       2.9882957615E+03               0
GRID*               2867               01.9836009958E+03-2.555916358E+02+
*       2.1419861421E+03               0
GRID*               2868               01.9826102996E+03-2.631660794E+02+
*       1.8632823058E+03               0
GRID*               2869               01.9844457423E+03-2.489479974E+02+
*       2.4199466493E+03               0
GRID*               2870               01.9352305576E+03-5.048586209E+02+
*       2.2818142680E+03               0
GRID*               2871               01.8545727501E+03-7.487053428E+02+
*       2.4221854797E+03               0
GRID*               2872               01.8575330576E+03-7.413303965E+02+
*       2.7014431093E+03               0
GRID*               2873               01.8520639366E+03-7.548900154E+02+
*       2.1441109372E+03               0
GRID*               2874               01.7385010245E+03-9.887434815E+02+
*       2.0056474925E+03               0
GRID*               2875               01.8508457702E+03-7.578718139E+02+
*       1.8651896360E+03               0
GRID*               2876               01.5924037919E+03-1.210061961E+03+
*       1.8650386813E+03               0
GRID*               2877               01.4218070374E+03-1.406579088E+03+
*       1.7238440243E+03               0
GRID*               2878               01.5933973400E+03-1.208753380E+03+
*       1.5853392086E+03               0
GRID*               2879               01.5943431258E+03-1.207505584E+03+
*       2.1441955586E+03               0
GRID*               2880               01.4225043632E+03-1.405873891E+03+
*       2.2856144848E+03               0
GRID*               2881               01.2223924059E+03-1.582958087E+03+
*       1.5790838611E+03               0
GRID*               2882               01.2224009939E+03-1.582951472E+03+
*       1.2934616219E+03               0
GRID*               2883               01.2211154408E+03-1.583943341E+03+
*       1.8590164908E+03               0
GRID*               2884               01.2211035977E+03-1.583952452E+03+
*       2.1446714359E+03               0
GRID*               2885               01.2231911326E+03-1.582340921E+03+
*       2.4267582969E+03               0
GRID*               2886               01.9322023187E+03-5.163273530E+02+
*       1.7266085506E+03               0
GRID*               2887               01.9819187919E+03-2.683242211E+02+
*       1.5861192052E+03               0
GRID*               2888               01.8488766939E+03-7.626629205E+02+
*       1.5879059718E+03               0
GRID*               2889               01.7375383458E+03-9.904342329E+02+
*       1.4507995888E+03               0
GRID*               2890               01.8493576124E+03-7.614959961E+02+
*       1.3121904245E+03               0
GRID*               2891               01.2306433070E+03-1.576552168E+03+
*       1.0207840104E+03               0
GRID*               2892               01.4302706702E+03-1.397972038E+03+
*       1.1714593094E+03               0
GRID*               2893               01.2306529144E+03-1.576544676E+03+
*       7.3517500147E+02               0
GRID*               2894               01.5941573690E+03-1.207750849E+03+
*       1.3094234776E+03               0
GRID*               2895               01.6004512912E+03-1.199398008E+03+
*       1.0369673000E+03               0
GRID*               2896               01.7423116213E+03-9.820131032E+02+
*       9.0462155351E+02               0
GRID*               2897               01.6054878715E+03-1.192647757E+03+
*       7.6650784229E+02               0
GRID*               2898               01.8519733613E+03-7.551121273E+02+
*       7.6969917146E+02               0
GRID*               2899               01.8524200832E+03-7.540155637E+02+
*       5.0595507836E+02               0
GRID*               2900               01.9303505739E+03-5.232079665E+02+
*       6.4142424615E+02               0
GRID*               2901               01.8487715072E+03-7.629178426E+02+
*       1.0399886485E+03               0
GRID*               2902               01.9304517773E+03-5.228344067E+02+
*       1.1772584507E+03               0
GRID*               2903               01.6250392615E+03-1.165867667E+03+
*       2.1041732960E+02               0
GRID*               2904               01.4589686178E+03-1.367995019E+03+
*       2.1044432264E+02               0
GRID*               2905               01.8468555038E+03-7.675444356E+02+
*       1.8888353789E+02               0
GRID*               2906               01.9312539159E+03-5.198636275E+02+
*       1.8887498111E+02               0
GRID*               2907               01.7392528033E+03-9.874204640E+02+
*       3.1714548118E+02               0
GRID*               2908               01.6335093472E+03-1.153970153E+03+
*       5.2759155516E+02               0
GRID*               2909               01.2173698141E+03-1.586824003E+03+
*       2.8551001389E+02               0
GRID*               2910               01.2678818795E+03-1.546762748E+03+
*       4.9603505649E+02               0
GRID*               2911               01.4703093549E+03-1.355798690E+03+
*       6.5986618013E+02               0
GRID*               2912               01.9998964495E+03-2.034755454E+01+
*       1.4470042339E+03               0
GRID*               2913               01.9867805359E+032.2957091305E+02+
*       1.3048082827E+03               0
GRID*               2914               01.9806159592E+03-2.777776352E+02+
*       1.3101663957E+03               0
GRID*               2915               01.9803992677E+03-2.793183349E+02+
*       1.0380695340E+03               0
GRID*               2916               01.9453696073E+034.6425924676E+02+
*       1.1617680083E+03               0
GRID*               2917               01.8712540989E+037.0598022069E+02+
*       1.0133415411E+03               0
GRID*               2918               01.9791283959E+03-2.881852614E+02+
*       7.6699002269E+02               0
GRID*               2919               01.9996218766E+03-3.888397316E+01+
*       9.0000373125E+02               0
GRID*               2920               01.9792930395E+03-2.870523208E+02+
*       5.0332000536E+02               0
GRID*               2921               01.9891337289E+032.0819824502E+02+
*       1.0279371792E+03               0
GRID*               2922               01.9900505051E+031.9924468861E+02+
*       7.5686512530E+02               0
GRID*               2923               01.9916428387E+031.8264252654E+02+
*       2.0375796305E+02               0
GRID*               2924               01.9507485541E+034.4111195984E+02+
*       2.0376134951E+02               0
GRID*               2925               01.9825951976E+03-2.632797049E+02+
*       1.8886722895E+02               0
GRID*               2926               01.9998568724E+03-2.392304768E+01+
*       3.1450282790E+02               0
GRID*               2927               01.9936813700E+031.5885316503E+02+
*       5.1819965222E+02               0
GRID*               2928               01.8705205404E+037.0792146068E+02+
*       2.5932523063E+02               0
GRID*               2929               01.7620919944E+039.4606116109E+02+
*       2.5934270362E+02               0
GRID*               2930               01.8969793165E+036.3361592591E+02+
*       4.6304938721E+02               0
GRID*               2931               01.9588431416E+034.0365001887E+02+
*       6.4617657534E+02               0
GRID*               2932               01.8837236170E+036.7200100648E+02+
*       7.0176939614E+02               0
GRID*               2933               01.2286961969E+031.5780701425E+03+
*       4.5345543979E+02               0
GRID*               2934               01.4358950121E+031.3921944943E+03+
*       5.9754376621E+02               0
GRID*               2935               01.2287453735E+031.5780318583E+03+
*       1.6789173760E+02               0
GRID*               2936               01.4241932965E+031.4041628551E+03+
*       1.6786625144E+02               0
GRID*               2937               01.5952882288E+031.2062567046E+03+
*       1.6783979920E+02               0
GRID*               2938               01.6317999281E+031.1563861459E+03+
*       4.2720675219E+02               0
GRID*               2939               01.7740810001E+039.2338314773E+02+
*       8.3029249337E+02               0
GRID*               2940               01.6332368091E+031.1543558604E+03+
*       6.8891565875E+02               0
GRID*               2941               01.6939144845E+031.0633219916E+03+
*       5.6600519806E+03               0
GRID*               2942               01.7499791490E+039.6828346117E+02+
*       5.7830734258E+03               0
GRID*               2943               01.7768813717E+039.1798282066E+02+
*       5.6377196306E+03               0
GRID*               2944               01.6469312481E+031.1347321641E+03+
*       5.5536110089E+03               0
GRID*               2945               01.6137946985E+031.1813825510E+03+
*       5.6989931924E+03               0
GRID*               2946               01.5131800955E+031.3077789875E+03+
*       5.6905359312E+03               0
GRID*               2947               01.4689453217E+031.3572762249E+03+
*       5.5635312558E+03               0
GRID*               2948               01.5675088084E+031.2421414065E+03+
*       5.7967753622E+03               0
GRID*               2949               01.8056182397E+038.6008281265E+02+
*       5.8805105459E+03               0
GRID*               2950               01.8516952426E+037.5579400084E+02+
*       5.8804929255E+03               0
GRID*               2951               01.6010983549E+031.1985332750E+03+
*       5.9027453797E+03               0
GRID*               2952               01.6668360263E+031.1052862459E+03+
*       5.9027169300E+03               0
GRID*               2953               01.7271299762E+031.0084748993E+03+
*       5.9026909189E+03               0
GRID*               2954               01.9623895741E+033.8604031366E+02+
*       5.6310943927E+03               0
GRID*               2955               01.9748543889E+033.1614863286E+02+
*       5.7761019040E+03               0
GRID*               2956               01.9877634949E+032.2089910846E+02+
*       5.6271592973E+03               0
GRID*               2957               01.9411293873E+034.8168027528E+02+
*       5.4715765386E+03               0
GRID*               2958               01.9157110270E+035.7450107621E+02+
*       5.6207360327E+03               0
GRID*               2959               01.8567387553E+037.4331745278E+02+
*       5.6111347833E+03               0
GRID*               2960               01.8127746445E+038.4489525521E+02+
*       5.4878541492E+03               0
GRID*               2961               01.8907706617E+036.5190852373E+02+
*       5.7704190847E+03               0
GRID*               2962               01.9900168174E+031.9958276323E+02+
*       5.8861706262E+03               0
GRID*               2963               01.9981576967E+038.5813939077E+01+
*       5.8861706164E+03               0
GRID*               2964               01.9119536189E+035.8688462651E+02+
*       5.8900984096E+03               0
GRID*               2965               01.9422949218E+034.7695864950E+02+
*       5.8900982156E+03               0
GRID*               2966               01.9663231208E+033.6547675881E+02+
*       5.8900848939E+03               0
GRID*               2967               01.9388921352E+03-4.906083620E+02+
*       5.5886921929E+03               0
GRID*               2968               01.8808464105E+03-6.800110114E+02+
*       5.5585609565E+03               0
GRID*               2969               01.9101510502E+03-5.927252022E+02+
*       5.4178854351E+03               0
GRID*               2970               01.9666386254E+03-3.637751836E+02+
*       5.8797040372E+03               0
GRID*               2971               01.9841729370E+03-2.511130373E+02+
*       5.8796997241E+03               0
GRID*               2972               01.9348657045E+03-5.062550847E+02+
*       5.8646770954E+03               0
GRID*               2973               01.9513135837E+03-4.386053216E+02+
*       5.7441818217E+03               0
GRID*               2974               01.9997912032E+03-2.889075814E+01+
*       5.9097921519E+03               0
GRID*               2975               01.9996841716E+033.5532881428E+01+
*       5.7958381760E+03               0
GRID*               2976               01.9948897343E+03-1.428772603E+02+
*       5.9097941111E+03               0
GRID*               2977               01.9911900941E+03-1.875158155E+02+
*       5.7893615453E+03               0
GRID*               2978               01.9995102719E+034.4247421298E+01+
*       5.6548357108E+03               0
GRID*               2979               01.9966576257E+031.1557116211E+02+
*       5.5096549107E+03               0
GRID*               2980               01.9694404361E+03-3.482874749E+02+
*       5.6037476404E+03               0
GRID*               2981               01.9920208472E+03-1.784740336E+02+
*       5.6483569177E+03               0
GRID*               2982               01.9864894396E+03-2.320770907E+02+
*       5.4927141460E+03               0
GRID*               2983               01.9987687251E+03-7.015735869E+01+
*       5.6785287617E+03               0
GRID*               2984               01.8542309285E+03-7.495514784E+02+
*       5.7433056547E+03               0
GRID*               2985               01.8121094987E+03-8.463208824E+02+
*       5.5727875288E+03               0
GRID*               2986               01.9028740618E+03-6.156864458E+02+
*       5.8646902812E+03               0
GRID*               2987               01.7918638813E+03-8.883824686E+02+
*       5.8788230534E+03               0
GRID*               2988               01.7383245889E+03-9.890537236E+02+
*       5.8788267039E+03               0
GRID*               2989               01.8395767674E+03-7.848294774E+02+
*       5.8787961399E+03               0
GRID*               2990               01.3784405523E+03-1.449103766E+03+
*       5.6399603500E+03               0
GRID*               2991               01.3179138372E+03-1.504361353E+03+
*       5.4938575762E+03               0
GRID*               2992               01.7103272867E+03-1.036716135E+03+
*       5.5923623759E+03               0
GRID*               2993               01.7477522041E+03-9.722973330E+02+
*       5.4075402660E+03               0
GRID*               2994               01.4963024769E+03-1.327056242E+03+
*       5.6502886079E+03               0
GRID*               2995               01.4468372826E+03-1.380819125E+03+
*       5.7674231065E+03               0
GRID*               2996               01.5968078062E+03-1.204243703E+03+
*       5.6026841965E+03               0
GRID*               2997               01.6775878199E+03-1.088898105E+03+
*       5.7676877153E+03               0
GRID*               2998               01.5364614988E+03-1.280346103E+03+
*       5.4746967075E+03               0
GRID*               2999               01.6290868657E+03-1.160204536E+03+
*       5.8890393489E+03               0
GRID*               3000               01.4865158200E+03-1.338009662E+03+
*       5.8890966021E+03               0
GRID*               3001               01.5603302957E+03-1.251146990E+03+
*       5.8890771251E+03               0
GRID*               3002               01.9322356784E+035.1620245070E+02+
*       2.2790632886E+03               0
GRID*               3003               01.9821455513E+032.6664395436E+02+
*       2.4189921693E+03               0
GRID*               3004               01.8505924566E+037.5849016717E+02+
*       2.1403471501E+03               0
GRID*               3005               01.7382549489E+039.8917602914E+02+
*       1.9982205493E+03               0
GRID*               3006               01.8474513652E+037.6610919189E+02+
*       2.4192789909E+03               0
GRID*               3007               01.7327151906E+039.9884814216E+02+
*       2.5619318856E+03               0
GRID*               3008               01.8459841780E+037.6963777144E+02+
*       2.7003378678E+03               0
GRID*               3009               01.5866654982E+031.2175763893E+03+
*       2.7058675345E+03               0
GRID*               3010               01.4169964410E+031.4114252238E+03+
*       2.8564880372E+03               0
GRID*               3011               01.5875396854E+031.2164363294E+03+
*       2.9934547205E+03               0
GRID*               3012               01.5890201462E+031.2145018237E+03+
*       2.4245521863E+03               0
GRID*               3013               01.5904391289E+031.2126430321E+03+
*       2.1402187428E+03               0
GRID*               3014               01.4176595544E+031.4107591545E+03+
*       2.2841303921E+03               0
GRID*               3015               01.5948256900E+031.2068681855E+03+
*       1.8575523366E+03               0
GRID*               3016               01.4230304921E+031.4053413160E+03+
*       1.7144741783E+03               0
GRID*               3017               01.2184912924E+031.5859628514E+03+
*       2.7130372974E+03               0
GRID*               3018               01.2185079863E+031.5859500474E+03+
*       2.4272952363E+03               0
GRID*               3019               01.2195980615E+031.5851118918E+03+
*       3.0011468151E+03               0
GRID*               3020               01.2195342430E+031.5851609695E+03+
*       3.2870019037E+03               0
GRID*               3021               01.2245352435E+031.5813010357E+03+
*       1.5717183912E+03               0
GRID*               3022               01.2203429524E+031.5845385754E+03+
*       1.8570027060E+03               0
GRID*               3023               01.2203300328E+031.5845485054E+03+
*       2.1426523123E+03               0
GRID*               3024               01.9914993235E+031.8420263199E+02+
*       5.3716051235E+03               0
GRID*               3025               01.9999850511E+037.7294554981E+00+
*       5.3993377412E+03               0
GRID*               3026               01.4656575297E+031.3608259110E+03+
*       5.4216317022E+03               0
GRID*               3027               01.4235899615E+031.4047746765E+03+
*       5.2569378228E+03               0
GRID*               3028               01.9683023120E+033.5466300539E+02+
*       5.2754123602E+03               0
GRID*               3029               01.9845557007E+032.4806990990E+02+
*       5.1649152313E+03               0
GRID*               3030               01.5588527876E+031.2529874705E+03+
*       5.4505407028E+03               0
GRID*               3031               01.9247664590E+035.4339138609E+02+
*       5.2650455113E+03               0
GRID*               3032               01.7509139187E+039.6659215857E+02+
*       5.3293550083E+03               0
GRID*               3033               01.6748703199E+031.0930733757E+03+
*       5.2260968182E+03               0
GRID*               3034               01.6440346545E+031.1389247427E+03+
*       5.4114071464E+03               0
GRID*               3035               01.8353664675E+037.9462569501E+02+
*       5.3026283813E+03               0
GRID*               3036               01.8830883827E+036.7377778456E+02+
*       5.1062732609E+03               0
GRID*               3037               01.9962775348E+03-1.219610796E+02+
*       5.3917972838E+03               0
GRID*               3038               01.9992968179E+03-5.302192270E+01+
*       5.2536291754E+03               0
GRID*               3039               01.2971835393E+03-1.522272852E+03+
*       5.3226404263E+03               0
GRID*               3040               01.2037621710E+03-1.597170947E+03+
*       5.1203097067E+03               0
GRID*               3041               01.9785614532E+03-2.920522658E+02+
*       5.3471198322E+03               0
GRID*               3042               01.9476699432E+03-4.545117809E+02+
*       5.2308741535E+03               0
GRID*               3043               01.9697798476E+03-3.463627473E+02+
*       5.1297556788E+03               0
GRID*               3044               01.4110601476E+03-1.417360072E+03+
*       5.3516633989E+03               0
GRID*               3045               01.5187457029E+03-1.301311487E+03+
*       5.3029309916E+03               0
GRID*               3046               01.8932744069E+03-6.446012930E+02+
*       5.2006674879E+03               0
GRID*               3047               01.6598693311E+03-1.115721210E+03+
*       5.1754225387E+03               0
GRID*               3048               01.5491634356E+03-1.264947574E+03+
*       5.0505621168E+03               0
GRID*               3049               01.7702857526E+03-9.306386863E+02+
*       5.1554430372E+03               0
GRID*               3050               01.8321828634E+03-8.019389468E+02+
*       4.9680082564E+03               0
GRID*               3051               01.2322854899E+031.5752687923E+03+
*       3.6046325009E+03               0
GRID*               3052               01.4293995422E+031.3988627930E+03+
*       3.4607929678E+03               0
GRID*               3053               01.2328957630E+031.5747911898E+03+
*       3.8898118963E+03               0
GRID*               3054               01.5909606302E+031.2119586190E+03+
*       3.2658567242E+03               0
GRID*               3055               01.7335621937E+039.9737741170E+02+
*       3.1154049955E+03               0
GRID*               3056               01.6014131260E+031.1981131052E+03+
*       3.5824177825E+03               0
GRID*               3057               01.8434149829E+037.7577132552E+02+
*       2.9738520319E+03               0
GRID*               3058               01.9283177492E+035.3065108387E+02+
*       2.8313660188E+03               0
GRID*               3059               01.8456130761E+037.7052727656E+02+
*       3.2462408967E+03               0
GRID*               3060               01.9999415441E+031.5286637678E+01+
*       2.5562063340E+03               0
GRID*               3061               01.9857615316E+03-2.382250230E+02+
*       2.6958649094E+03               0
GRID*               3062               01.9806855995E+032.7728063085E+02+
*       2.6949293579E+03               0
GRID*               3063               01.9797366032E+032.8397703865E+02+
*       2.9684101380E+03               0
GRID*               3064               01.9408835606E+03-4.826701767E+02+
*       2.8361717076E+03               0
GRID*               3065               01.9876255849E+03-2.221362141E+02+
*       2.9722796930E+03               0
GRID*               3066               01.8635064802E+03-7.261842030E+02+
*       2.9778461312E+03               0
GRID*               3067               01.8718693237E+03-7.043470598E+02+
*       3.2569328563E+03               0
GRID*               3068               01.7589499605E+03-9.518902024E+02+
*       3.1224198216E+03               0
GRID*               3069               01.2503507734E+03-1.560968498E+03+
*       3.5664170401E+03               0
GRID*               3070               01.2511326704E+03-1.560341866E+03+
*       3.8516967492E+03               0
GRID*               3071               01.4547994428E+03-1.372427805E+03+
*       3.4178065418E+03               0
GRID*               3072               01.6198816199E+03-1.173022947E+03+
*       3.2673830440E+03               0
GRID*               3073               01.6352250439E+03-1.151537592E+03+
*       3.5512702966E+03               0
GRID*               3074               01.0981695279E+031.6715331421E+03+
*       4.4466558320E+03               0
GRID*               3075               01.1629230708E+031.6271476381E+03+
*       4.1840295159E+03               0
GRID*               3076               01.2034259870E+031.5974243127E+03+
*       4.6040122200E+03               0
GRID*               3077               01.3335640226E+031.4905056516E+03+
*       4.8298412254E+03               0
GRID*               3078               01.4205068421E+031.4078922559E+03+
*       4.6006454819E+03               0
GRID*               3079               01.5450539598E+031.2699637837E+03+
*       5.0673921759E+03               0
GRID*               3080               01.6656005904E+031.1071470925E+03+
*       4.9851126001E+03               0
GRID*               3081               01.4117090901E+031.4167137102E+03+
*       5.0168934436E+03               0
GRID*               3082               01.4944612068E+031.3291295510E+03+
*       4.3191016589E+03               0
GRID*               3083               01.6015865154E+031.1978810917E+03+
*       4.5476835437E+03               0
GRID*               3084               01.6180590031E+031.1755356447E+03+
*       3.8076281992E+03               0
GRID*               3085               01.7499964369E+039.6825211251E+02+
*       3.6133377145E+03               0
GRID*               3086               01.3726166449E+031.4546214664E+03+
*       4.0715097127E+03               0
GRID*               3087               01.5605362202E+031.2508902097E+03+
*       4.0217616069E+03               0
GRID*               3088               01.7155876293E+031.0279876934E+03+
*       4.0539334904E+03               0
GRID*               3089               01.9995372869E+034.3012471823E+01+
*       3.1036959493E+03               0
GRID*               3090               01.9894561219E+03-2.050957486E+02+
*       3.2438739103E+03               0
GRID*               3091               01.8420090655E+037.7910370199E+02+
*       3.5070445283E+03               0
GRID*               3092               01.9239351010E+035.4632763603E+02+
*       3.3657466385E+03               0
GRID*               3093               01.8524683340E+037.5389715508E+02+
*       3.7330883632E+03               0
GRID*               3094               01.9772904413E+033.0053678518E+02+
*       3.2400381795E+03               0
GRID*               3095               01.9757877436E+033.1026211422E+02+
*       3.5010906084E+03               0
GRID*               3096               01.9511308627E+03-4.394175177E+02+
*       3.3856834442E+03               0
GRID*               3097               01.8817137417E+03-6.776079484E+02+
*       3.5299317345E+03               0
GRID*               3098               01.9921144803E+03-1.774258676E+02+
*       3.5172011932E+03               0
GRID*               3099               01.9981332049E+038.6387095546E+01+
*       3.6445200489E+03               0
GRID*               3100               01.9943208307E+03-1.506122850E+02+
*       3.7864343055E+03               0
GRID*               3101               01.8385203038E+037.8730113777E+02+
*       3.9863985689E+03               0
GRID*               3102               01.9108263798E+035.9054433908E+02+
*       3.8800555871E+03               0
GRID*               3103               01.7979073305E+038.7608722226E+02+
*       4.2011644874E+03               0
GRID*               3104               01.9715841295E+033.3594016156E+02+
*       3.7703079142E+03               0
GRID*               3105               01.9649993323E+033.7252841074E+02+
*       4.0237690275E+03               0
GRID*               3106               01.9999744478E+031.0105497083E+01+
*       5.1089122799E+03               0
GRID*               3107               01.9964317753E+03-1.194097486E+02+
*       5.1013651278E+03               0
GRID*               3108               01.9990262719E+036.2394362232E+01+
*       4.7318622982E+03               0
GRID*               3109               01.9774048698E+032.9978304652E+02+
*       4.7878938353E+03               0
GRID*               3110               01.9917107980E+031.8190177192E+02+
*       5.0125634229E+03               0
GRID*               3111               01.7624446465E+039.4540410070E+02+
*       4.4632361074E+03               0
GRID*               3112               01.7088362969E+031.0391719226E+03+
*       4.7416434948E+03               0
GRID*               3113               01.8737118994E+036.9943022800E+02+
*       4.3954445307E+03               0
GRID*               3114               01.9409369731E+034.8245519684E+02+
*       4.5822516862E+03               0
GRID*               3115               01.9584377294E+034.0561257389E+02+
*       4.3203522144E+03               0
GRID*               3116               01.8123837939E+038.4573336172E+02+
*       4.9008592212E+03               0
GRID*               3117               01.9086553600E+035.9752393692E+02+
*       4.8630878402E+03               0
GRID*               3118               01.9966670939E+03-1.154092301E+02+
*       4.0536494871E+03               0
GRID*               3119               01.9641916740E+03-3.767636776E+02+
*       3.9260244254E+03               0
GRID*               3120               01.9945944793E+031.4694320305E+02+
*       4.2103689308E+03               0
GRID*               3121               01.9983682530E+03-8.076608536E+01+
*       4.3502736052E+03               0
GRID*               3122               01.9921164796E+03-1.774036246E+02+
*       4.7966276668E+03               0
GRID*               3123               01.9797360693E+03-2.839807730E+02+
*       4.9849371597E+03               0
GRID*               3124               01.9589236934E+03-4.032590751E+02+
*       4.8250422053E+03               0
GRID*               3125               01.9991331988E+03-5.887037273E+01+
*       4.5719158850E+03               0
GRID*               3126               01.9742963635E+03-3.196148331E+02+
*       4.4149696702E+03               0
GRID*               3127               01.7904113516E+03-8.913061777E+02+
*       3.6791414312E+03               0
GRID*               3128               01.6610410745E+03-1.113975976E+03+
*       3.8283266995E+03               0
GRID*               3129               01.8961822605E+03-6.359973243E+02+
*       3.8082816708E+03               0
GRID*               3130               01.9074409943E+03-6.013891310E+02+
*       4.0754432100E+03               0
GRID*               3131               01.9261998791E+03-5.382880744E+02+
*       4.3472576881E+03               0
GRID*               3132               01.8372460651E+03-7.902701484E+02+
*       4.2292576837E+03               0
GRID*               3133               01.9320819775E+03-5.167776201E+02+
*       4.5690143932E+03               0
GRID*               3134               01.9017144139E+03-6.192593444E+02+
*       4.7574383150E+03               0
GRID*               3135               01.0834870470E+03-1.681087442E+03+
*       4.5857403775E+03               0
GRID*               3136               01.1464683853E+03-1.638783087E+03+
*       4.8650526594E+03               0
GRID*               3137               01.5237488952E+03-1.295449482E+03+
*       3.9941348017E+03               0
GRID*               3138               01.3136913277E+03-1.508050056E+03+
*       4.1434772398E+03               0
GRID*               3139               01.7018500667E+03-1.050574242E+03+
*       4.1231272320E+03               0
GRID*               3140               01.1648334462E+03-1.625780571E+03+
*       4.3380925598E+03               0
GRID*               3141               01.4397703714E+03-1.388186281E+03+
*       4.4807733996E+03               0
GRID*               3142               01.3400348264E+03-1.484690801E+03+
*       4.9254105497E+03               0
GRID*               3143               01.5020760304E+03-1.320517846E+03+
*       4.7931700186E+03               0
GRID*               3144               01.6320531943E+03-1.156028357E+03+
*       4.6078047064E+03               0
GRID*               3145               01.7360889853E+03-9.929726618E+02+
*       4.3962333840E+03               0
GRID*               3146               01.7827889553E+03-9.064564057E+02+
*       4.7125563838E+03               0
GRID*               3147               0-2.664753226E+02-1.819512277E+03+
*       6.0000000000E+03               0
GRID*               3148               0-5.411415680E+02-1.766127772E+03+
*       6.0000000000E+03               0
GRID*               3149               0-1.503725302E+02-1.841505718E+03+
*       5.9093877771E+03               0
GRID*               3150               0-4.250387756E+02-1.788121213E+03+
*       5.9093877771E+03               0
GRID*               3151               0-2.437279974E+02-1.811870115E+03+
*       6.1591835965E+03               0
GRID*               3152               0-5.183942428E+02-1.758485610E+03+
*       6.1591835965E+03               0
GRID*               3153               02.3706981606E+021.8315781294E+03+
*       6.0000000000E+03               0
GRID*               3154               03.5024572708E+021.8165410584E+03+
*       6.0000000000E+03               0
GRID*               3155               03.3779694759E+021.8188433980E+03+
*       5.8692763892E+03               0
GRID*               3156               01.9024474642E+021.8343301996E+03+
*       5.6594531014E+03               0
GRID*               3157               04.3890536666E+021.7926549237E+03+
*       5.6248121125E+03               0
GRID*               3158               03.8040675092E+021.8013151201E+03+
*       5.4448156791E+03               0
GRID*               3159               01.3174613067E+021.8429903959E+03+
*       5.4794566680E+03               0
GRID*               3160               06.0432033402E+021.7482452290E+03+
*       5.4947825114E+03               0
GRID*               3161               0-1.589136311E+03-9.468421458E+02+
*       6.0000000000E+03               0
GRID*               3162               0-1.614316768E+03-9.005799119E+02+
*       5.8916828970E+03               0
GRID*               3163               0-1.560113737E+03-9.939206217E+02+
*       5.9127719247E+03               0
GRID*               3164               0-8.471944121E+021.6427089477E+03+
*       4.8405883521E+03               0
GRID*               3165               0-9.963666151E+021.5549666481E+03+
*       4.8897271885E+03               0
GRID*               3166               0-8.792772410E+021.6271841567E+03+
*       4.9523404014E+03               0
GRID*               3167               0-7.459396807E+021.6815036542E+03+
*       4.9189483744E+03               0
GRID*               3168               0-1.012040682E+03-1.547844136E+03+
*       5.4153341908E+03               0
GRID*               3169               0-1.018611214E+03-1.543758319E+03+
*       5.5335724812E+03               0
GRID*               3170               0-8.645387902E+02-1.626159143E+03+
*       5.4648998120E+03               0
GRID*               3171               0-8.579682587E+02-1.630244960E+03+
*       5.3466615216E+03               0
GRID*               3172               0-5.772537369E+02-1.756325955E+03+
*       5.8682436848E+03               0
GRID*               3173               0-6.016663233E+02-1.746780378E+03+
*       5.5623621157E+03               0
GRID*               3174               0-4.455865168E+02-1.793718908E+03+
*       5.5494073291E+03               0
GRID*               3175               0-9.319896930E+02-1.595739147E+03+
*       5.1906809204E+03               0
GRID*               3176               0-7.534627927E+02-1.688758570E+03+
*       5.5667315005E+03               0
GRID*               3177               0-9.075352165E+02-1.606357745E+03+
*       5.6354041697E+03               0
GRID*               3178               0-7.023925391E+02-1.711473017E+03+
*       5.3857784403E+03               0
GRID*               3179               01.4356206361E+03-1.151885289E+03+
*       3.3633623319E+03               0
GRID*               3180               01.6021191374E+03-9.219080030E+02+
*       3.4971708800E+03               0
GRID*               3181               01.4534723804E+03-1.132954325E+03+
*       3.6471821653E+03               0
GRID*               3182               01.3991809721E+03-1.204633218E+03+
*       3.0997581440E+03               0
GRID*               3183               01.5656794734E+03-9.746559322E+02+
*       3.2335666920E+03               0
GRID*               3184               01.3476039600E+03-1.267248895E+03+
*       3.7643920135E+03               0
GRID*               3185               01.3432602600E+03-1.271710460E+03+
*       3.5961625212E+03               0
GRID*               3186               01.1068576077E+03-1.461192450E+03+
*       3.4597802257E+03               0
GRID*               3187               01.2185509080E+03-1.382860717E+03+
*       3.1883373461E+03               0
GRID*               3188               01.3254085157E+03-1.290641424E+03+
*       3.3123426878E+03               0
GRID*               3189               01.2364026523E+03-1.363929753E+03+
*       3.6847955809E+03               0
GRID*               3190               01.7681854514E+03-5.400985825E+02+
*       1.4602607288E+03               0
GRID*               3191               01.6718380086E+03-7.740992472E+02+
*       1.3230606061E+03               0
GRID*               3192               01.7677817672E+03-5.415891491E+02+
*       1.1881234749E+03               0
GRID*               3193               01.7531197153E+03-5.806027974E+02+
*       8.8825060484E+02               0
GRID*               3194               01.8150243002E+03-2.623223245E+02+
*       9.7867619039E+02               0
GRID*               3195               01.7695263543E+03-5.350805093E+02+
*       1.7374683171E+03               0
GRID*               3196               01.6712120215E+03-7.751974219E+02+
*       1.5988696555E+03               0
GRID*               3197               01.8167670275E+03-2.574366570E+02+
*       1.8851804222E+03               0
GRID*               3198               01.8154261247E+03-2.624547302E+02+
*       1.6079728338E+03               0
GRID*               3199               0-2.223619422E+02-1.667010500E+03+
*       6.7483294541E+03               0
GRID*               3200               02.0511751641E+01-1.681853832E+03+
*       6.7335800757E+03               0
GRID*               3201               0-5.367229636E+01-1.564994663E+03+
*       6.9747763770E+03               0
GRID*               3202               01.8978102064E+02-1.790539789E+03+
*       6.3952943564E+03               0
GRID*               3203               03.4453160921E+02-1.760683360E+03+
*       6.4048057484E+03               0
GRID*               3204               02.7220697319E+02-1.746210781E+03+
*       6.5417826670E+03               0
GRID*               3205               05.0898203972E+02-1.544979980E+03+
*       6.8578551279E+03               0
GRID*               3206               02.6836855453E+02-1.659449948E+03+
*       6.7451540487E+03               0
GRID*               3207               06.5519919781E+02-1.585127575E+03+
*       6.6765173041E+03               0
GRID*               3208               04.1458571263E+02-1.699597542E+03+
*       6.5638162250E+03               0
GRID*               3209               01.4473597978E+02-1.838504390E+03+
*       5.3197365639E+03               0
GRID*               3210               01.3743595892E+02-1.838407211E+03+
*       5.4810513462E+03               0
GRID*               3211               0-1.348206226E+02-1.842405025E+03+
*       5.5054112416E+03               0
GRID*               3212               0-1.275206017E+02-1.842502204E+03+
*       5.3440964594E+03               0
GRID*               3213               01.6665781071E+037.9625723486E+02+
*       1.0067427363E+03               0
GRID*               3214               01.6815520963E+037.5637195942E+02+
*       1.3061392159E+03               0
GRID*               3215               01.7781307123E+035.0036946774E+02+
*       1.1775858005E+03               0
GRID*               3216               01.7631567230E+035.4025474318E+02+
*       8.7818932084E+02               0
GRID*               3217               01.6739199691E+037.7014985598E+02+
*       1.5929971008E+03               0
GRID*               3218               01.7731377382E+035.2129137073E+02+
*       1.4544940060E+03               0
GRID*               3219               0-1.391532462E+03-3.858024803E+02+
*       7.1469169888E+03               0
GRID*               3220               0-1.247076644E+03-6.791633225E+02+
*       7.1509709327E+03               0
GRID*               3221               0-1.237601166E+03-3.603155391E+02+
*       7.3165568378E+03               0
GRID*               3222               0-1.093145349E+03-6.536763813E+02+
*       7.3206107817E+03               0
GRID*               3223               0-1.249224026E+03-8.531327441E+02+
*       7.0286529110E+03               0
GRID*               3224               0-1.118072454E+03-8.452211334E+02+
*       7.2041882453E+03               0
GRID*               3225               0-1.485296329E+03-7.571717230E+02+
*       6.7942395487E+03               0
GRID*               3226               0-1.483148947E+03-5.832023014E+02+
*       6.9165575704E+03               0
GRID*               3227               0-1.123382478E+03-1.003581461E+03+
*       7.0521865899E+03               0
GRID*               3228               0-9.581149776E+02-1.001005744E+03+
*       7.2190728407E+03               0
GRID*               3229               0-1.495662067E+039.0617908488E+02+
*       6.6009373965E+03               0
GRID*               3230               0-1.373100003E+031.0077560100E+03+
*       6.7093388343E+03               0
GRID*               3231               0-1.458654876E+031.0159071651E+03+
*       6.4743703568E+03               0
GRID*               3232               01.3974048721E+031.2034222288E+03+
*       2.4853907790E+03               0
GRID*               3233               01.5548308924E+039.9825273251E+02+
*       2.6226066664E+03               0
GRID*               3234               01.5567422764E+039.9493675225E+02+
*       2.3414482476E+03               0
GRID*               3235               01.2089751731E+031.3926198142E+03+
*       2.9296199122E+03               0
GRID*               3236               01.4052061906E+031.1928422730E+03+
*       3.0621472158E+03               0
GRID*               3237               01.2079912815E+031.3936075298E+03+
*       2.6417810608E+03               0
GRID*               3238               01.4042222991E+031.1938299886E+03+
*       2.7743083645E+03               0
GRID*               3239               01.3990513262E+031.2017677842E+03+
*       2.2008926535E+03               0
GRID*               3240               01.2096377356E+031.3919530851E+03+
*       2.0638593113E+03               0
GRID*               3241               01.2079912815E+031.3936075298E+03+
*       2.3483574368E+03               0
GRID*               3242               04.7269223680E+021.7885754679E+03+
*       4.9979162562E+03               0
GRID*               3243               02.4963189174E+021.8327254901E+03+
*       5.1714043893E+03               0
GRID*               3244               03.3800480783E+021.8139176424E+03+
*       5.2552392104E+03               0
GRID*               3245               0-2.071128768E+021.0740228971E+03+
*       7.4910588045E+03               0
GRID*               3246               0-4.210806026E+029.0337180694E+02+
*       7.5382036913E+03               0
GRID*               3247               0-1.791144266E+028.2107631455E+02+
*       7.6249627843E+03               0
GRID*               3248               0-9.773619456E+006.3159415209E+02+
*       7.7349937380E+03               0
GRID*               3249               0-3.777206966E+018.8454073462E+02+
*       7.6010897582E+03               0
GRID*               3250               01.2715656309E+035.6405409004E+02+
*       7.2177756631E+03               0
GRID*               3251               01.4138446354E+035.9211318638E+02+
*       7.0226669100E+03               0
GRID*               3252               01.2916702704E+037.5144027551E+02+
*       7.0786062908E+03               0
GRID*               3253               01.2168128453E+031.0737731065E+03+
*       6.8583243669E+03               0
GRID*               3254               01.2067950219E+031.2262827544E+03+
*       6.6656237132E+03               0
GRID*               3255               01.0647087519E+031.0969177573E+03+
*       7.0361990896E+03               0
GRID*               3256               01.0546909286E+031.2494274051E+03+
*       6.8434984360E+03               0
GRID*               3257               01.0317711277E+039.2828358142E+02+
*       7.2119629340E+03               0
GRID*               3258               01.2075976722E+039.3606844142E+02+
*       7.0377944844E+03               0
GRID*               3259               09.0641610228E+028.1847802173E+02+
*       7.3862269011E+03               0
GRID*               3260               08.5510352669E+021.0324210402E+03+
*       7.2550130068E+03               0
GRID*               3261               01.1158437259E+037.4365541552E+02+
*       7.2527747405E+03               0
GRID*               3262               08.8804115089E+021.2010552160E+03+
*       7.0792491623E+03               0
GRID*               3263               07.4426978376E+021.3392960256E+03+
*       7.0227387061E+03               0
GRID*               3264               09.1091956142E+021.3876682146E+03+
*       6.7869879797E+03               0
GRID*               3265               01.0523697069E+031.4356034599E+03+
*       6.4578124011E+03               0
GRID*               3266               08.2318832614E+021.5639629613E+03+
*       6.4670091745E+03               0
GRID*               3267               07.1274780131E+021.5955711062E+03+
*       6.5934414512E+03               0
GRID*               3268               09.4192918206E+021.4672116048E+03+
*       6.5842446778E+03               0
GRID*               3269               01.1887007993E+031.3265678419E+03+
*       6.4577984136E+03               0
GRID*               3270               01.1069878323E+031.4503594541E+03+
*       6.1561219440E+03               0
GRID*               3271               09.7065673994E+021.5593950721E+03+
*       6.1561359316E+03               0
GRID*               3272               06.8173818067E+021.5160277161E+03+
*       6.7961847531E+03               0
GRID*               3273               0-1.207877349E+031.3937214843E+03+
*       1.4717079330E+03               0
GRID*               3274               01.5614593622E+039.9106911443E+02+
*       4.5270476638E+03               0
GRID*               3275               01.4970039940E+031.0772153344E+03+
*       4.8054961766E+03               0
GRID*               3276               01.6521099170E+038.2214804254E+02+
*       4.7211197620E+03               0
GRID*               3277               01.6181046119E+038.9499546624E+02+
*       4.9643406240E+03               0
GRID*               3278               01.6986723222E+037.1589606816E+02+
*       4.9710241713E+03               0
GRID*               3279               01.7326776273E+036.4304864446E+02+
*       4.7278033093E+03               0
GRID*               3280               01.8061653467E+033.4735244376E+02+
*       4.6526389423E+03               0
GRID*               3281               01.7776245492E+034.2428706584E+02+
*       4.4649856442E+03               0
GRID*               3282               01.7041368297E+037.1998326654E+02+
*       4.5401500112E+03               0
GRID*               3283               0-1.054806209E+03-1.299746904E+03+
*       6.7673473083E+03               0
GRID*               3284               0-9.790013034E+02-1.144284387E+03+
*       7.0293391217E+03               0
GRID*               3285               0-1.199187384E+03-1.159043978E+03+
*       6.7901947765E+03               0
GRID*               3286               01.2071067618E+03-1.394493105E+03+
*       2.1128712566E+02               0
GRID*               3287               01.8499955731E+034.7338023092E-01+
*       2.0234270355E+03               0
GRID*               3288               01.8499752092E+03-3.888666077E+00+
*       2.3367604997E+03               0
GRID*               3289               01.8167466636E+03-2.617987033E+02+
*       2.1985138864E+03               0
GRID*               3290               01.8199014048E+021.8257205986E+03+
*       6.1298631688E+03               0
GRID*               3291               03.8959255560E+011.7841500675E+03+
*       6.4357613425E+03               0
GRID*               3292               02.3852958622E+021.8031230743E+03+
*       6.2360480066E+03               0
GRID*               3293               09.5498701296E+011.7615525432E+03+
*       6.5419461803E+03               0
GRID*               3294               0-1.230878143E+036.0728189644E+01+
*       7.3523071791E+03               0
GRID*               3295               0-1.368282821E+03-1.728835657E+02+
*       7.2307168294E+03               0
GRID*               3296               0-1.182221423E+03-1.295588003E+02+
*       7.3951134298E+03               0
GRID*               3297               0-1.044816745E+031.0405295505E+02+
*       7.5167037795E+03               0
GRID*               3298               0-1.768586958E+035.3856659755E+02+
*       1.7365792600E+03               0
GRID*               3299               0-1.772074376E+035.2834430668E+02+
*       2.0502757639E+03               0
GRID*               3300               0-1.675641800E+037.6337086344E+02+
*       1.8962624541E+03               0
GRID*               3301               0-1.672154383E+037.7359315431E+02+
*       1.5825659502E+03               0
GRID*               3302               01.2170782783E+031.3843789908E+03+
*       3.7943360395E+02               0
GRID*               3303               01.3778104159E+031.2317195310E+03+
*       1.6786851780E+02               0
GRID*               3304               01.2170782783E+031.3843789908E+03+
*       1.6786851780E+02               0
GRID*               3305               0-7.889754902E+011.7788922219E+03+
*       6.4402293519E+03               0
GRID*               3306               0-2.191652572E+011.7544100191E+03+
*       6.5772879675E+03               0
GRID*               3307               02.1007521593E+021.7441911020E+03+
*       6.5476174877E+03               0
GRID*               3308               03.5310610085E+021.7857616331E+03+
*       6.2417193140E+03               0
GRID*               3309               03.5359392064E+021.6468004943E+03+
*       6.7277733930E+03               0
GRID*               3310               05.5678882538E+021.6246634474E+03+
*       6.6862795192E+03               0
GRID*               3311               04.6776726566E+021.6924703496E+03+
*       6.5525925570E+03               0
GRID*               3312               09.5901870915E+011.6985212467E+03+
*       6.7227983237E+03               0
GRID*               3313               0-1.425874955E+021.7466308800E+03+
*       6.5590453593E+03               0
GRID*               3314               01.8397588590E+021.5530146338E+03+
*       6.9572658653E+03               0
GRID*               3315               0-1.409479238E+021.6761673812E+03+
*       6.7464260898E+03               0
GRID*               3316               0-2.598448609E+021.5616833434E+03+
*       6.9429342219E+03               0
GRID*               3317               0-3.975420792E+021.6376258020E+03+
*       6.7522651332E+03               0
GRID*               3318               02.9584188269E+021.8181008849E+03+
*       6.1201548740E+03               0
GRID*               3319               0-1.846456935E+031.0818875308E+02+
*       3.7906277632E+03               0
GRID*               3320               0-1.803824980E+033.4458373997E+02+
*       3.9133954464E+03               0
GRID*               3321               0-1.758486803E+035.7460277158E+02+
*       3.7647040855E+03               0
GRID*               3322               0-1.801118758E+033.3820778469E+02+
*       3.6419364023E+03               0
GRID*               3323               0-1.835801885E+03-1.333762523E+02+
*       3.6750539454E+03               0
GRID*               3324               0-1.833728975E+03-9.753531816E+01+
*       3.9237648341E+03               0
GRID*               3325               0-1.844384025E+031.4402968723E+02+
*       4.0393386519E+03               0
GRID*               3326               0-1.827523264E+03-1.770169706E+02+
*       3.3873307122E+03               0
GRID*               3327               0-1.795569523E+03-4.410448470E+02+
*       3.2508202004E+03               0
GRID*               3328               0-1.803848144E+03-3.974041287E+02+
*       3.5385434336E+03               0
GRID*               3329               0-1.805970411E+033.2246037888E+02+
*       3.3855106204E+03               0
GRID*               3330               0-1.847779590E+038.8559454526E+01+
*       3.5129921756E+03               0
GRID*               3331               0-1.759309579E+035.7210870904E+02+
*       3.5144548471E+03               0
GRID*               3332               0-1.827949458E+03-1.924832514E+02+
*       3.1093897522E+03               0
GRID*               3333               0-9.772827073E+011.8331652344E+03+
*       6.1298631688E+03               0
GRID*               3334               01.4773935248E+031.4074207333E+02+
*       7.1018058327E+03               0
GRID*               3335               01.5430004258E+03-6.385888900E+01+
*       6.9926987276E+03               0
GRID*               3336               01.5823512040E+038.5971346855E+01+
*       6.9198217220E+03               0
GRID*               3337               01.7395771370E+032.7407412256E+02+
*       6.5379239114E+03               0
GRID*               3338               01.6794773264E+033.7719346107E+02+
*       6.6775710732E+03               0
GRID*               3339               01.6910605645E+032.2844866196E+02+
*       6.6963803206E+03               0
GRID*               3340               0-1.682706345E+03-6.303904299E+02+
*       6.2733573827E+03               0
GRID*               3341               0-1.761544121E+03-5.050722085E+02+
*       6.1715961492E+03               0
GRID*               3342               0-1.716239924E+03-6.326456973E+02+
*       6.1198063289E+03               0
GRID*               3343               0-1.577166117E+03-8.895267017E+02+
*       6.2733573827E+03               0
GRID*               3344               0-1.610699696E+03-8.917819692E+02+
*       6.1198063289E+03               0
GRID*               3345               0-1.746155024E+03-5.857746276E+02+
*       6.0000000000E+03               0
GRID*               3346               0-1.640614796E+03-8.449108995E+02+
*       6.0000000000E+03               0
GRID*               3347               06.6758002300E+024.2165077777E+02+
*       7.6548902859E+03               0
GRID*               3348               08.6226841718E+025.9835183422E+02+
*       7.5148830832E+03               0
GRID*               3349               06.8427654176E+027.8525513271E+02+
*       7.5199428366E+03               0
GRID*               3350               04.8958814758E+026.0855407626E+02+
*       7.6599500393E+03               0
GRID*               3351               01.9957780946E+028.0600359214E+02+
*       7.6410447136E+03               0
GRID*               3352               0-2.833370538E+021.3114438177E+02+
*       7.8045889188E+03               0
GRID*               3353               0-3.377102159E+013.4322033636E+01+
*       7.8453318648E+03               0
GRID*               3354               0-7.596798009E+013.3773003904E+02+
*       7.8046328033E+03               0
GRID*               3355               07.5504651704E+021.7812595770E+02+
*       7.6445424679E+03               0
GRID*               3356               05.2269385276E+021.1090678520E+02+
*       7.7522948624E+03               0
GRID*               3357               04.3522735871E+023.5443160527E+02+
*       7.7626426804E+03               0
GRID*               3358               04.5171413054E+028.6787962618E+02+
*       7.5654252015E+03               0
GRID*               3359               02.3745182650E+025.4667804222E+02+
*       7.7355695514E+03               0
GRID*               3360               01.7125746586E+022.5281392916E+02+
*       7.8052086167E+03               0
GRID*               3361               07.0711173823E+02-7.881359044E+01+
*       7.7040753157E+03               0
GRID*               3362               02.5872395991E+029.2891090945E+00+
*       7.7948607987E+03               0
GRID*               3363               01.8333495937E+02-1.649068985E+02+
*       7.8227103136E+03               0
GRID*               3364               04.7582994087E+02-1.899398231E+02+
*       7.7722392475E+03               0
GRID*               3365               04.6098625422E+021.7886966388E+03+
*       6.0000000000E+03               0
GRID*               3366               05.6781636363E+021.7484154004E+03+
*       6.0000000000E+03               0
GRID*               3367               04.7509232080E+021.7841646001E+03+
*       5.9160128063E+03               0
GRID*               3368               01.0309773179E+031.5314722571E+03+
*       5.8977062517E+03               0
GRID*               3369               01.2471399511E+031.3537945722E+03+
*       5.8977062517E+03               0
GRID*               3370               01.1359775469E+031.4600355577E+03+
*       5.6373765398E+03               0
GRID*               3371               01.2425961728E+031.3572417855E+03+
*       6.0000000000E+03               0
GRID*               3372               01.0264335396E+031.5349194704E+03+
*       6.0000000000E+03               0
GRID*               3373               01.3231504656E+031.2726817693E+03+
*       6.1561219440E+03               0
GRID*               3374               07.2874430417E+021.6248555313E+03+
*       6.4322771673E+03               0
GRID*               3375               04.9582222012E+021.7625082490E+03+
*       6.1651154741E+03               0
GRID*               3376               07.5795179872E+021.6646490763E+03+
*       6.1651154741E+03               0
GRID*               3377               06.1048338493E+021.6692169656E+03+
*       6.4759887171E+03               0
GRID*               3378               08.7621271797E+021.6202876421E+03+
*       6.1214039243E+03               0
GRID*               3379               01.8209797479E+032.7057747951E+02+
*       3.9120497056E+03               0
GRID*               3380               01.7724043581E+035.2694501495E+02+
*       4.0219074128E+03               0
GRID*               3381               01.8184653044E+033.0471263897E+02+
*       4.2086426102E+03               0
GRID*               3382               01.8446651116E+031.3621558811E+02+
*       4.5122726463E+03               0
GRID*               3383               01.8430661858E+032.1244551581E+01+
*       4.2656638414E+03               0
GRID*               3384               01.8446297957E+036.3628537869E+01+
*       5.0261180553E+03               0
GRID*               3385               01.8483735274E+031.7509418466E+01+
*       4.7369657371E+03               0
GRID*               3386               01.8409213800E+031.8233470752E+02+
*       4.8014249645E+03               0
GRID*               3387               01.5548945115E+039.9608410216E+02+
*       1.7616224202E+03               0
GRID*               3388               01.3936176026E+031.2092166498E+03+
*       1.9036028250E+03               0
GRID*               3389               01.5513085528E+031.0023856178E+03+
*       2.0441584191E+03               0
GRID*               3390               01.3882691163E+031.2175200957E+03+
*       1.3223480652E+03               0
GRID*               3391               01.5458093937E+031.0081711378E+03+
*       1.4655287315E+03               0
GRID*               3392               01.5534415209E+039.9439324126E+02+
*       1.1786708466E+03               0
GRID*               3393               01.6791928708E+037.5446706248E+02+
*       1.9021033784E+03               0
GRID*               3394               01.6756069121E+037.6076857815E+02+
*       2.1846393773E+03               0
GRID*               3395               01.7701801621E+035.3282732461E+02+
*       1.7352606264E+03               0
GRID*               3396               01.7754530639E+035.1714453111E+02+
*       2.0443669041E+03               0
GRID*               3397               01.5616483194E+039.8866049225E+02+
*       2.9115242518E+03               0
GRID*               3398               01.3973542341E+031.2054330600E+03+
*       1.6184417539E+03               0
GRID*               3399               01.2133743671E+031.3881694954E+03+
*       1.1913608542E+03               0
GRID*               3400               01.2133743671E+031.3881694954E+03+
*       1.4848028709E+03               0
GRID*               3401               0-2.933715554E+02-1.825514165E+03+
*       5.5905514215E+03               0
GRID*               3402               0-4.046913157E+01-1.849539542E+03+
*       6.0000000000E+03               0
GRID*               3403               0-1.543379702E+02-1.840986875E+03+
*       6.0000000000E+03               0
GRID*               3404               0-8.570338834E+021.4382303326E+03+
*       6.7617400701E+03               0
GRID*               3405               0-6.138936237E+021.5706549403E+03+
*       6.7497104177E+03               0
GRID*               3406               0-6.763963080E+021.6176817059E+03+
*       6.5604600024E+03               0
GRID*               3407               0-9.195365678E+021.4852570982E+03+
*       6.5724896548E+03               0
GRID*               3408               0-1.843853370E+031.3909047976E+02+
*       6.0000000000E+03               0
GRID*               3409               0-1.838209982E+032.0843438590E+02+
*       5.9365612878E+03               0
GRID*               3410               0-1.844635302E+031.1697900517E+02+
*       5.9018777967E+03               0
GRID*               3411               0-1.832053403E+032.5265764523E+02+
*       6.0000000000E+03               0
GRID*               3412               0-1.825470040E+032.8901706874E+02+
*       5.9324667815E+03               0
GRID*               3413               0-1.846279992E+03-1.168981358E+02+
*       5.7751922371E+03               0
GRID*               3414               0-1.842631108E+032.4926049343E+01+
*       6.0000000000E+03               0
GRID*               3415               0-1.848284187E+03-2.484517999E+01+
*       5.6770700338E+03               0
GRID*               3416               0-1.537865317E+031.0241829138E+03+
*       2.9675591781E+03               0
GRID*               3417               0-1.664549232E+037.8048050827E+02+
*       3.0783824937E+03               0
GRID*               3418               0-1.658143186E+037.9098397521E+02+
*       3.3643175019E+03               0
GRID*               3419               0-1.531459272E+031.0346863807E+03+
*       3.2534941862E+03               0
GRID*               3420               0-1.670130594E+037.6131097464E+02+
*       3.6642865788E+03               0
GRID*               3421               0-1.568964201E+039.8018624081E+02+
*       3.5141492336E+03               0
GRID*               3422               0-1.662932222E+037.8535786048E+02+
*       2.7893770940E+03               0
GRID*               3423               0-1.383590226E+031.2202806496E+03+
*       2.8198285854E+03               0
GRID*               3424               0-1.386985875E+031.2157038919E+03+
*       2.4977372634E+03               0
GRID*               3425               0-1.541260966E+031.0196061562E+03+
*       2.6454678560E+03               0
GRID*               3426               0-1.378668071E+031.2251079188E+03+
*       3.1066750544E+03               0
GRID*               3427               0-1.458577968E+031.1198809154E+03+
*       3.4652722551E+03               0
GRID*               3428               0-1.305786767E+031.3103024535E+03+
*       3.3184531232E+03               0
GRID*               3429               01.7861257042E+03-4.711650414E+02+
*       3.4742544525E+03               0
GRID*               3430               01.8279942938E+03-2.370884105E+02+
*       3.6038384465E+03               0
GRID*               3431               01.7849396971E+03-4.747492929E+02+
*       3.7329425013E+03               0
GRID*               3432               01.6926097009E+03-7.307259860E+02+
*       3.3453417566E+03               0
GRID*               3433               01.6914236938E+03-7.343102375E+02+
*       3.6040298055E+03               0
GRID*               3434               01.7057620688E+03-7.104901793E+02+
*       4.1585404174E+03               0
GRID*               3435               01.6168724246E+03-8.899026206E+02+
*       3.9938513039E+03               0
GRID*               3436               01.7113481144E+03-6.942803027E+02+
*       3.8822573759E+03               0
GRID*               3437               01.7916798129E+03-4.396141066E+02+
*       4.0001022248E+03               0
GRID*               3438               01.7860937674E+03-4.558239833E+02+
*       4.2763852664E+03               0
GRID*               3439               01.6220435580E+03-8.818780682E+02+
*       3.7753984504E+03               0
GRID*               3440               03.9277327592E+021.8017422956E+03+
*       6.1050905358E+03               0
GRID*               3441               0-6.731310012E+028.4483067562E+02+
*       7.4970360963E+03               0
GRID*               3442               0-5.153233838E+026.4856949593E+02+
*       7.6465294381E+03               0
GRID*               3443               0-9.895019452E+026.4624376362E+02+
*       7.3936759579E+03               0
GRID*               3444               0-7.719213230E+025.9130954038E+02+
*       7.5628272855E+03               0
GRID*               3445               0-8.907116234E+028.9976489886E+02+
*       7.3278847687E+03               0
GRID*               3446               05.8035174900E+02-1.705304868E+03+
*       6.3066732278E+03               0
GRID*               3447               06.3856970591E+02-1.723872172E+03+
*       6.1384377363E+03               0
GRID*               3448               07.4451829282E+02-1.644404995E+03+
*       6.2555926601E+03               0
GRID*               3449               09.9406240786E+02-1.517824097E+03+
*       6.2555926601E+03               0
GRID*               3450               01.0745539296E+03-1.358683130E+03+
*       6.5794614358E+03               0
GRID*               3451               08.1936574163E+02-1.524227702E+03+
*       6.6254367364E+03               0
GRID*               3452               01.6771710557E+037.5315450366E+02+
*       2.7665436106E+03               0
GRID*               3453               01.7768058869E+035.1416070156E+02+
*       2.6239579558E+03               0
GRID*               3454               01.6790824397E+037.4983852340E+02+
*       2.4853851919E+03               0
GRID*               3455               01.8082756746E+032.6529120281E+02+
*       2.1844121769E+03               0
GRID*               3456               01.7733303593E+035.2509075631E+02+
*       2.3232121413E+03               0
GRID*               3457               01.8499835683E+03-7.179180417E+00+
*       1.7447426896E+03               0
GRID*               3458               01.6823396303E+037.3586600012E+02+
*       3.0595144684E+03               0
GRID*               3459               01.6851848041E+037.3091932229E+02+
*       3.3318040972E+03               0
GRID*               3460               01.7802015255E+035.0331607888E+02+
*       3.1904116972E+03               0
GRID*               3461               01.8150298939E+032.5591088743E+02+
*       2.4755604641E+03               0
GRID*               3462               01.8171729624E+032.5232670853E+02+
*       1.8833817626E+03               0
GRID*               3463               01.8201305385E+032.4079075465E+02+
*       1.6026151422E+03               0
GRID*               3464               0-7.713436994E+011.8464936740E+03+
*       5.1160889802E+03               0
GRID*               3465               0-2.077145133E+021.8368045704E+03+
*       5.1752251862E+03               0
GRID*               3466               0-1.526818774E+021.8436353468E+03+
*       5.3090966044E+03               0
GRID*               3467               0-4.574644322E+021.7925410496E+03+
*       5.3287162737E+03               0
GRID*               3468               0-4.831143697E+021.7856422412E+03+
*       5.5180208627E+03               0
GRID*               3469               0-3.091145846E+021.8144232530E+03+
*       5.4522714950E+03               0
GRID*               3470               0-2.834646471E+021.8213220614E+03+
*       5.2629669060E+03               0
GRID*               3471               09.0367197097E+011.8451817628E+03+
*       5.1148572665E+03               0
GRID*               3472               01.4819689659E+011.8423234355E+03+
*       5.3078648907E+03               0
GRID*               3473               0-6.094200424E+011.8470159234E+03+
*       5.4831843363E+03               0
GRID*               3474               0-4.597386902E+021.7919521731E+03+
*       5.0019111490E+03               0
GRID*               3475               0-6.370000055E+021.7274416150E+03+
*       5.2569105919E+03               0
GRID*               3476               0-6.626499431E+021.7205428066E+03+
*       5.4462151810E+03               0
GRID*               3477               0-1.560931065E+039.9296629367E+02+
*       4.0017123011E+03               0
GRID*               3478               0-1.649657767E+038.0567261885E+02+
*       3.8949916729E+03               0
GRID*               3479               0-1.642503583E+038.2635187656E+02+
*       4.1178624712E+03               0
GRID*               3480               0-1.848205784E+037.3093173731E+01+
*       3.2350512156E+03               0
GRID*               3481               0-1.796670796E+033.6526299767E+02+
*       4.1362662447E+03               0
GRID*               3482               01.7254032237E+036.6673635587E+02+
*       6.0000000000E+03               0
GRID*               3483               01.6869000788E+037.2263943219E+02+
*       6.1701175273E+03               0
GRID*               3484               01.7416000127E+035.7033975744E+02+
*       6.1636527304E+03               0
GRID*               3485               01.6996591934E+037.2981379483E+02+
*       5.8804159519E+03               0
GRID*               3486               01.7579661366E+035.6069612148E+02+
*       5.8900193443E+03               0
GRID*               3487               01.8201945355E+032.8455362830E+02+
*       6.0000000000E+03               0
GRID*               3488               01.7587438259E+035.5752937221E+02+
*       6.0000000000E+03               0
GRID*               3489               01.8030507223E+032.9736401353E+02+
*       6.1636527304E+03               0
GRID*               3490               01.0694717288E+031.3644121646E+03+
*       6.6444456998E+03               0
GRID*               3491               01.4558904487E+031.1262699533E+03+
*       5.6704307088E+03               0
GRID*               3492               01.3714712005E+031.2412131656E+03+
*       5.8941166679E+03               0
GRID*               3493               01.4718215129E+031.1145787521E+03+
*       5.9026596708E+03               0
GRID*               3494               01.5562407611E+039.9963553976E+02+
*       5.6789737118E+03               0
GRID*               3495               01.5058391568E+031.0684852280E+03+
*       5.5726361550E+03               0
GRID*               3496               01.4077764790E+031.2001161553E+03+
*       6.0000000000E+03               0
GRID*               3497               01.4758790826E+031.1084601646E+03+
*       6.0000000000E+03               0
GRID*               3498               01.4561955987E+031.1148876683E+03+
*       6.1593530732E+03               0
GRID*               3499               01.2603087963E+031.3474541511E+03+
*       5.6337869559E+03               0
GRID*               3500               01.4483012470E+03-1.140978877E+03+
*       3.8656350188E+03               0
GRID*               3501               0-1.311967717E+03-1.296446994E+03+
*       5.6349847381E+03               0
GRID*               3502               0-1.199125686E+03-1.408448258E+03+
*       5.8505079996E+03               0
GRID*               3503               0-1.310555385E+03-1.293703424E+03+
*       5.8770309346E+03               0
GRID*               3504               0-1.423397416E+03-1.181702160E+03+
*       5.6615076730E+03               0
GRID*               3505               01.2089751731E+031.3926198142E+03+
*       3.1948610244E+03               0
GRID*               3506               01.0621380072E+036.3887669625E+02+
*       7.3512278237E+03               0
GRID*               3507               06.9432631806E+021.2001231871E+03+
*       7.2228525685E+03               0
GRID*               3508               09.3148818403E+021.5983602992E+03+
*       6.0000000000E+03               0
GRID*               3509               05.4557080731E+021.3475261861E+03+
*       7.1240554258E+03               0
GRID*               3510               04.8303920422E+021.5242578766E+03+
*       6.8975014729E+03               0
GRID*               3511               03.1342116948E+021.4304720160E+03+
*       7.1269939452E+03               0
GRID*               3512               01.6384207763E+03-8.574186944E+02+
*       5.1666326481E+02               0
GRID*               3513               01.6312224965E+03-8.700990493E+02+
*       1.9953245216E+02               0
GRID*               3514               01.5163259754E+03-1.030254695E+03+
*       4.0997633024E+02               0
GRID*               3515               01.4118609618E+03-1.194882501E+03+
*       2.1044387809E+02               0
GRID*               3516               01.2511288242E+03-1.347541961E+03+
*       4.2173100375E+02               0
GRID*               3517               0-1.494519608E+03-1.082873010E+03+
*       5.8770309346E+03               0
GRID*               3518               0-1.488991544E+03-1.092749772E+03+
*       5.6972486632E+03               0
GRID*               3519               0-1.491550676E+03-1.088824527E+03+
*       5.5708498793E+03               0
GRID*               3520               0-1.384834509E+03-1.225676314E+03+
*       5.4816505348E+03               0
GRID*               3521               0-1.457752298E+03-1.123919023E+03+
*       5.2831417183E+03               0
GRID*               3522               0-1.308803680E+03-1.305604421E+03+
*       5.2742880988E+03               0
GRID*               3523               0-1.626271543E+03-8.645731779E+02+
*       5.5739003254E+03               0
GRID*               3524               0-1.677915443E+03-7.751577124E+02+
*       5.6792100815E+03               0
GRID*               3525               0-1.543194575E+03-9.994090619E+02+
*       5.6761596354E+03               0
GRID*               3526               0-1.669456259E+037.7410131217E+02+
*       2.1941142163E+03               0
GRID*               3527               0-1.767301311E+035.4552952539E+02+
*       2.3447352985E+03               0
GRID*               3528               0-1.669259666E+037.7468905606E+02+
*       2.4984364608E+03               0
GRID*               3529               0-1.767104718E+035.4611726927E+02+
*       2.6490575430E+03               0
GRID*               3530               0-1.815848514E+032.6569376984E+02+
*       2.1978202130E+03               0
GRID*               3531               0-1.811075449E+032.8287898856E+02+
*       2.4922797476E+03               0
GRID*               3532               0-1.849397165E+034.0635585788E+01+
*       2.6471548887E+03               0
GRID*               3533               0-1.805426434E+033.0387386650E+02+
*       2.8039326840E+03               0
GRID*               3534               0-1.815872333E+032.6106300051E+02+
*       1.8843530539E+03               0
GRID*               3535               0-1.849985805E+03-2.641792897E+00+
*       1.7368973569E+03               0
GRID*               3536               0-1.849917400E+031.4677348137E+01+
*       2.0356928550E+03               0
GRID*               3537               0-1.816639077E+03-2.540761500E+02+
*       1.8869010247E+03               0
GRID*               3538               0-1.561301557E+039.9238082192E+02+
*       3.7945741662E+03               0
GRID*               3539               0-1.764032845E+035.5706399936E+02+
*       3.2296575071E+03               0
GRID*               3540               0-1.806268218E+033.0769679422E+02+
*       3.0791981024E+03               0
GRID*               3541               0-1.778796983E+034.9694858414E+02+
*       1.1922445078E+03               0
GRID*               3542               0-1.764159273E+035.3588394345E+02+
*       8.9229603712E+02               0
GRID*               3543               0-1.826084802E+032.1765714957E+02+
*       9.8274456230E+02               0
GRID*               3544               0-1.820002896E+032.4335951705E+02+
*       1.2323512623E+03               0
GRID*               3545               0-1.772715077E+035.2265095162E+02+
*       1.4418512079E+03               0
GRID*               3546               0-1.679510269E+037.6041737657E+02+
*       1.2503570833E+03               0
GRID*               3547               0-1.551900429E+039.9732421894E+02+
*       1.1219712143E+03               0
GRID*               3548               0-1.664872559E+037.9935273589E+02+
*       9.5040861255E+02               0
GRID*               3549               0-1.544544543E+031.0104999967E+03+
*       1.4541800813E+03               0
GRID*               3550               0-1.820000452E+032.4514735457E+02+
*       1.5896250017E+03               0
GRID*               3551               01.6134862750E+038.8890433843E+02+
*       4.3460779130E+03               0
GRID*               3552               01.6705335429E+037.9188737557E+02+
*       5.1478342472E+03               0
GRID*               3553               0-8.351634021E+021.6481100067E+03+
*       5.0717688289E+03               0
GRID*               3554               01.0867839025E+031.7070569618E+02+
*       7.4821030087E+03               0
GRID*               3555               01.2911114461E+039.5349663137E+01+
*       7.3070889814E+03               0
GRID*               3556               01.1289068234E+034.0504590938E+02+
*       7.3894496844E+03               0
GRID*               3557               01.3332343671E+033.2968987634E+02+
*       7.2144356571E+03               0
GRID*               3558               01.3732541498E+031.0371512270E+03+
*       6.6653533705E+03               0
GRID*               3559               01.3640389767E+038.9944656193E+02+
*       6.8448234880E+03               0
GRID*               3560               09.9986902598E+02-1.550311706E+03+
*       5.5164869331E+03               0
GRID*               3561               01.0632552242E+03-1.498742912E+03+
*       5.6624745402E+03               0
GRID*               3562               09.2748899253E+02-1.599647031E+03+
*       5.6721868550E+03               0
GRID*               3563               0-1.069320369E+021.2777350193E+03+
*       7.3162309594E+03               0
GRID*               3564               0-3.494901050E+021.2295992416E+03+
*       7.3155875601E+03               0
GRID*               3565               0-2.733572078E+025.6627400354E+02+
*       7.7332885311E+03               0
GRID*               3566               0-1.552423950E+031.0000342095E+03+
*       1.7531856310E+03               0
GRID*               3567               0-1.546238409E+031.0107646583E+03+
*       2.0510373933E+03               0
GRID*               3568               0-1.389330351E+031.2138638345E+03+
*       1.9034827695E+03               0
GRID*               3569               0-1.198358067E+03-1.275996728E+03+
*       6.5927550366E+03               0
GRID*               3570               0-1.306741104E+03-1.208692092E+03+
*       6.4524983937E+03               0
GRID*               3571               0-1.234619666E+03-1.290339508E+03+
*       6.4197477141E+03               0
GRID*               3572               04.6217668022E+021.2830690170E+03+
*       7.2257910879E+03               0
GRID*               3573               05.1307648243E+021.0688046621E+03+
*       7.3995488278E+03               0
GRID*               3574               02.3045804538E+021.2578726973E+03+
*       7.3226847162E+03               0
GRID*               3575               0-1.274529121E+021.4444848069E+03+
*       7.1444687654E+03               0
GRID*               3576               07.9518040018E+011.4134622318E+03+
*       7.1824281749E+03               0
GRID*               3577               0-2.299506620E+011.5840372089E+03+
*       6.9193064558E+03               0
GRID*               3578               0-1.179778492E+03-1.420802732E+03+
*       6.3723326686E+02               0
GRID*               3579               0-1.342663156E+03-1.265472568E+03+
*       7.5080275655E+02               0
GRID*               3580               0-1.155103048E+03-1.442924740E+03+
*       4.0598552230E+02               0
GRID*               3581               0-1.317987712E+03-1.287594576E+03+
*       5.1955501199E+02               0
GRID*               3582               0-1.179778492E+03-1.420802732E+03+
*       9.0237023033E+02               0
GRID*               3583               0-1.354708950E+03-1.250106688E+03+
*       1.0333745967E+03               0
GRID*               3584               0-1.196451202E+03-1.404990146E+03+
*       1.1857685465E+03               0
GRID*               3585               0-1.371381660E+03-1.234294103E+03+
*       1.3167729130E+03               0
GRID*               3586               0-1.509792511E+03-1.063794265E+03+
*       8.7078993331E+02               0
GRID*               3587               0-1.634965304E+03-8.502743500E+02+
*       9.8145159149E+02               0
GRID*               3588               0-1.474197936E+03-1.116667844E+03+
*       5.7375870665E+02               0
GRID*               3589               0-1.599370728E+03-9.031479291E+02+
*       6.8442036483E+02               0
GRID*               3590               0-1.315835186E+03-1.290265280E+03+
*       1.9442043614E+02               0
GRID*               3591               0-1.472045410E+03-1.119338548E+03+
*       2.4862413080E+02               0
GRID*               3592               0-1.457260692E+031.1255091935E+03+
*       3.9123411292E+03               0
GRID*               3593               0-1.446633128E+031.1364280357E+03+
*       4.0824687888E+03               0
GRID*               3594               08.8071782870E+021.6262911932E+03+
*       5.8850286350E+03               0
GRID*               3595               09.8571805776E+021.5548544938E+03+
*       5.6246989230E+03               0
GRID*               3596               07.1969666917E+021.6979618917E+03+
*       5.6405643583E+03               0
GRID*               3597               0-1.305270010E+031.3103563143E+03+
*       3.7671644672E+03               0
GRID*               3598               0-1.409310875E+031.1772279427E+03+
*       3.6493975042E+03               0
GRID*               3599               0-1.197732012E+031.4037448443E+03+
*       3.1962707530E+03               0
GRID*               3600               0-1.190869887E+031.4103650081E+03+
*       3.4783381554E+03               0
GRID*               3601               0-1.298924642E+031.3169226173E+03+
*       3.6005205257E+03               0
GRID*               3602               0-1.762415835E+035.6194135157E+02+
*       2.9406521074E+03               0
GRID*               3603               01.3002972062E+031.3030797552E+03+
*       5.1633916469E+03               0
GRID*               3604               01.1679168524E+031.4346122769E+03+
*       5.3419183885E+03               0
GRID*               3605               01.3071410521E+031.2935464292E+03+
*       5.3938241160E+03               0
GRID*               3606               01.4395214058E+031.1620139075E+03+
*       5.2152973745E+03               0
GRID*               3607               01.3102575044E+031.2896694258E+03+
*       5.5359924021E+03               0
GRID*               3608               01.5027227045E+031.0723622314E+03+
*       5.4304678689E+03               0
GRID*               3609               01.3296756194E+031.2834044751E+03+
*       6.0000000000E+03               0
GRID*               3610               01.2135142315E+031.3943680035E+03+
*       5.5068229360E+03               0
GRID*               3611               01.0707474206E+031.5058229575E+03+
*       5.4882019320E+03               0
GRID*               3612               09.0748123670E+021.6078834087E+03+
*       5.3196530795E+03               0
GRID*               3613               01.0546402851E+031.5183289014E+03+
*       5.2565790056E+03               0
GRID*               3614               09.9276980390E+021.5550939570E+03+
*       5.1028810165E+03               0
GRID*               3615               08.4561075550E+021.6446484643E+03+
*       5.1659550904E+03               0
GRID*               3616               08.1001418437E+02-1.657668722E+03+
*       5.1261985170E+03               0
GRID*               3617               05.6290653863E+02-1.758803741E+03+
*       5.0267357698E+03               0
GRID*               3618               06.4889003344E+02-1.732244850E+03+
*       5.2309346468E+03               0
GRID*               3619               02.1253589905E+01-1.849228735E+03+
*       5.6613389086E+03               0
GRID*               3620               06.3371123719E+02-1.727157892E+03+
*       4.8920751428E+03               0
GRID*               3621               08.5310304225E+02-1.639338024E+03+
*       4.8843554834E+03               0
GRID*               3622               08.8081888293E+02-1.626022873E+03+
*       4.9915378900E+03               0
GRID*               3623               01.0080038038E+03-1.547337063E+03+
*       5.0951214375E+03               0
GRID*               3624               09.7578804713E+02-1.570280614E+03+
*       4.9053466820E+03               0
GRID*               3625               09.2903723341E+023.6452104735E+02+
*       7.5531049439E+03               0
GRID*               3626               0-4.807262816E+023.5968834628E+02+
*       7.7332446466E+03               0
GRID*               3627               02.8135784758E+021.0436083423E+03+
*       7.4964424562E+03               0
GRID*               3628               04.4007968468E+011.1221454848E+03+
*       7.4564875007E+03               0
GRID*               3629               07.3609818144E+01-1.845057240E+03+
*       6.0000000000E+03               0
GRID*               3630               01.1864517673E+01-1.849103747E+03+
*       5.8688172392E+03               0
GRID*               3631               07.8415006308E+01-1.834941996E+03+
*       6.1381513592E+03               0
GRID*               3632               03.5074186885E+02-1.806362358E+03+
*       6.0000000000E+03               0
GRID*               3633               04.6357212929E+02-1.788905061E+03+
*       6.0000000000E+03               0
GRID*               3634               03.5554705701E+02-1.796247114E+03+
*       6.1381513592E+03               0
GRID*               3635               01.5435893838E+03-1.012191889E+03+
*       1.4705563817E+03               0
GRID*               3636               01.5442153710E+03-1.011093714E+03+
*       1.1947473323E+03               0
GRID*               3637               0-1.649970946E+03-8.102872165E+02+
*       1.2809117259E+03               0
GRID*               3638               0-1.521838306E+03-1.048428385E+03+
*       1.1533617735E+03               0
GRID*               3639               0-1.536078279E+03-1.025044233E+03+
*       1.4607128918E+03               0
GRID*               3640               0-1.664210920E+03-7.869030641E+02+
*       1.5882628442E+03               0
GRID*               3641               0-1.669561634E+03-7.709697291E+02+
*       1.8972838016E+03               0
GRID*               3642               0-1.678604037E+03-7.553312327E+02+
*       2.2036142361E+03               0
GRID*               3643               0-1.775055377E+03-5.187472790E+02+
*       2.0477119180E+03               0
GRID*               3644               0-1.764955215E+03-5.519756137E+02+
*       1.4291685603E+03               0
GRID*               3645               0-1.769704662E+03-5.346806140E+02+
*       1.7386909606E+03               0
GRID*               3646               0-6.003943270E+021.7475676608E+03+
*       5.6450271282E+03               0
GRID*               3647               0-4.637688806E+021.7904226870E+03+
*       5.6648568604E+03               0
GRID*               3648               0-3.542824938E+021.8099677502E+03+
*       5.6302582897E+03               0
GRID*               3649               0-1.319557021E+031.2870219886E+03+
*       1.8704945195E+02               0
GRID*               3650               0-1.158824884E+031.4396814483E+03+
*       3.9833657761E+02               0
GRID*               3651               0-1.158824884E+031.4396814483E+03+
*       1.8704945195E+02               0
GRID*               3652               0-4.843879567E+021.7721181655E+03+
*       5.8857632573E+03               0
GRID*               3653               0-3.821075838E+021.8062028401E+03+
*       6.0000000000E+03               0
GRID*               3654               0-3.477625103E+021.8149731916E+03+
*       5.9055929895E+03               0
GRID*               3655               0-8.558744721E+021.6255120727E+03+
*       5.6354784542E+03               0
GRID*               3656               0-9.181300882E+021.5984872185E+03+
*       5.4366665069E+03               0
GRID*               3657               0-9.109060878E+021.6082996250E+03+
*       5.8551355682E+03               0
GRID*               3658               0-1.015416640E+031.5454772547E+03+
*       5.6048507651E+03               0
GRID*               3659               0-1.040748577E+031.5126182349E+03+
*       5.8751948650E+03               0
GRID*               3660               0-1.145259129E+031.4497958646E+03+
*       5.6249100620E+03               0
GRID*               3661               0-9.577748638E+021.5774318087E+03+
*       6.0000000000E+03               0
GRID*               3662               0-1.183081371E+031.4114987226E+03+
*       6.0000000000E+03               0
GRID*               3663               0-1.179998905E+031.3996917935E+03+
*       6.1507733254E+03               0
GRID*               3664               0-9.546923980E+021.5656248796E+03+
*       6.1507733254E+03               0
GRID*               3665               0-7.513639202E+021.6883344430E+03+
*       5.8857632573E+03               0
GRID*               3666               0-8.606462412E+021.6374302615E+03+
*       6.0000000000E+03               0
GRID*               3667               0-1.266055084E+031.3466851487E+03+
*       5.8751948650E+03               0
GRID*               3668               0-1.190869887E+031.4103650081E+03+
*       3.6909765567E+03               0
GRID*               3669               0-1.190869887E+031.4103650081E+03+
*       3.8568489856E+03               0
GRID*               3670               0-1.544434433E+031.0180211969E+03+
*       4.1944637893E+03               0
GRID*               3671               0-1.294642446E+031.3212751565E+03+
*       3.9372921267E+03               0
GRID*               3672               0-1.751332619E+035.9528202928E+02+
*       3.9875748838E+03               0
GRID*               3673               0-1.382979648E+031.2228008948E+03+
*       1.3098597509E+03               0
GRID*               3674               0-1.207877349E+031.3937214843E+03+
*       1.1786150942E+03               0
GRID*               3675               0-1.190146190E+031.4110555912E+03+
*       8.9019670923E+02               0
GRID*               3676               0-1.365248489E+031.2401350018E+03+
*       1.0214413660E+03               0
GRID*               3677               01.2096377356E+031.3919530851E+03+
*       1.7699639420E+03               0
GRID*               3678               01.2208436982E+031.3804839815E+03+
*       3.5108602843E+03               0
GRID*               3679               01.2208436982E+031.3804839815E+03+
*       3.7228047746E+03               0
GRID*               3680               01.7750329509E+035.2060458241E+02+
*       2.8974408394E+03               0
GRID*               3681               09.0907017203E+02-1.605411866E+03+
*       4.6252980867E+03               0
GRID*               3682               01.1179724111E+03-1.471081584E+03+
*       4.7093716505E+03               0
GRID*               3683               01.0729838594E+03-1.499555472E+03+
*       4.5874256679E+03               0
GRID*               3684               01.1912014072E+03-1.415445618E+03+
*       4.5761031168E+03               0
GRID*               3685               01.2555002224E+03-1.354840017E+03+
*       4.7205476401E+03               0
GRID*               3686               01.6731659088E+03-1.790797827E+02+
*       6.7606303870E+03               0
GRID*               3687               01.7125166871E+03-2.924954681E+01+
*       6.6877533814E+03               0
GRID*               3688               05.1159220460E+02-1.166146650E+03+
*       7.3379897128E+03               0
GRID*               3689               07.3867134973E+02-1.139975716E+03+
*       7.2369976383E+03               0
GRID*               3690               06.5425164817E+02-9.361876729E+02+
*       7.4353965410E+03               0
GRID*               3691               08.8133079331E+02-9.100167388E+02+
*       7.3344044665E+03               0
GRID*               3692               08.5499201167E+02-1.254470092E+03+
*       7.0243200265E+03               0
GRID*               3693               07.4763299342E+02-1.464306281E+03+
*       6.8460480084E+03               0
GRID*               3694               01.0346996719E+03-1.178546648E+03+
*       6.9428625201E+03               0
GRID*               3695               09.2734065370E+02-1.388382836E+03+
*       6.7645905020E+03               0
GRID*               3696               01.2955903996E+03-1.047087924E+03+
*       6.7951712257E+03               0
GRID*               3697               01.1477612299E+03-1.002796307E+03+
*       7.0194185444E+03               0
GRID*               3698               01.1825288416E+03-1.222838264E+03+
*       6.7186152014E+03               0
GRID*               3699               06.3131233148E+02-1.349811904E+03+
*       7.0587256202E+03               0
GRID*               3700               01.2892436993E+03-8.478425515E+02+
*       7.0022372673E+03               0
GRID*               3701               09.7195382401E+02-1.072420972E+03+
*       7.1512112252E+03               0
GRID*               3702               01.0888329692E+03-8.534342284E+02+
*       7.2084355777E+03               0
GRID*               3703               01.7315636028E+036.4651944182E+02+
*       4.2782504468E+03               0
GRID*               3704               01.7832398938E+034.9188507896E+02+
*       3.7684666452E+03               0
GRID*               3705               01.8498881611E+03-1.511398990E+01+
*       1.1116481859E+03               0
GRID*               3706               01.8497136051E+03-2.409017345E+01+
*       8.4058220118E+02               0
GRID*               3707               01.8026446743E+03-4.067014146E+02+
*       6.8179035811E+02               0
GRID*               3708               01.8029504544E+03-4.055732120E+02+
*       4.1809049678E+02               0
GRID*               3709               01.8373339793E+03-1.684692635E+02+
*       5.4369636890E+02               0
GRID*               3710               01.6571759567E+03-8.131128955E+02+
*       1.0231877360E+03               0
GRID*               3711               01.6613190247E+03-8.057620536E+02+
*       7.5282460369E+02               0
GRID*               3712               03.1030459098E+02-1.823459416E+03+
*       5.4538073327E+03               0
GRID*               3713               03.7690179582E+02-1.810986978E+03+
*       5.6505683805E+03               0
GRID*               3714               01.9412222197E+02-1.834280940E+03+
*       5.6340948951E+03               0
GRID*               3715               0-8.313662314E+01-1.835388005E+03+
*       6.1573332517E+03               0
GRID*               3716               04.7177614223E+02-1.787114903E+03+
*       5.8852907247E+03               0
GRID*               3717               0-1.792401252E+034.5327236925E+02+
*       5.4720336099E+03               0
GRID*               3718               0-1.804772988E+033.8542099486E+02+
*       5.6209475105E+03               0
GRID*               3719               0-1.768680539E+035.4213576531E+02+
*       5.6412078288E+03               0
GRID*               3720               0-1.614291539E+03-8.987620575E+02+
*       3.8410411377E+03               0
GRID*               3721               0-1.581591506E+03-9.592412130E+02+
*       4.1325884764E+03               0
GRID*               3722               0-1.665730829E+03-7.751278957E+02+
*       4.0716366983E+03               0
GRID*               3723               0-1.325167852E+03-1.290643907E+03+
*       4.3038919188E+03               0
GRID*               3724               0-1.219243176E+03-1.387307801E+03+
*       4.1538412195E+03               0
GRID*               3725               0-1.195997367E+03-1.405099778E+03+
*       4.2928526190E+03               0
GRID*               3726               0-1.115333799E+03-1.475710048E+03+
*       4.7327623276E+03               0
GRID*               3727               0-1.016230415E+03-1.543201809E+03+
*       4.6658221645E+03               0
GRID*               3728               0-1.097242131E+03-1.489463091E+03+
*       4.6011173654E+03               0
GRID*               3729               01.1586218579E+031.4289103908E+03+
*       4.7946460232E+03               0
GRID*               3730               01.0642390382E+031.5120689253E+03+
*       4.9209725789E+03               0
GRID*               3731               01.2804885437E+031.3188851025E+03+
*       4.9211972225E+03               0
GRID*               3732               01.3748713634E+031.2357265680E+03+
*       4.7948706667E+03               0
GRID*               3733               01.4289760329E+031.1748466369E+03+
*       4.9742934074E+03               0
GRID*               3734               09.4824345786E+021.5859620960E+03+
*       4.8575977537E+03               0
GRID*               3735               08.7677422358E+021.6289871276E+03+
*       5.0395061913E+03               0
GRID*               3736               01.3299179171E+03-1.285016378E+03+
*       3.9370340315E+03               0
GRID*               3737               01.3801884991E+03-1.225842485E+03+
*       4.2312365938E+03               0
GRID*               3738               01.4985718290E+03-1.081804985E+03+
*       4.1598375812E+03               0
GRID*               3739               01.7319430929E+03-6.496468860E+02+
*       4.4302561564E+03               0
GRID*               3740               01.6068733701E+03-8.802830875E+02+
*       4.4641939576E+03               0
GRID*               3741               01.6430534486E+03-8.290593273E+02+
*       4.2655670429E+03               0
GRID*               3742               0-1.206348646E+031.3952502111E+03+
*       2.0598958874E+03               0
GRID*               3743               0-1.206348646E+031.3952502111E+03+
*       1.7663254019E+03               0
GRID*               3744               01.2364026523E+03-1.363929753E+03+
*       3.8506680098E+03               0
GRID*               3745               01.8035376769E+034.0340929170E+02+
*       2.2916489368E+02               0
GRID*               3746               01.8333148189E+031.8191159502E+02+
*       2.0373784039E+02               0
GRID*               3747               01.8209266882E+033.2650184470E+02+
*       4.3290273407E+02               0
GRID*               3748               01.8209351776E+033.7370532142E+01+
*       4.3297138469E+02               0
GRID*               3749               01.8376203587E+03-1.445410629E+02+
*       2.2923354430E+02               0
GRID*               3750               01.8333148035E+031.8174962221E+02+
*       7.2985721697E+02               0
GRID*               3751               0-5.928535106E+00-1.849920959E+03+
*       5.1312068870E+03               0
GRID*               3752               01.8127372570E+033.6624404640E+02+
*       6.7159306423E+02               0
GRID*               3753               01.7402392841E+035.9192496686E+02+
*       6.4213265202E+02               0
GRID*               3754               01.6832865576E+037.6415451494E+02+
*       6.9508295063E+02               0
GRID*               3755               01.6603691187E+038.1582473861E+02+
*       4.5902628181E+02               0
GRID*               3756               01.2188283628E+031.3825739410E+03+
*       9.0638650777E+02               0
GRID*               3757               07.4563889365E+029.8618016864E+02+
*       7.3540664629E+03               0
GRID*               3758               0-7.869765113E+02-4.199968283E+02+
*       7.6199988676E+03               0
GRID*               3759               0-9.971753130E+02-4.282195841E+02+
*       7.4866244845E+03               0
GRID*               3760               0-8.723115374E+02-5.952723064E+02+
*       7.5054146447E+03               0
GRID*               3761               0-1.132231099E+03-1.451202615E+03+
*       6.1327699716E+03               0
GRID*               3762               0-1.147141788E+03-1.360215560E+03+
*       6.4408192429E+03               0
GRID*               3763               0-1.219708977E+03-1.381326564E+03+
*       6.1116984428E+03               0
GRID*               3764               0-1.291830415E+03-1.299679148E+03+
*       6.1444491224E+03               0
GRID*               3765               0-1.269201819E+03-1.340665812E+03+
*       6.0000000000E+03               0
GRID*               3766               0-7.572910447E+021.6859753574E+03+
*       6.0000000000E+03               0
GRID*               3767               0-7.268940145E+021.6884882878E+03+
*       6.1306376651E+03               0
GRID*               3768               0-8.496886069E+021.6382186666E+03+
*       6.0944822597E+03               0
GRID*               3769               0-1.781861279E+03-5.632012723E+01+
*       6.4437680825E+03               0
GRID*               3770               0-1.819609260E+03-2.181180397E+02+
*       6.1348865699E+03               0
GRID*               3771               0-1.780043981E+03-3.343499544E+02+
*       6.2723560291E+03               0
GRID*               3772               0-1.742295999E+03-1.725520420E+02+
*       6.5812375417E+03               0
GRID*               3773               0-1.808987105E+03-3.587947182E+02+
*       6.1023992651E+03               0
GRID*               3774               0-1.665717615E+03-4.619060462E+02+
*       6.6079837516E+03               0
GRID*               3775               0-1.647217756E+03-6.326283002E+02+
*       6.5072238717E+03               0
GRID*               3776               0-1.006365937E+031.0512057012E+03+
*       7.1221917576E+03               0
GRID*               3777               0-1.121660453E+038.3424233496E+02+
*       7.2114517448E+03               0
GRID*               3778               0-9.646124189E+023.6715918836E+02+
*       7.5290913894E+03               0
GRID*               3779               0-1.373028958E+033.6256363613E+02+
*       7.1759302243E+03               0
GRID*               3780               0-1.180836582E+033.0457316958E+02+
*       7.3816941060E+03               0
GRID*               3781               0-1.205726109E+035.8365774485E+02+
*       7.2462786745E+03               0
GRID*               3782               0-1.478672216E+037.7670170555E+02+
*       6.7777675101E+03               0
GRID*               3783               0-1.481248037E+035.3295899254E+02+
*       6.9578847658E+03               0
GRID*               3784               0-1.313945188E+037.5405310125E+02+
*       7.0282332160E+03               0
GRID*               3785               0-8.767968967E+02-1.624687125E+03+
*       4.7562566821E+03               0
GRID*               3786               0-8.694975558E+02-1.629226145E+03+
*       4.6249032916E+03               0
GRID*               3787               0-1.023529756E+03-1.538662789E+03+
*       4.7971755549E+03               0
GRID*               3788               0-9.471916569E+02-1.588616354E+03+
*       4.5238028809E+03               0
GRID*               3789               0-1.028203373E+03-1.534877637E+03+
*       4.4590980818E+03               0
GRID*               3790               0-1.807383854E+033.6414273178E+02+
*       6.0000000000E+03               0
GRID*               3791               0-1.179283697E+031.4212616310E+03+
*       4.1289616034E+03               0
GRID*               3792               0-1.283056256E+031.3321717794E+03+
*       4.2094047445E+03               0
GRID*               3793               0-1.161503458E+031.4338496170E+03+
*       4.2611121019E+03               0
GRID*               3794               0-1.466714966E+03-1.118306784E+03+
*       3.7330657378E+03               0
GRID*               3795               0-1.351468697E+03-1.262079972E+03+
*       3.8627105096E+03               0
GRID*               3796               0-1.468580703E+03-1.115364076E+03+
*       3.9806723959E+03               0
GRID*               3797               0-1.712959966E+03-6.779738918E+02+
*       3.4614414398E+03               0
GRID*               3798               0-1.612425801E+03-9.017047660E+02+
*       3.5934344796E+03               0
GRID*               3799               0-1.718786248E+03-6.564550480E+02+
*       3.7597285854E+03               0
GRID*               3800               0-1.428251503E+03-1.159490850E+03+
*       3.4244815858E+03               0
GRID*               3801               0-1.313005234E+03-1.303264038E+03+
*       3.5541263577E+03               0
GRID*               3802               0-1.211310256E+03-1.390264549E+03+
*       3.2815048878E+03               0
GRID*               3803               0-1.596239458E+03-9.328841676E+02+
*       3.2446629838E+03               0
GRID*               3804               0-1.696773623E+03-7.091532934E+02+
*       3.1126699440E+03               0
GRID*               3805               01.2688947442E+03-1.317342641E+03+
*       4.2770146895E+03               0
GRID*               3806               01.3367501656E+03-1.265378264E+03+
*       4.3855360093E+03               0
GRID*               3807               01.1233459858E+03-1.467409996E+03+
*       4.4675817970E+03               0
GRID*               3808               01.0935152648E+03-1.474498368E+03+
*       4.0863660217E+03               0
GRID*               3809               01.4623917505E+03-1.133028745E+03+
*       4.3584644959E+03               0
GRID*               3810               01.1079357521E+03-1.481545621E+03+
*       5.2962425453E+03               0
GRID*               3811               09.5451117117E+02-1.576009264E+03+
*       5.3047087158E+03               0
GRID*               3812               08.4644444509E+02-1.644775349E+03+
*       5.5249531037E+03               0
GRID*               3813               07.5652155174E+02-1.686340923E+03+
*       5.3357857953E+03               0
GRID*               3814               01.1501881678E+03-1.448138033E+03+
*       4.8991464061E+03               0
GRID*               3815               01.2099930655E+03-1.391632916E+03+
*       5.5129987198E+03               0
GRID*               3816               01.2047190860E+03-1.399076856E+03+
*       5.1540553752E+03               0
GRID*               3817               01.3067763995E+03-1.309164151E+03+
*       5.3708115497E+03               0
GRID*               3818               01.3870615603E+03-1.212802133E+03+
*       5.1515350298E+03               0
GRID*               3819               01.7202175046E+03-6.620981864E+02+
*       6.0000000000E+03               0
GRID*               3820               01.7635354343E+03-5.564556208E+02+
*       6.0000000000E+03               0
GRID*               3821               01.7356432619E+03-6.047970607E+02+
*       6.1345706816E+03               0
GRID*               3822               01.5706745229E+03-7.718058812E+02+
*       6.5904361375E+03               0
GRID*               3823               01.6468808224E+03-6.879379948E+02+
*       6.4380841792E+03               0
GRID*               3824               01.6546069736E+03-5.650870767E+02+
*       6.5876675045E+03               0
GRID*               3825               0-2.612186826E+02-4.267381702E+02+
*       7.7800838900E+03               0
GRID*               3826               0-5.515649616E+02-4.396186386E+02+
*       7.6957270858E+03               0
GRID*               3827               0-3.859034589E+02-7.151809890E+02+
*       7.6377405349E+03               0
GRID*               3828               0-7.733025948E+02-1.232819897E+03+
*       7.1221817346E+03               0
GRID*               3829               0-6.197767913E+02-1.045655019E+03+
*       7.3532166924E+03               0
GRID*               3830               0-7.172850446E+02-9.210159759E+02+
*       7.3959986139E+03               0
GRID*               3831               0-6.213150086E+02-6.955591787E+02+
*       7.5620123167E+03               0
GRID*               3832               0-9.682815734E+02-8.207291036E+02+
*       7.3394009419E+03               0
GRID*               3833               0-3.789468583E+02-9.656652511E+02+
*       7.5301424656E+03               0
GRID*               3834               0-1.308504429E+02-1.171223860E+03+
*       7.4018245758E+03               0
GRID*               3835               08.1691522132E+00-8.961956684E+02+
*       7.5891141382E+03               0
GRID*               3836               0-6.490835474E+021.7224191176E+03+
*       6.0000000000E+03               0
GRID*               3837               0-4.599180510E+021.7722720103E+03+
*       6.1306376651E+03               0
GRID*               3838               0-5.250360428E+021.6697998036E+03+
*       6.5930104503E+03               0
GRID*               3839               0-5.798246801E+021.6847152642E+03+
*       6.4423748822E+03               0
GRID*               3840               0-4.543046278E+021.7209955587E+03+
*       6.4474909136E+03               0
GRID*               3841               0-3.343979987E+021.8085523048E+03+
*       6.1357536964E+03               0
GRID*               3842               0-3.762246857E+02-1.803541841E+03+
*       5.2774843065E+03               0
GRID*               3843               0-2.872087201E+02-1.826288484E+03+
*       5.3940532166E+03               0
GRID*               3844               0-5.463127327E+02-1.758411547E+03+
*       5.3728236538E+03               0
GRID*               3845               0-6.353286983E+02-1.735664904E+03+
*       5.2562547436E+03               0
GRID*               3846               0-7.911314352E+021.2322096571E+03+
*       7.1199090657E+03               0
GRID*               3847               0-6.754771211E+021.0807688548E+03+
*       7.3256020768E+03               0
GRID*               3848               0-4.591632755E+021.0154817658E+03+
*       7.4498912095E+03               0
GRID*               3849               0-7.373242208E+023.0242839073E+02+
*       7.6495424940E+03               0
GRID*               3850               01.8376210086E+03-1.032222190E+02+
*       4.5769845290E+03               0
GRID*               3851               01.7695520183E+035.3063404740E+02+
*       5.5088771234E+03               0
GRID*               3852               01.7393157479E+036.0614043321E+02+
*       5.6586692740E+03               0
GRID*               3853               01.7976226911E+034.3702275985E+02+
*       5.6682726664E+03               0
GRID*               3854               01.6675593478E+037.7759731343E+02+
*       5.5069378423E+03               0
GRID*               3855               01.6373230774E+038.5310369924E+02+
*       5.6567299928E+03               0
GRID*               3856               01.5866181737E+039.5125490579E+02+
*       5.5335865617E+03               0
GRID*               3857               01.6185768771E+038.7634563536E+02+
*       5.9026596708E+03               0
GRID*               3858               0-1.547588410E+031.0089373517E+03+
*       2.3545272228E+03               0
GRID*               3859               0-1.390680353E+031.2120365280E+03+
*       2.2069725991E+03               0
GRID*               3860               0-1.826948960E+03-2.544445884E+02+
*       6.0000000000E+03               0
GRID*               3861               0-1.821659070E+03-3.096378573E+02+
*       5.8663682039E+03               0
GRID*               3862               0-1.840990102E+03-1.720914047E+02+
*       5.6415604410E+03               0
GRID*               3863               0-1.834310451E+032.3804564846E+02+
*       5.8481398474E+03               0
GRID*               3864               0-1.835291408E+036.1252598080E+01+
*       6.1348865699E+03               0
GRID*               3865               0-1.812719441E+03-3.677372737E+02+
*       6.0000000000E+03               0
GRID*               3866               0-1.785668765E+03-4.786661421E+02+
*       6.0000000000E+03               0
GRID*               3867               0-1.849893581E+031.9308117471E+01+
*       2.3491600142E+03               0
GRID*               3868               0-1.821639183E+03-2.296735737E+02+
*       2.5070706734E+03               0
GRID*               3869               0-1.691328758E+03-7.274813503E+02+
*       2.8237183652E+03               0
GRID*               3870               0-1.790124658E+03-4.593729039E+02+
*       2.9618686216E+03               0
GRID*               3871               0-1.783696034E+03-4.875695028E+02+
*       2.6548733331E+03               0
GRID*               3872               0-1.811889630E+03-2.713711496E+02+
*       1.5773786245E+03               0
GRID*               3873               0-1.816615258E+03-2.494453807E+02+
*       2.2003681839E+03               0
GRID*               3874               0-1.190146190E+031.4110555912E+03+
*       6.2542172182E+02               0
GRID*               3875               0-1.249773719E+03-1.349080483E+03+
*       3.9673848677E+03               0
GRID*               3876               0-1.119771150E+03-1.472168906E+03+
*       3.8881147141E+03               0
GRID*               3877               0-1.221466128E+03-1.385168394E+03+
*       3.7834403559E+03               0
GRID*               3878               0-1.119771150E+03-1.472168906E+03+
*       3.5108188860E+03               0
GRID*               3879               0-1.119771150E+03-1.472168906E+03+
*       3.7227633763E+03               0
GRID*               3880               0-1.349634744E+03-1.263912329E+03+
*       4.0527710058E+03               0
GRID*               3881               0-1.408419527E+03-1.189230565E+03+
*       3.1476071329E+03               0
GRID*               3882               0-1.749949573E+03-5.919627472E+02+
*       1.1297084259E+03               0
GRID*               3883               0-1.811892075E+03-2.731589872E+02+
*       1.2201048851E+03               0
GRID*               3884               0-1.808232207E+03-2.857205961E+02+
*       8.5632765287E+02               0
GRID*               3885               0-1.746289705E+03-6.045243561E+02+
*       7.6593119368E+02               0
GRID*               3886               0-1.849078204E+034.3185782681E+01+
*       7.9130402539E+02               0
GRID*               3887               0-1.849966198E+03-7.849305009E+00+
*       1.0784805422E+03               0
GRID*               3888               0-1.849988249E+03-4.429630421E+00+
*       1.3796236175E+03               0
GRID*               3889               01.8498928232E+036.8831596917E+00+
*       2.6126748878E+03               0
GRID*               3890               0-9.249190698E+021.6021144365E+03+
*       4.7396157330E+03               0
GRID*               3891               0-9.602351876E+021.5800995901E+03+
*       5.0380429573E+03               0
GRID*               3892               0-1.179922022E+03-1.423549522E+03+
*       4.5866689751E+03               0
GRID*               3893               0-1.161830354E+03-1.437302565E+03+
*       4.4550240129E+03               0
GRID*               3894               0-1.101697781E+03-1.484998124E+03+
*       4.2002575253E+03               0
GRID*               3895               0-9.899357469E+02-1.561195420E+03+
*       4.2689282895E+03               0
GRID*               3896               0-1.078451972E+03-1.502790101E+03+
*       4.3392689249E+03               0
GRID*               3897               0-9.974402557E+02-1.556528819E+03+
*       4.4039737239E+03               0
GRID*               3898               0-7.976833129E+02-1.668973312E+03+
*       4.8572661662E+03               0
GRID*               3899               01.5885699912E+03-9.404175918E+02+
*       5.8787341206E+03               0
GRID*               3900               01.5459713568E+03-1.015265925E+03+
*       6.0000000000E+03               0
GRID*               3901               01.4783360519E+03-1.110242055E+03+
*       5.8889758947E+03               0
GRID*               3902               0-1.796654417E+03-4.399023949E+02+
*       5.8205826423E+03               0
GRID*               3903               0-1.770613440E+03-5.240626946E+02+
*       5.8974004293E+03               0
GRID*               3904               0-1.799948229E+03-4.269672800E+02+
*       5.9179187291E+03               0
GRID*               3905               0-1.353200120E+031.2555144749E+03+
*       7.3884350757E+02               0
GRID*               3906               0-1.539852059E+031.0127036921E+03+
*       8.3937335594E+02               0
GRID*               3907               0-1.479279060E+031.1095790804E+03+
*       5.4924741734E+02               0
GRID*               3908               0-1.849278817E+034.9629309155E+01+
*       2.9424786789E+03               0
GRID*               3909               0-1.196451202E+03-1.404990146E+03+
*       1.4792105633E+03               0
GRID*               3910               0-1.380550182E+03-1.222092222E+03+
*       1.6128679491E+03               0
GRID*               3911               0-1.205693047E+03-1.395903776E+03+
*       1.7748939083E+03               0
GRID*               3912               0-1.389792027E+03-1.213005852E+03+
*       1.9085512942E+03               0
GRID*               3913               0-1.205693047E+03-1.395903776E+03+
*       2.0687892777E+03               0
GRID*               3914               01.3100311406E+03-1.305778840E+03+
*       4.9754566092E+03               0
GRID*               3915               01.4035476446E+03-1.193298847E+03+
*       6.0000000000E+03               0
GRID*               3916               01.2086208278E+03-1.394055472E+03+
*       6.0000000000E+03               0
GRID*               3917               01.3156931108E+03-1.300420927E+03+
*       5.7804649010E+03               0
GRID*               3918               01.3904815181E+03-1.217364135E+03+
*       5.6694407957E+03               0
GRID*               3919               01.5854118046E+03-9.396156606E+02+
*       5.4827687362E+03               0
GRID*               3920               01.6585739274E+03-8.189259835E+02+
*       5.6479219958E+03               0
GRID*               3921               01.5483399880E+03-9.887504466E+02+
*       5.6581637699E+03               0
GRID*               3922               01.3262375177E+03-1.289793759E+03+
*       5.5418592910E+03               0
GRID*               3923               01.4275533346E+03-1.168229349E+03+
*       5.4940457620E+03               0
GRID*               3924               01.2733792637E+03-1.340064121E+03+
*       5.6589863269E+03               0
GRID*               3925               01.4226665135E+031.1669093078E+03+
*       3.3441733330E+03               0
GRID*               3926               01.3177326262E+031.2982615819E+03+
*       3.7875113598E+03               0
GRID*               3927               0-1.250263627E+031.3635432008E+03+
*       4.3687622614E+03               0
GRID*               3928               0-1.380857560E+031.2137649405E+03+
*       4.3213997450E+03               0
GRID*               3929               01.5842227321E+035.0022628778E+02+
*       6.7958855027E+03               0
GRID*               3930               01.6601410827E+035.1264324612E+02+
*       6.6251083814E+03               0
GRID*               3931               01.5721541762E+038.2562709434E+02+
*       6.4715236542E+03               0
GRID*               3932               01.4888434420E+038.8162004316E+02+
*       6.6531883569E+03               0
GRID*               3933               01.5621316923E+037.5253643114E+02+
*       6.6181069860E+03               0
GRID*               3934               01.4862133417E+037.4011947280E+02+
*       6.7888841072E+03               0
GRID*               3935               01.7248635005E+034.3343423456E+02+
*       6.4720602528E+03               0
GRID*               3936               0-1.095313868E+03-1.488110125E+03+
*       6.0000000000E+03               0
GRID*               3937               0-1.019864950E+03-1.526417010E+03+
*       6.1138942049E+03               0
GRID*               3938               0-8.633896457E+02-1.590554446E+03+
*       6.3507131857E+03               0
GRID*               3939               0-9.757557945E+02-1.515340051E+03+
*       6.3695889524E+03               0
GRID*               3940               0-1.055797032E+03-1.385928344E+03+
*       6.5837378312E+03               0
GRID*               3941               0-1.316166456E+03-1.136288656E+03+
*       6.6154150223E+03               0
GRID*               3942               0-1.197732012E+031.4037448443E+03+
*       2.9306814434E+03               0
GRID*               3943               0-1.119382151E+03-1.472475956E+03+
*       4.0684550814E+03               0
GRID*               3944               01.5078384954E+03-1.071867332E+03+
*       5.2747692421E+03               0
GRID*               3945               05.1029764559E+02-1.766390685E+03+
*       6.1476627512E+03               0
GRID*               3946               05.7368825643E+02-1.758696761E+03+
*       6.0000000000E+03               0
GRID*               3947               06.3138026628E+02-1.737267761E+03+
*       5.8809270704E+03               0
GRID*               3948               04.7193883123E+02-1.784856665E+03+
*       5.5321575314E+03               0
GRID*               3949               07.1330553608E+02-1.699447937E+03+
*       5.5508329899E+03               0
GRID*               3950               07.7787262472E+02-1.675731108E+03+
*       5.6648801848E+03               0
GRID*               3951               05.3650591987E+02-1.761139837E+03+
*       5.6462047263E+03               0
GRID*               3952               01.9464409152E+02-1.825809785E+03+
*       5.8852907247E+03               0
GRID*               3953               0-1.409834580E+02-1.841630706E+03+
*       5.7019094465E+03               0
GRID*               3954               06.7963187929E+02-1.716137491E+03+
*       6.0000000000E+03               0
GRID*               3955               01.6226344468E+038.7022704779E+02+
*       6.0000000000E+03               0
GRID*               3956               0-1.665073212E+03-7.831989664E+02+
*       5.8974004293E+03               0
GRID*               3957               0-1.553654670E+03-9.848821228E+02+
*       6.1434877506E+03               0
GRID*               3958               0-1.728671887E+03-6.577767669E+02+
*       5.6849276138E+03               0
GRID*               3959               0-1.390859055E+031.2123351077E+03+
*       1.6088653006E+03               0
GRID*               3960               0-1.841603146E+031.7291913282E+02+
*       4.2682231011E+03               0
GRID*               3961               0-1.841764354E+03-1.740293637E+01+
*       4.1679912898E+03               0
GRID*               3962               0-1.831109304E+03-2.589679418E+02+
*       4.0524174720E+03               0
GRID*               3963               0-1.809674426E+03-3.758852849E+02+
*       3.8368305792E+03               0
GRID*               3964               0-1.821520835E+03-2.206798503E+02+
*       2.8023944636E+03               0
GRID*               3965               0-1.576438193E+03-9.548600436E+02+
*       4.4833957141E+02               0
GRID*               3966               0-1.202654168E+031.3989175751E+03+
*       2.6438349744E+03               0
GRID*               3967               09.8314257113E+021.5664530551E+03+
*       4.6645149091E+03               0
GRID*               3968               09.0548950667E+021.6070472319E+03+
*       4.7655914716E+03               0
GRID*               3969               01.0288309425E+031.5374837540E+03+
*       4.7757307672E+03               0
GRID*               3970               01.0814667428E+031.4924496975E+03+
*       4.4383802528E+03               0
GRID*               3971               01.1271551142E+031.4634803965E+03+
*       4.5495961109E+03               0
GRID*               3972               01.1316953717E+031.4603735116E+03+
*       4.3185767771E+03               0
GRID*               3973               0-1.784295789E+034.6674540289E+02+
*       4.7262268624E+02               0
GRID*               3974               0-1.836692934E+031.8749220043E+02+
*       4.9437066468E+02               0
GRID*               3975               0-1.813699532E+033.6196356732E+02+
*       6.8581120160E+02               0
GRID*               3976               01.2569460296E+031.3549070332E+03+
*       4.5685113669E+03               0
GRID*               3977               01.3192302143E+031.2837215214E+03+
*       4.4112666559E+03               0
GRID*               3978               01.1968024937E+031.4107168137E+03+
*       4.4273442597E+03               0
GRID*               3979               01.6010450416E+03-9.152571000E+02+
*       6.0000000000E+03               0
GRID*               3980               01.6164707989E+03-8.579559744E+02+
*       6.1345706816E+03               0
GRID*               3981               01.5689111060E+03-9.643413233E+02+
*       6.1102874809E+03               0
GRID*               3982               01.6311392417E+038.7027113289E+02+
*       1.9970448147E+02               0
GRID*               3983               01.4821921747E+031.0672638084E+03+
*       3.6757299926E+02               0
GRID*               3984               01.7310397040E+036.2909021216E+02+
*       1.9970448147E+02               0
GRID*               3985               01.5581278781E+039.7762473005E+02+
*       5.8445034600E+02               0
GRID*               3986               01.3799509341E+031.2290637998E+03+
*       4.9299706345E+02               0
GRID*               3987               01.7484287153E+035.5218276515E+02+
*       4.0344232185E+02               0
GRID*               3988               01.4882050603E+039.7964221365E+02+
*       6.4607592001E+03               0
GRID*               3989               01.9418450653E+02-1.542590778E+03+
*       6.9863503500E+03               0
GRID*               3990               01.5402644994E+03-9.418238608E+02+
*       6.2869226399E+03               0
GRID*               3991               01.8035461663E+03-4.033601049E+02+
*       2.2923354430E+02               0
GRID*               3992               0-1.848274388E+03-2.444497410E+01+
*       5.5287308486E+03               0
GRID*               3993               01.3866065860E+03-1.219137935E+03+
*       1.3292678945E+03               0
GRID*               3994               01.2114717721E+03-1.390101023E+03+
*       1.1980766203E+03               0
GRID*               3995               01.2187761166E+03-1.382627960E+03+
*       9.2551151975E+02               0
GRID*               3996               01.3939109305E+03-1.211664872E+03+
*       1.0567027940E+03               0
GRID*               3997               01.7534254953E+03-5.794745948E+02+
*       6.2455074351E+02               0
GRID*               3998               01.5362918960E+03-1.019146977E+03+
*       6.4181959269E+02               0
GRID*               3999               01.4141970951E+03-1.191982978E+03+
*       5.3513265811E+02               0
GRID*               4000               01.5321488279E+03-1.026497819E+03+
*       9.1218272502E+02               0
GRID*               4001               01.3818443875E+03-1.227068977E+03+
*       7.7413818670E+02               0
GRID*               4002               01.1518097169E+031.4471182208E+03+
*       5.1102954620E+03               0
GRID*               4003               0-1.263618027E+03-1.337574111E+03+
*       4.7414457217E+03               0
GRID*               4004               0-1.374696844E+03-1.236871284E+03+
*       4.6208400593E+03               0
GRID*               4005               0-1.291000839E+03-1.322846694E+03+
*       4.4660633126E+03               0
GRID*               4006               0-1.195857243E+03-1.409719859E+03+
*       5.2873405652E+03               0
GRID*               4007               0-1.271888072E+03-1.329791752E+03+
*       5.4947030013E+03               0
GRID*               4008               0-1.419729049E+03-1.178607044E+03+
*       4.4377957676E+03               0
GRID*               4009               0-1.297701334E+03-1.317349939E+03+
*       5.0437561473E+03               0
GRID*               4010               0-1.419997314E+03-1.161786677E+03+
*       5.1692460790E+03               0
GRID*               4011               0-1.370536532E+03-1.241228149E+03+
*       4.8689761235E+03               0
GRID*               4012               01.4345350387E+031.1547734751E+03+
*       3.6601725929E+03               0
GRID*               4013               01.5644934932E+039.8371381442E+02+
*       3.1838138807E+03               0
GRID*               4014               01.5819538161E+039.5778084915E+02+
*       3.4658399979E+03               0
GRID*               4015               01.5500766509E+039.9262676871E+02+
*       5.1331378548E+03               0
GRID*               4016               01.5016109164E+031.0783948362E+03+
*       4.3591774429E+03               0
GRID*               4017               01.3937231120E+031.2119245413E+03+
*       1.0373737188E+03               0
GRID*               4018               0-1.155103048E+03-1.442924740E+03+
*       1.9442043614E+02               0
GRID*               4019               07.0707553871E+021.7071982824E+03+
*       5.3103682236E+03               0
GRID*               4020               06.1784938457E+021.7349259989E+03+
*       5.0030784371E+03               0
GRID*               4021               0-1.211513965E+03-1.390058307E+03+
*       2.6679602114E+03               0
GRID*               4022               0-1.211310256E+03-1.390264549E+03+
*       3.0162637755E+03               0
GRID*               4023               0-1.841310756E+031.7661397680E+02+
*       4.5368279968E+03               0
GRID*               4024               0-1.841471965E+03-1.370809239E+01+
*       4.4365961855E+03               0
GRID*               4025               0-1.835082131E+03-2.330628922E+02+
*       4.3048727059E+03               0
GRID*               4026               0-1.791660417E+03-4.159035431E+02+
*       4.2059110387E+03               0
GRID*               4027               0-1.830356154E+03-2.685489292E+02+
*       4.4989058540E+03               0
GRID*               4028               0-1.836745987E+03-4.919412937E+01+
*       4.6306293337E+03               0
GRID*               4029               0-1.787418282E+03-4.338714638E+02+
*       4.3335565588E+03               0
GRID*               4030               0-1.211513965E+03-1.390058307E+03+
*       2.3745365873E+03               0
GRID*               4031               0-1.395416761E+03-1.205288163E+03+
*       2.2056042889E+03               0
GRID*               4032               0-1.401237679E+03-1.199442693E+03+
*       2.5113515986E+03               0
GRID*               4033               0-1.408623236E+03-1.189024322E+03+
*       2.7993035687E+03               0
GRID*               4034               01.2208436982E+031.3804839815E+03+
*       3.8881561123E+03               0
GRID*               4035               08.2994594224E+021.6505562277E+03+
*       6.0000000000E+03               0
GRID*               4036               07.3722189940E+021.6863054274E+03+
*       5.9160128063E+03               0
GRID*               4037               08.9517614885E+011.8470649310E+03+
*       5.7901767122E+03               0
GRID*               4038               03.6772401149E+011.8496286861E+03+
*       5.6462118088E+03               0
GRID*               4039               07.3204177737E+02-1.683909075E+03+
*       6.0999738683E+03               0
GRID*               4040               09.8158589240E+02-1.557328177E+03+
*       6.0999738683E+03               0
GRID*               4041               01.2490915336E+02-1.753409449E+03+
*       6.5730107323E+03               0
GRID*               4042               02.8229391185E+01-1.790985797E+03+
*       6.4144762488E+03               0
GRID*               4043               0-2.287993046E+01-1.751838270E+03+
*       6.5597973229E+03               0
GRID*               4044               0-1.639330210E+038.3492275916E+02+
*       6.1377646728E+03               0
GRID*               4045               0-1.694294339E+037.4139712874E+02+
*       6.0000000000E+03               0
GRID*               4046               0-1.700277553E+036.9355386237E+02+
*       6.1513359904E+03               0
GRID*               4047               0-1.825587599E+031.6407283769E+02+
*       5.4744181840E+03               0
GRID*               4048               0-1.837959335E+039.6221463298E+01+
*       5.6233320845E+03               0
GRID*               4049               0-1.731505024E+036.3346797335E+02+
*       6.0000000000E+03               0
GRID*               4050               0-1.722339171E+036.6408566048E+02+
*       5.8684001657E+03               0
GRID*               4051               0-1.834265065E+031.8146787229E+02+
*       6.1154816725E+03               0
GRID*               4052               0-1.780834936E+036.3895146973E+01+
*       6.4243631851E+03               0
GRID*               4053               0-1.745314815E+032.8786369020E+01+
*       6.6044443124E+03               0
GRID*               4054               0-1.754712864E+03-5.736164673E+02+
*       5.6081098269E+03               0
GRID*               4055               0-5.718692758E+028.0166670995E+01+
*       7.7572806551E+03               0
GRID*               4056               0-6.961362990E+02-1.566183317E+02+
*       7.6853068475E+03               0
GRID*               4057               0-4.607247493E+02-1.762401420E+02+
*       7.7610350656E+03               0
GRID*               4058               0-9.417955696E+02-1.974628453E+02+
*       7.5651810765E+03               0
GRID*               4059               0-8.175285464E+023.9322157418E+01+
*       7.6371548841E+03               0
GRID*               4060               0-1.423070518E+031.1871865619E+02+
*       7.1465432974E+03               0
GRID*               4061               0-1.666155672E+038.0400269214E+02+
*       1.9955080650E+02               0
GRID*               4062               0-1.476957269E+031.1124607369E+03+
*       2.2453850593E+02               0
GRID*               4063               0-1.581412541E+039.4785307142E+02+
*       4.2408931243E+02               0
GRID*               4064               0-1.738578080E+032.6752594231E+02+
*       6.5423596417E+03               0
GRID*               4065               0-1.644787011E+039.1474446211E+01+
*       6.8171752893E+03               0
GRID*               4066               0-1.638050275E+033.3021401950E+02+
*       6.7550906186E+03               0
GRID*               4067               0-1.655042175E+036.8676436556E+02+
*       6.3845615148E+03               0
GRID*               4068               0-1.715989518E+035.4539546877E+02+
*       6.3981328324E+03               0
GRID*               4069               0-1.587918474E+035.7205052706E+02+
*       6.7228679989E+03               0
GRID*               4070               0-1.531379838E+032.9112248498E+02+
*       6.9901073855E+03               0
GRID*               4071               0-1.753358992E+034.1102304160E+02+
*       6.3982899486E+03               0
GRID*               4072               0-1.813525857E+032.8985619363E+02+
*       6.1514931066E+03               0
GRID*               4073               0-1.774098201E+033.0263472026E+02+
*       6.3622785144E+03               0
GRID*               4074               0-1.747216990E+034.8530957975E+02+
*       6.2467968420E+03               0
GRID*               4075               01.8498863014E+03-1.673696216E+01+
*       1.4688075755E+03               0
GRID*               4076               01.8100977547E+032.4654425239E+02+
*       3.5877021403E+03               0
GRID*               4077               01.8478376088E+032.5236652934E+01+
*       3.7312852007E+03               0
GRID*               4078               01.7775912020E+035.1251084824E+02+
*       3.4514136941E+03               0
GRID*               4079               01.6743602140E+037.3937237510E+02+
*       3.5854495948E+03               0
GRID*               4080               01.8164734125E+032.6477245482E+02+
*       3.3257024191E+03               0
GRID*               4081               01.5341084936E+03-1.032806217E+03+
*       5.0229742651E+03               0
GRID*               4082               01.4570780739E+03-1.125782923E+03+
*       4.8468958445E+03               0
GRID*               4083               0-1.112816802E+03-1.468043615E+03+
*       5.2296573931E+03               0
GRID*               4084               0-1.095081124E+03-1.489520380E+03+
*       5.4730173629E+03               0
GRID*               4085               0-1.492832512E+03-1.085664888E+03+
*       4.9944660552E+03               0
GRID*               4086               0-1.568945932E+03-9.801012799E+02+
*       5.1780996986E+03               0
GRID*               4087               0-1.200544256E+03-1.406000095E+03+
*       5.1645191042E+03               0
GRID*               4088               0-1.178253710E+03-1.423289281E+03+
*       5.0426617401E+03               0
GRID*               4089               0-1.755582578E+03-5.804918552E+02+
*       3.3013495966E+02               0
GRID*               4090               0-1.723357170E+03-6.562364706E+02+
*       5.2985040026E+02               0
GRID*               4091               0-1.795850638E+03-4.305405419E+02+
*       5.5932198258E+02               0
GRID*               4092               0-1.836696635E+03-1.016341631E+02+
*       4.9429835511E+02               0
GRID*               4093               0-1.826448252E+03-2.935945900E+02+
*       2.2918702293E+02               0
GRID*               4094               01.7896384200E+03-4.339367538E+02+
*       4.4979770846E+03               0
GRID*               4095               01.8340763560E+03-1.251094485E+02+
*       4.3553927109E+03               0
GRID*               4096               01.8087385911E+03-3.731520792E+02+
*       4.8126709644E+03               0
GRID*               4097               01.8116688161E+032.6513297382E+02+
*       2.7610723795E+03               0
GRID*               4098               01.8497824447E+03-1.981616683E+00+
*       2.9092648711E+03               0
GRID*               4099               01.8131465794E+032.5348999191E+02+
*       3.0456333310E+03               0
GRID*               4100               01.8494184664E+031.4946367843E+01+
*       3.1809240529E+03               0
GRID*               4101               01.8201323982E+032.4241372691E+02+
*       1.2454557527E+03               0
GRID*               4102               01.8251253722E+032.2149182392E+02+
*       9.6854754714E+02               0
GRID*               4103               0-1.568023799E+021.8410613454E+03+
*       6.0000000000E+03               0
GRID*               4104               0-4.264859515E+011.8390227652E+03+
*       6.0000000000E+03               0
GRID*               4105               0-9.539380889E+011.8415865203E+03+
*       5.8560350965E+03               0
GRID*               4106               01.0295819459E+03-1.535195855E+03+
*       6.0000000000E+03               0
GRID*               4107               01.0540410685E+03-1.512296982E+03+
*       6.1101498111E+03               0
GRID*               4108               0-1.554343016E+037.1656219382E+01+
*       6.9525074872E+03               0
GRID*               4109               0-1.667750189E+03-1.279918194E+02+
*       6.7795753910E+03               0
GRID*               4110               0-1.499555319E+03-2.199460025E+02+
*       7.0366810192E+03               0
GRID*               4111               01.7433694131E+03-4.819461427E+02+
*       6.2841540069E+03               0
GRID*               4112               01.7751232558E+03-4.995718684E+02+
*       6.1086386823E+03               0
GRID*               4113               01.5416178872E+03-6.279959499E+02+
*       6.7949029356E+03               0
GRID*               4114               01.4258292043E+03-9.834395191E+02+
*       6.6107914155E+03               0
GRID*               4115               01.5044854916E+03-1.061323877E+03+
*       6.1321513150E+03               0
GRID*               4116               01.3900501965E+03-1.102939536E+03+
*       6.4560200907E+03               0
GRID*               4117               01.8229911389E+033.0058383861E+02+
*       5.0821485317E+03               0
GRID*               4118               01.8442933059E+031.3010768470E+02+
*       5.1784052166E+03               0
GRID*               4119               01.7799441100E+03-4.986160443E+02+
*       3.2009655122E+03               0
GRID*               4120               01.7784162685E+03-5.032235216E+02+
*       2.9106237874E+03               0
GRID*               4121               01.8222512008E+03-2.483989046E+02+
*       3.0494826937E+03               0
GRID*               4122               01.6814875878E+03-7.512854704E+02+
*       3.0663779924E+03               0
GRID*               4123               01.8489799652E+03-1.194141032E+00+
*       3.4619908654E+03               0
GRID*               4124               01.8455806292E+03-1.289060788E+01+
*       3.9690709367E+03               0
GRID*               4125               0-1.840768923E+031.8127230835E+02+
*       4.8072073148E+03               0
GRID*               4126               01.8183269546E+03-2.641822477E+02+
*       2.7730979035E+03               0
GRID*               4127               01.8218126996E+03-2.645394134E+02+
*       3.3305495062E+03               0
GRID*               4128               01.8184373331E+03-2.553174713E+02+
*       2.4765079202E+03               0
GRID*               4129               0-1.813565205E+03-3.540931606E+02+
*       4.9711493620E+03               0
GRID*               4130               0-1.809793042E+03-3.774965996E+02+
*       5.2282232570E+03               0
GRID*               4131               0-1.823073036E+03-1.534222194E+02+
*       5.1138640129E+03               0
GRID*               4132               0-1.821042029E+033.1373502774E+02+
*       5.2173989448E+03               0
GRID*               4133               0-1.789742894E+034.2554832165E+02+
*       4.9787475658E+03               0
GRID*               4134               0-1.842614730E+031.5378398469E+02+
*       5.0633818573E+03               0
GRID*               4135               0-1.777846392E+035.1151807818E+02+
*       5.7728076631E+03               0
GRID*               4136               0-1.795932577E+034.3639241514E+02+
*       5.7052744445E+03               0
GRID*               4137               0-1.843728817E+031.2521721594E+02+
*       5.2717116094E+03               0
GRID*               4138               0-1.743996567E+03-6.167121147E+02+
*       4.2345948917E+03               0
GRID*               4139               0-1.770225538E+03-5.328208862E+02+
*       3.9903241459E+03               0
GRID*               4140               0-1.659857244E+03-8.008254320E+02+
*       4.2955466698E+03               0
GRID*               4141               0-1.738369960E+03-6.328330681E+02+
*       4.4425053658E+03               0
GRID*               4142               0-1.106025495E+03-1.472266719E+03+
*       5.1074461872E+03               0
GRID*               4143               0-1.135160768E+03-1.456175623E+03+
*       5.6132990997E+03               0
GRID*               4144               0-1.462645546E+03-1.107789466E+03+
*       4.2046870863E+03               0
GRID*               4145               0-1.576407483E+03-9.626238821E+02+
*       2.9677885308E+03               0
GRID*               4146               01.8257373142E+03-2.752156713E+02+
*       3.8416241825E+03               0
GRID*               4147               01.5953392481E+039.3358365052E+02+
*       3.6916734064E+03               0
GRID*               4148               01.7042189280E+036.8609635437E+02+
*       3.8746904568E+03               0
GRID*               4149               01.4010489808E+03-1.204772663E+03+
*       4.5299805326E+03               0
GRID*               4150               01.5184208436E+03-1.054039005E+03+
*       4.6753798078E+03               0
GRID*               4151               01.5732239873E+03-9.729348235E+02+
*       4.8283755515E+03               0
GRID*               4152               01.6616765138E+03-7.991789061E+02+
*       4.6171897013E+03               0
GRID*               4153               01.4049365856E+03-9.915018543E+01+
*       7.1860588353E+03               0
GRID*               4154               01.5577046474E+03-2.646012378E+02+
*       6.9501799394E+03               0
GRID*               4155               01.6106190553E+03-4.187419322E+02+
*       6.7643633016E+03               0
GRID*               4156               01.4404357182E+03-8.354542857E+02+
*       6.7748159476E+03               0
GRID*               4157               01.4755133716E+033.5774897268E+02+
*       7.0193269040E+03               0
GRID*               4158               01.4887034793E+03-4.738552555E+02+
*       6.9807195734E+03               0
GRID*               4159               0-5.736355265E+02-1.406521648E+03+
*       7.0539579390E+03               0
GRID*               4160               0-7.941889206E+02-1.376098540E+03+
*       6.9324480156E+03               0
GRID*               4161               0-6.790331745E+02-1.479527638E+03+
*       6.8608788697E+03               0
GRID*               4162               0-8.834202159E+02-1.454871396E+03+
*       6.6961170178E+03               0
GRID*               4163               0-8.844110395E+02-1.541052836E+03+
*       6.5125075408E+03               0
GRID*               4164               0-7.682644698E+02-1.558300493E+03+
*       6.6245478720E+03               0
GRID*               4165               0-6.263518074E+02-1.619510676E+03+
*       6.6017697923E+03               0
GRID*               4166               0-5.371205121E+02-1.540737820E+03+
*       6.8381007901E+03               0
GRID*               4167               0-3.972186180E+02-1.689185972E+03+
*       6.6368431870E+03               0
GRID*               4168               0-7.532794923E+02-1.621548179E+03+
*       6.4642047972E+03               0
GRID*               4169               0-9.761759428E+021.2771902065E+03+
*       6.8937965681E+03               0
GRID*               4170               0-1.208372976E+039.8510740572E+02+
*       6.9598045402E+03               0
GRID*               4171               0-1.178182981E+031.2110919110E+03+
*       6.7314093506E+03               0
GRID*               4172               0-3.223032436E+02-1.665567714E+01+
*       7.7980236011E+03               0
GRID*               4173               0-6.667269992E-01-5.008844939E+02+
*       7.7633781815E+03               0
GRID*               4174               02.6176450723E+02-7.198577300E+02+
*       7.6800064989E+03               0
GRID*               4175               01.2125516074E+00-6.457114063E+02+
*       7.6967122074E+03               0
GRID*               4176               0-1.227971770E+02-2.671537054E+02+
*       7.8170724255E+03               0
GRID*               4177               01.7945292050E+03-4.465621047E+02+
*       6.0000000000E+03               0
GRID*               4178               01.7752456659E+03-5.202731011E+02+
*       5.8645801995E+03               0
GRID*               4179               01.8127919610E+03-3.338682023E+02+
*       6.0000000000E+03               0
GRID*               4180               01.7968847454E+03-3.863504578E+02+
*       6.1333629209E+03               0
GRID*               4181               01.8071871255E+03-3.781611080E+02+
*       5.8796152634E+03               0
GRID*               4182               06.2338264272E+02-1.741013511E+03+
*       5.3616656815E+03               0
GRID*               4183               04.5457771790E+02-1.787989880E+03+
*       5.3366051470E+03               0
GRID*               4184               04.8008510862E+02-1.779221219E+03+
*       5.2058741122E+03               0
GRID*               4185               03.9410161381E+02-1.805780111E+03+
*       5.0016752352E+03               0
GRID*               4186               02.9294347765E+02-1.826592631E+03+
*       5.2582549482E+03               0
GRID*               4187               0-6.500998638E+02-1.732010572E+03+
*       6.0000000000E+03               0
GRID*               4188               0-7.290502064E+02-1.698304147E+03+
*       5.8726130696E+03               0
GRID*               4189               0-1.824187124E+03-1.819889881E+02+
*       5.3221937650E+03               0
GRID*               4190               0-1.833880306E+03-2.199525856E+02+
*       5.4347603406E+03               0
GRID*               4191               0-1.710540739E+03-7.046254813E+02+
*       5.5237466324E+03               0
GRID*               4192               0-1.759079988E+03-5.624029956E+02+
*       5.0711498870E+03               0
GRID*               4193               0-1.222252304E+03-1.379364086E+03+
*       4.8602927294E+03               0
GRID*               4194               0-1.102804681E+03-1.485303429E+03+
*       4.8591983222E+03               0
GRID*               4195               01.2103226972E+03-1.391262525E+03+
*       2.0645587765E+03               0
GRID*               4196               01.2103226972E+03-1.391262525E+03+
*       1.7709882910E+03               0
GRID*               4197               01.3933646728E+03-1.209794805E+03+
*       1.9080125678E+03               0
GRID*               4198               0-9.181516767E+02-1.604344174E+03+
*       4.9416625001E+03               0
GRID*               4199               0-8.390380929E+02-1.648630360E+03+
*       5.0426719842E+03               0
GRID*               4200               0-9.251983855E+02-1.599962251E+03+
*       5.0684697144E+03               0
GRID*               4201               0-7.764139734E+02-1.676967204E+03+
*       5.2297978391E+03               0
GRID*               4202               0-1.025021822E+03-1.539771948E+03+
*       5.6489329087E+03               0
GRID*               4203               0-1.747293697E+036.0752923170E+02+
*       4.2689218201E+03               0
GRID*               4204               0-1.649224547E+037.9919855204E+02+
*       4.3455231382E+03               0
GRID*               4205               0-1.733203123E+036.4397379885E+02+
*       4.4895819328E+03               0
GRID*               4206               0-1.559913938E+03-9.894861663E+02+
*       2.3601913571E+03               0
GRID*               4207               0-1.554289204E+03-9.972038558E+02+
*       2.0631383624E+03               0
GRID*               4208               0-1.682220770E+03-7.439252634E+02+
*       2.5040731617E+03               0
GRID*               4209               0-1.569021926E+03-9.730422531E+02+
*       2.6798365607E+03               0
GRID*               4210               0-1.499218649E+03-1.075504358E+03+
*       4.7634196760E+03               0
GRID*               4211               01.6798347091E+037.7142349814E+02+
*       6.0000000000E+03               0
GRID*               4212               01.6029509629E+038.7665455151E+02+
*       6.1593530732E+03               0
GRID*               4213               01.7510432639E+03-5.888622115E+02+
*       4.7449500362E+03               0
GRID*               4214               0-1.557206743E+03-9.957526031E+02+
*       4.3385909351E+03               0
GRID*               4215               0-1.635719458E+03-8.277602392E+02+
*       4.4855496312E+03               0
GRID*               4216               01.6625907374E+03-7.626181289E+02+
*       4.9561358864E+03               0
GRID*               4217               01.7305272469E+03-6.311312356E+02+
*       3.8838940463E+02               0
GRID*               4218               0-3.752356769E+02-1.752624576E+03+
*       6.4310759720E+03               0
GRID*               4219               0-2.146443026E+02-1.776142465E+03+
*       6.4292256272E+03               0
GRID*               4220               01.2303154386E+03-6.984804731E+02+
*       7.1912543007E+03               0
GRID*               4221               01.3285930496E+03-5.319515128E+02+
*       7.1496496188E+03               0
GRID*               4222               01.1773635512E+03-4.898640621E+02+
*       7.3182201122E+03               0
GRID*               4223               01.3904258683E+03-6.403842158E+02+
*       7.0223242553E+03               0
GRID*               4224               01.0297130001E+03-6.750131057E+02+
*       7.3591588535E+03               0
GRID*               4225               0-1.698778077E+037.1920574424E+02+
*       5.0218952534E+03               0
GRID*               4226               0-1.730077212E+036.0739245033E+02+
*       5.2605466324E+03               0
GRID*               4227               0-1.658824708E+038.1799126596E+02+
*       5.2720854394E+03               0
GRID*               4228               0-1.652894047E+038.2980632412E+02+
*       5.8842908039E+03               0
GRID*               4229               0-1.699989016E+034.5855037721E+02+
*       6.5669359692E+03               0
GRID*               4230               0-1.664594413E+035.9788813459E+02+
*       6.5268364389E+03               0
GRID*               4231               0-1.545795917E+038.9141554406E+02+
*       6.4394610260E+03               0
GRID*               4232               0-1.555348155E+038.0253931308E+02+
*       6.5817359501E+03               0
GRID*               4233               01.6900944660E+03-7.514653634E+02+
*       5.4630864130E+03               0
GRID*               4234               01.7077424542E+03-6.872586781E+02+
*       5.8787341206E+03               0
GRID*               4235               01.5414194275E+031.0097274500E+03+
*       8.9611013163E+02               0
GRID*               4236               01.3817010186E+031.2272587500E+03+
*       7.5481300379E+02               0
GRID*               4237               01.2188283628E+031.3825739410E+03+
*       6.4124954429E+02               0
GRID*               4238               0-5.064637668E+02-1.778734360E+03+
*       4.9965511189E+03               0
GRID*               4239               0-6.963677176E+02-1.707824112E+03+
*       4.9357673025E+03               0
GRID*               4240               0-6.979528178E+02-1.707328061E+03+
*       5.0691288887E+03               0
GRID*               4241               0-7.711793781E+021.6813840947E+03+
*       5.2711176354E+03               0
GRID*               4242               0-1.165841256E+031.4339976863E+03+
*       4.7979721075E+03               0
GRID*               4243               0-1.327662555E+031.2782855203E+03+
*       4.7797715002E+03               0
GRID*               4244               0-1.268737422E+031.3448668782E+03+
*       4.9667823221E+03               0
GRID*               4245               0-1.497734841E+031.0831098632E+03+
*       4.6644525735E+03               0
GRID*               4246               0-1.585690056E+039.4803475066E+02+
*       4.8418491814E+03               0
GRID*               4247               0-1.563557219E+039.7994678353E+02+
*       5.1123291399E+03               0
GRID*               4248               0-1.475602004E+031.1150218961E+03+
*       4.9349325321E+03               0
GRID*               4249               0-1.479544802E+031.1098314374E+03+
*       5.5669504943E+03               0
GRID*               4250               0-1.393567313E+031.2123179187E+03+
*       5.3614189715E+03               0
GRID*               4251               0-1.416676871E+031.1816032540E+03+
*       5.1219433540E+03               0
GRID*               4252               0-1.502654361E+031.0791167727E+03+
*       5.3274748768E+03               0
GRID*               4253               0-1.597921850E+039.1716125517E+02+
*       5.4872311763E+03               0
GRID*               4254               0-1.833106899E+03-4.688695651E+01+
*       4.9206672064E+03               0
GRID*               4255               0-1.829083963E+03-2.773533942E+02+
*       4.7440892254E+03               0
GRID*               4256               0-1.660091588E+03-7.986135660E+02+
*       5.0884626555E+03               0
GRID*               4257               0-1.705100010E+03-7.146347078E+02+
*       4.8864765518E+03               0
GRID*               4258               01.5514965455E+03-1.001687256E+03+
*       1.7694822231E+03               0
GRID*               4259               01.5530861442E+03-9.988922811E+02+
*       2.0485147605E+03               0
GRID*               4260               01.2114717721E+03-1.390101023E+03+
*       1.4911694591E+03               0
GRID*               4261               01.3945137477E+03-1.208633302E+03+
*       1.6281937359E+03               0
GRID*               4262               01.6799597464E+03-7.558929477E+02+
*       2.7760362676E+03               0
GRID*               4263               01.5582755212E+03-9.902068456E+02+
*       2.6315389661E+03               0
GRID*               4264               01.5543923935E+03-9.971239321E+02+
*       2.3521815378E+03               0
GRID*               4265               01.6760766187E+03-7.628100342E+02+
*       2.4966788392E+03               0
GRID*               4266               01.6763271829E+03-7.620603952E+02+
*       2.1914521862E+03               0
GRID*               4267               05.7620073988E+021.7579761258E+03+
*       5.6715485297E+03               0
GRID*               4268               0-5.241463030E+02-1.691223475E+03+
*       6.4992781919E+03               0
GRID*               4269               0-1.772607721E+03-4.912131106E+02+
*       5.4470952880E+03               0
GRID*               4270               0-1.747726060E+03-5.909089703E+02+
*       5.3048746013E+03               0
GRID*               4271               0-1.568379979E+03-7.579465216E+02+
*       6.6089851051E+03               0
GRID*               4272               01.7486722614E+03-5.626792093E+02+
*       5.4932229145E+03               0
GRID*               4273               01.7995811960E+03-4.247427927E+02+
*       5.2183850418E+03               0
GRID*               4274               01.8257244825E+03-2.825429262E+02+
*       5.4905458288E+03               0
GRID*               4275               0-1.591171805E+03-4.173458236E+02+
*       6.8063216008E+03               0
GRID*               4276               01.4196408073E+03-2.998925342E+02+
*       7.1435400471E+03               0
GRID*               4277               01.2684113089E+03-2.578050835E+02+
*       7.3121105405E+03               0
GRID*               4278               01.3131240504E+03-1.152139590E+03+
*       6.5999388582E+03               0
GRID*               4279               01.7171538272E+03-3.254249272E+02+
*       6.5839345900E+03               0
GRID*               4280               01.7506629935E+03-1.383514914E+02+
*       6.5767138244E+03               0
GRID*               4281               01.6125211569E+03-8.837170344E+02+
*       5.2550869189E+03               0
GRID*               4282               01.1493753078E+031.4478543994E+03+
*       4.1867905610E+03               0
GRID*               4283               0-1.721148749E+036.6387118488E+02+
*       5.4835724170E+03               0
GRID*               4284               0-1.782287832E+034.0540240880E+02+
*       4.6255312531E+03               0
GRID*               4285               0-1.731261803E+036.4967842210E+02+
*       4.7970715042E+03               0
GRID*               4286               01.4227896276E+02-1.838009200E+03+
*       5.0697252713E+03               0
GRID*               4287               0-1.544250853E+03-1.017240119E+03+
*       4.5803753843E+03               0
GRID*               4288               0-1.620340491E+03-8.859618916E+02+
*       4.7450672157E+03               0
GRID*               4289               0-1.711809096E+03-6.964820120E+02+
*       4.6502414625E+03               0
GRID*               4290               0-1.575332068E+03-9.699407498E+02+
*       4.9470533193E+03               0
GRID*               4291               0-1.774598746E+03-4.856632293E+02+
*       4.8440897503E+03               0
GRID*               4292               0-1.648737660E+03-8.271195407E+02+
*       5.3221873698E+03               0
GRID*               4293               0-1.781307831E+03-4.675105335E+02+
*       4.6078546611E+03               0
GRID*               4294               0-1.666093183E+03-8.041318532E+02+
*       1.9971544061E+02               0
GRID*               4295               0-1.545246801E+03-1.012842352E+03+
*       1.7568079279E+03               0
GRID*               4296               01.4287754636E+031.1635575742E+03+
*       3.9145609075E+03               0
GRID*               4297               01.5895796730E+039.4236774959E+02+
*       3.9460617209E+03               0
GRID*               4298               01.3097946042E+031.3059895985E+03+
*       3.9763099713E+03               0
GRID*               4299               01.5396877753E+031.0256013068E+03+
*       4.1611061432E+03               0
GRID*               4300               01.6577651031E+037.8321641016E+02+
*       4.0932786769E+03               0
GRID*               4301               01.2187761166E+03-1.382627960E+03+
*       6.6073653233E+02               0
GRID*               4302               01.8154279844E+03-2.608317579E+02+
*       1.2508134443E+03               0
GRID*               4303               01.2185509080E+03-1.382860717E+03+
*       2.9227480366E+03               0
GRID*               4304               01.2121536653E+03-1.389409988E+03+
*       2.6396865128E+03               0
GRID*               4305               01.5861028853E+032.8321938843E+02+
*       6.8783644314E+03               0
GRID*               4306               01.5545573603E+03-9.952154166E+02+
*       2.9546029278E+03               0
GRID*               4307               01.3927837294E+03-1.211182489E+03+
*       2.8166966202E+03               0
GRID*               4308               01.1231464019E+03-1.469736840E+03+
*       6.0000000000E+03               0
GRID*               4309               01.1303489843E+03-1.438224930E+03+
*       6.1988229550E+03               0
GRID*               4310               02.4215293414E+01-1.404821052E+03+
*       7.1959789377E+03               0
GRID*               4311               0-2.650439866E+02-1.452953963E+03+
*       7.0791472588E+03               0
GRID*               4312               0-4.201097229E+02-1.219356770E+03+
*       7.2849928969E+03               0
GRID*               4313               0-7.544712965E+02-1.685689643E+03+
*       6.0000000000E+03               0
GRID*               4314               0-7.774150223E+02-1.666090777E+03+
*       6.1138942049E+03               0
GRID*               4315               0-1.290784084E+031.3011955975E+03+
*       6.1830682925E+03               0
GRID*               4316               0-1.353773058E+031.2603643587E+03+
*       6.0000000000E+03               0
GRID*               4317               0-1.392973435E+031.1895076113E+03+
*       6.1726740037E+03               0
GRID*               4318               03.1651479830E+02-1.347422703E+03+
*       7.1872208423E+03               0
GRID*               4319               02.1929269971E+02-1.223544999E+03+
*       7.3467478083E+03               0
GRID*               4320               0-3.622638362E+02-1.518562349E+03+
*       6.9495870572E+03               0
GRID*               4321               0-1.589457665E+03-6.092361824E+02+
*       6.7205407148E+03               0
GRID*               4322               01.2383262138E+031.3733600163E+03+
*       4.2749444200E+03               0
GRID*               4323               01.4207069159E+031.1680333311E+03+
*       4.2228552070E+03               0
GRID*               4324               01.7730519170E+03-5.247384577E+02+
*       2.0510183104E+03               0
GRID*               4325               02.0750782457E+021.8382979080E+03+
*       5.3041372224E+03               0
GRID*               4326               0-1.604299560E+038.9622812418E+02+
*       6.6028267396E+02               0
GRID*               4327               0-1.734755530E+036.4066577903E+02+
*       6.7910752176E+02               0
GRID*               4328               0-1.030576465E+03-1.534280866E+03+
*       4.9239827693E+03               0
GRID*               4329               0-1.564468464E+03-9.870672373E+02+
*       5.3723410628E+03               0
GRID*               4330               0-1.699235415E+037.0785642895E+02+
*       5.6570984670E+03               0
GRID*               4331               0-1.815985449E+03-3.023559423E+02+
*       5.5957748794E+03               0
GRID*               4332               01.7882351056E+034.6560157486E+02+
*       4.9333625095E+03               0
GRID*               4333               01.6132779495E+039.0297509259E+02+
*       5.3483083492E+03               0
GRID*               4334               01.7626804249E+03-5.555359220E+02+
*       1.8885695247E+02               0
GRID*               4335               06.4901285266E+021.7192646623E+03+
*       4.8766295380E+03               0
GRID*               4336               0-2.155850753E+021.8279073888E+03+
*       6.1343311782E+03               0
GRID*               4337               01.3551599272E+031.1374363146E+03+
*       6.4575280709E+03               0
GRID*               4338               01.3965018902E+03-1.206173918E+03+
*       2.4936326585E+03               0
GRID*               4339               01.7248149412E+036.6650959641E+02+
*       5.3064637403E+03               0
GRID*               4340               01.6701635666E+035.8573390932E+02+
*       6.4785250496E+03               0
GRID*               4341               03.5831229486E+02-9.485168078E+02+
*       7.5340373707E+03               0
GRID*               4342               0-1.425093718E+031.1712131045E+03+
*       6.0000000000E+03               0
GRID*               4343               0-1.584309451E+039.4111987343E+02+
*       6.0000000000E+03               0
GRID*               4344               0-1.552189168E+039.5941438023E+02+
*       6.1726740037E+03               0
GRID*               4345               0-1.408112581E+03-1.009370060E+03+
*       6.5814066539E+03               0
GRID*               4346               0-1.397214599E+031.2085844934E+03+
*       5.7904840720E+03               0
GRID*               4347               0-1.344614105E+031.2704223349E+03+
*       5.9207515874E+03               0
GRID*               4348               01.8177643588E+031.3800390153E+02+
*       6.2295163890E+03               0
GRID*               4349               01.7610332595E+031.6375913795E+01+
*       6.5292969721E+03               0
GRID*               4350               01.7706691595E+03-2.298292423E+02+
*       6.4331435040E+03               0
GRID*               4351               01.8157202867E+03-3.154464272E+02+
*       5.1173963368E+03               0
GRID*               4352               01.7871103331E+03-4.781708026E+02+
*       5.0010819172E+03               0
GRID*               4353               01.8194911098E+03-2.524204417E+02+
*       4.9726521725E+03               0
GRID*               4354               01.8455617054E+03-1.126888086E+02+
*       5.5351932055E+03               0
GRID*               4355               01.8418635732E+03-1.732465607E+02+
*       5.3895571238E+03               0
GRID*               4356               01.8408589725E+036.0255244066E-01+
*       5.1708622196E+03               0
GRID*               4357               01.7410034007E+03-6.135289467E+02+
*       5.1882485402E+03               0
GRID*               4358               01.7260771391E+03-6.519404065E+02+
*       5.6337680747E+03               0
GRID*               4359               01.8048334035E+034.0571733326E+02+
*       5.3125859685E+03               0
GRID*               4360               01.7600963264E+035.4159288226E+02+
*       5.1101725854E+03               0
GRID*               4361               01.8408667633E+031.7227205881E+02+
*       6.0000000000E+03               0
GRID*               4362               01.8458490576E+031.2261367812E+02+
*       5.8860935071E+03               0
GRID*               4363               01.8194168462E+032.8772037756E+02+
*       5.8900193443E+03               0
GRID*               4364               0-2.539253972E+02-1.832215136E+03+
*       5.1950567527E+03               0
GRID*               4365               0-1.780079302E+03-4.989754720E+02+
*       2.3544144075E+03               0
GRID*               4366               0-1.711868511E+036.9229072626E+02+
*       4.4291416023E+02               0
GRID*               4367               01.8324774301E+03-2.400804851E+02+
*       4.1087839060E+03               0
GRID*               4368               0-3.991816509E+021.7080893008E+03+
*       6.5648844027E+03               0
GRID*               4369               01.1545861694E+03-6.330523493E+01+
*       7.4331406865E+03               0
GRID*               4370               01.0842630784E+03-3.101062165E+02+
*       7.4643534969E+03               0
GRID*               4371               07.4646703970E+02-5.447377561E+02+
*       7.5962159736E+03               0
GRID*               4372               08.2221082424E+02-7.315956161E+02+
*       7.4851277423E+03               0
GRID*               4373               09.3661252730E+02-4.952552601E+02+
*       7.5052922381E+03               0
GRID*               4374               09.4890472150E+02-1.264294319E+02+
*       7.5636754695E+03               0
GRID*               4375               08.8110245459E+021.0758149920E+02+
*       7.6126377917E+03               0
GRID*               4376               08.4247009514E+02-2.624903750E+02+
*       7.6047533431E+03               0
GRID*               4377               0-1.050763323E+031.4294272483E+03+
*       6.4745401949E+03               0
GRID*               4378               01.4175378771E+03-1.170522820E+03+
*       6.1090686309E+03               0
GRID*               4379               01.2226110603E+03-1.371279445E+03+
*       6.1090686309E+03               0
GRID*               4380               01.3031025821E+03-1.212138478E+03+
*       6.4329374066E+03               0
GRID*               4381               01.8031293602E+03-3.718041234E+02+
*       5.6310909890E+03               0
GRID*               4382               0-1.094393711E+031.4811454747E+03+
*       4.6478606520E+03               0
GRID*               4383               0-1.061099134E+021.8425604206E+03+
*       5.6611711310E+03               0
GRID*               4384               0-1.100794023E+031.4837459736E+03+
*       5.2124711167E+03               0
GRID*               4385               0-8.962511636E+021.6133736780E+03+
*       5.2373917638E+03               0
GRID*               4386               0-1.122672947E+031.4688595141E+03+
*       5.4117458598E+03               0
GRID*               4387               0-1.272745785E+031.3408139762E+03+
*       6.0000000000E+03               0
GRID*               4388               0-1.348385287E+031.2479320927E+03+
*       5.6516612874E+03               0
GRID*               4389               0-1.618173782E+038.7850742852E+02+
*       4.6170254321E+03               0
GRID*               4390               0-1.239821616E+031.3694822235E+03+
*       5.2329655625E+03               0
GRID*               4391               0-1.129709829E+031.4591306283E+03+
*       4.9462878763E+03               0
GRID*               4392               0-1.534195206E+031.0337321817E+03+
*       4.4729666375E+03               0
GRID*               4393               0-1.233528987E+031.3786860991E+03+
*       4.6356480805E+03               0
GRID*               4394               0-1.403601273E+031.1835104420E+03+
*       4.5203291539E+03               0
GRID*               4395               0-1.792226047E+034.1518536685E+02+
*       4.4008786765E+03               0
GRID*               4396               0-1.826444551E+032.9361603430E+02+
*       2.2925933251E+02               0
GRID*               4397               0-1.744031430E+036.1667527188E+02+
*       2.4336335373E+02               0
GRID*               4398               0-1.849078246E+034.2918296525E+01+
*       2.6511133218E+02               0
GRID*               4399               08.2612423773E+02-1.654600838E+03+
*       5.7839531144E+03               0
GRID*               4400               01.4371555481E+031.1645410562E+03+
*       4.6376259557E+03               0
GRID*               4401               01.2121536653E+03-1.389409988E+03+
*       2.3465120900E+03               0
GRID*               4402               0-3.700109802E+021.3963490291E+03+
*       7.1438253661E+03               0
GRID*               4403               0-2.792750218E+021.7956460470E+03+
*       6.2531471856E+03               0
GRID*               4404               01.2108405061E+03-1.279083963E+03+
*       6.5226917307E+03               0
GRID*               4405               0-5.658039507E+021.2948863306E+03+
*       7.1912984274E+03               0
GRID*               4406               0-1.035395428E+031.3784298552E+03+
*       6.6698716828E+03               0
GRID*               4407               0-4.761964053E+021.4947124818E+03+
*       6.9403795064E+03               0
GRID*               4408               0-1.325028931E+03-1.008595261E+03+
*       6.7666610975E+03               0
GRID*               4409               03.0546540934E+02-3.986376871E+02+
*       7.7690160696E+03               0
GRID*               4410               01.8161957808E+033.4266035322E+02+
*       5.5192294698E+03               0
GRID*               4411               01.8343535161E+032.3752685857E+02+
*       5.2887920330E+03               0
GRID*               4412               09.2917599433E+02-1.589556593E+03+
*       6.0000000000E+03               0
GRID*               4413               01.0305407491E+03-1.534602786E+03+
*       5.8882337407E+03               0
GRID*               4414               0-5.939180628E+021.7458946527E+03+
*       5.0161181925E+03               0
GRID*               4415               0-1.111128351E+031.4660025765E+03+
*       4.3809748329E+03               0
GRID*               4416               0-2.382761235E+021.8345182549E+03+
*       5.8709944188E+03               0
GRID*               4417               0-1.262407798E+031.3504185740E+03+
*       5.4461297646E+03               0
GRID*               4418               0-1.502648154E+031.0791253605E+03+
*       5.7089983934E+03               0
GRID*               4419               0-1.420317951E+031.1778784165E+03+
*       5.9325319710E+03               0
GRID*               4420               0-1.202654168E+031.3989175751E+03+
*       2.3506605516E+03               0
GRID*               4421               01.4798489997E+03-1.108355418E+03+
*       6.0000000000E+03               0
GRID*               4422               0-1.526381341E+03-1.042228780E+03+
*       6.0000000000E+03               0
GRID*               4423               0-1.453166043E+03-1.129835398E+03+
*       6.0000000000E+03               0
GRID*               4424               0-1.475794639E+03-1.088848734E+03+
*       6.1444491224E+03               0
GRID*               4425               0-1.384601135E+03-1.104725481E+03+
*       6.4515370219E+03               0
GRID*               4426               0-1.356465525E+031.1275951513E+03+
*       6.4847646456E+03               0
GRID*               4427               0-1.161548503E+031.3309310523E+03+
*       6.5068351620E+03               0
GRID*               4428               0-1.576008516E+039.6114649923E+02+
*       5.6607572262E+03               0
GRID*               4429               0-1.579533685E+039.4778518536E+02+
*       5.9325319710E+03               0
GRID*               4430               0-1.645011322E+038.4440575679E+02+
*       6.0000000000E+03               0
GRID*               4431               01.7744920223E+03-5.190068647E+02+
*       2.6342389972E+03               0
GRID*               4432               01.8452979065E+03-4.374142844E+01+
*       5.3971001208E+03               0
GRID*               4433               01.6747375842E+03-7.648553703E+02+
*       1.9124196488E+03               0
GRID*               4434               01.1663069808E+03-1.433698667E+03+
*       5.8785214259E+03               0
GRID*               4435               0-2.657536243E+02-1.736994938E+03+
*       6.5745467013E+03               0
GRID*               4436               01.7851463505E+03-9.274781786E+01+
*       6.4145559877E+03               0
GRID*               4437               01.8418774497E+032.8880169875E+01+
*       6.1147754046E+03               0
GRID*               4438               01.8240549025E+032.7191606041E+02+
*       5.6643468292E+03               0
GRID*               4439               06.5232460754E+02-3.119728711E+02+
*       7.6956770785E+03               0
GRID*               4440               04.8196007601E+02-5.206707351E+02+
*       7.6924539005E+03               0
GRID*               4441               01.3946709222E+03-1.208026456E+03+
*       2.2116793450E+03               0
GRID*               4442               0-6.673048689E+02-1.697084509E+03+
*       6.2273858164E+03               0
GRID*               4443               0-8.234656424E+021.6214547295E+03+
*       6.2487227853E+03               0
GRID*               4444               0-6.719893758E+021.3932497832E+03+
*       6.9878525677E+03               0
GRID*               4445               01.7747425865E+03-5.182572258E+02+
*       2.3290123442E+03               0
GRID*               4446               05.6191839094E+021.7608477513E+03+
*       5.3052060428E+03               0
GRID*               4447               01.8486061467E+035.8349851173E+01+
*       6.0000000000E+03               0
GRID*               4448               01.8350708198E+03-2.296921303E+02+
*       5.6461260529E+03               0
GRID*               4449               0-1.186468401E+03-1.419363838E+03+
*       6.0000000000E+03               0
GRID*               4450               01.8433074744E+03-5.571899910E+01+
*       6.0000000000E+03               0
GRID*               4451               05.2627147092E+02-7.439247510E+02+
*       7.5837685719E+03               0
GRID*               4452               01.8274002588E+03-1.082012546E+02+
*       6.1333629209E+03               0
GRID*               4453               0-1.088986740E+03-1.492044584E+03+
*       5.8861418086E+03               0
GRID*               4454               0-9.969212242E+02-1.546015877E+03+
*       6.0000000000E+03               0
GRID*               4455               01.8353581168E+036.3677745423E+01+
*       5.5074869372E+03               0
GRID*               4456               01.8432172386E+03-7.066547387E+00+
*       5.6526042966E+03               0
GRID*               4457               01.8377026389E+03-1.000119048E+02+
*       5.8796152634E+03               0
GRID*               4458               01.8478816553E+038.1109507317E+00+
*       5.9097424873E+03               0
GRID*               4459               0-2.704608522E+021.8300723709E+03+
*       6.0000000000E+03               0
GRID*               4460               0-1.321878813E+031.2841403320E+03+
*       5.1175836336E+02               0
GRID*               4461               0-8.465368119E+02-1.631718350E+03+
*       5.8861418086E+03               0
GRID*               4462               08.0472603201E+021.6489303553E+03+
*       5.5040673673E+03               0
GRID*               4463               01.8452498362E+03-1.215692748E+02+
*       5.6762532768E+03               0
$*
$* ELEMENT CARDS
$*
$*  Mesh Collector: Solid(1)
$*  Mesh: 3d_mesh(1)
CTETRA         1       1      18     365     277    2246    3147    3148+
+            302    3149    2759    3150
CTETRA         2       1      18     277     365     766     302    3148+
+           3147    3151    3152    1019
CTETRA         3       1     286     336     337    2132    3153     416+
+           3154    3155    2715    2712
CTETRA         4       1    1423    1426    2132    2133    1621    3156+
+           3157    3158    3159    2708
CTETRA         5       1    1423    2133    2132    2258    3158    2708+
+           3157    3160    2802    2803
CTETRA         6       1     279     317    2212    2214    3161    2612+
+           3162    3163    2610    2611
CTETRA         7       1     134    1491    1567    2136    2124    2127+
+           2123    3164    3165    3166
CTETRA         8       1     133     134    1567    2136     142    2123+
+           2122    3167    3164    3166
CTETRA         9       1     265     267    1495    1498     266    3168+
+           3169    3170    3171    1862
CTETRA        10       1     277    1498    1496    2244    1861    1863+
+           1860    3172    3173    3174
CTETRA        11       1     267    1494    1495    1498    3175    1867+
+           3168    3171    1866    1862
CTETRA        12       1     265    1498    1495    2248    3170    1862+
+           3169    2769    3176    3177
CTETRA        13       1    1498    2244    2248    2249    3173    2766+
+           3176    3178    2777    2772
CTETRA        14       1    1472    2274    2335    2336    3179    3072+
+           3180    3181    3071    3073
CTETRA        15       1    1472    2274    1475    2335    3179    3182+
+           1772    3180    3072    3183
CTETRA        16       1    1471    1476    1472    2336    1769    1771+
+           1770    3184    3185    3181
CTETRA        17       1     165    1476     149    2274    1768    3186+
+           1374    3187    3188    2860
CTETRA        18       1     164     149    1476    2336    1373    3186+
+           1767    3189    3069    3185
CTETRA        19       1    1443    2287    2286    2289    3190    2890+
+           3191    3192    2902    2901
CTETRA        20       1    1443    1446    1445    2289    1670    1669+
+           1668    3192    3193    3194
CTETRA        21       1    1443    2277    2283    2287    3195    2875+
+           3196    3190    2886    2888
CTETRA        22       1    1439    2277    1443    2287    3197    3195+
+           1662    3198    2886    3190
CTETRA        23       1    1443    2283    2286    2287    3196    2889+
+           3191    3190    2888    2890
CTETRA        24       1     496     502     497     757     599     600+
+            601    3199    3200    3201
CTETRA        25       1     502     755     769     772    3202    1039+
+           3203    3204    1048    1046
CTETRA        26       1     501     768     502     770    3205    3206+
+            598    3207    1043    3208
CTETRA        27       1     502     769     770     772    3203    1047+
+           3208    3204    1046    1045
CTETRA        28       1     257     258    2241    2245     261    3209+
+           3210    3211    3212    2749
CTETRA        29       1    1438    1449    2280    2294    1679    3213+
+           3214    3215    3216    2917
CTETRA        30       1    1438    2269    2279    2280    3217    2856+
+           3218    3214    2849    2857
CTETRA        31       1     505     711     506     791    3219    3220+
+            620    3221    1127    3222
CTETRA        32       1     506     711     710     810    3220     872+
+           3223    3224    1171    1170
CTETRA        33       1     506     508     710     711     605    3225+
+           3223    3220    3226     872
CTETRA        34       1     506     809     808     810    3227    1167+
+           3228    3224    1172    1173
CTETRA        35       1     503     735     734     743    3229     925+
+           3230    3231     961     960
CTETRA        36       1    1440    2320    2317    2321    3232    3009+
+           3233    3234    3012    3007
CTETRA        37       1     183    2316    1436    2320    3235    3236+
+           1651    3237    3010    3238
CTETRA        38       1     182    1440    2319    2320    1650    3239+
+           3240    3241    3232    3014
CTETRA        39       1     182     199     183    2320    1393    1396+
+            193    3241    3018    3237
CTETRA        40       1     130    1427     116    2133    1626    3242+
+           1366    3243    3244    2799
CTETRA        41       1     514     515     531     800     635     699+
+            698    3245    3246    3247
CTETRA        42       1     514     531     798     800     698    3248+
+           3249    3245    3247    1118
CTETRA        43       1     488     835     818     837    3250    1277+
+           3251    3252    1278    1276
CTETRA        44       1     490     832     491     833    3253    3254+
+            538    3255    1273    3256
CTETRA        45       1     490     833     836     837    3255    1280+
+           3257    3258    1274    1279
CTETRA        46       1     484     490     485     836     548     539+
+            551    3259    3257    3260
CTETRA        47       1     484     488     490     836     550     549+
+            548    3259    3261    3257
CTETRA        48       1     485     833     491     846    3262    3256+
+            537    3263    1310    3264
CTETRA        49       1     486     491     852     853     540    3265+
+           3266    3267    3268    1340
CTETRA        50       1     287     491     844     852     541    3269+
+           3270    3271    3265    1334
CTETRA        51       1     486     846     491     853    3272    3264+
+            540    3267    1337    3268
CTETRA        52       1      78      94      95    2144     457     100+
+            456    3273    2364    2365
CTETRA        53       1    1469    2339    2337    2348    3274    3083+
+           3275    3276    3111    3112
CTETRA        54       1    1469    2328    1470    2348    3277    3278+
+           1764    3276    3116    3279
CTETRA        55       1    1455    1470    2347    2348    1759    3280+
+           3281    3282    3279    3114
CTETRA        56       1     506     509     753     809     606    3283+
+           3284    3227    3285    1166
CTETRA        57       1     170     154      13     220    1370     155+
+           1369    3286    2909     228
CTETRA        58       1    1434    1439    2271    2277    1631    3287+
+           3288    3289    3197    2867
CTETRA        59       1     286     843     520     850    3290    3291+
+            651    3292    1323    3293
CTETRA        60       1     505     516     712     802     641    3294+
+           3295    3296    3297    1125
CTETRA        61       1    1504    1514    2141    2145    1906    3298+
+           3299    3300    3301    2356
CTETRA        62       1     179     213      15    2297    1695     218+
+            186    3302    3303    3304
CTETRA        63       1     520     841     840     843    3305    1296+
+           3306    3291    1299    1300
CTETRA        64       1     286     520     848     850     651    3307+
+           3308    3292    3293    1322
CTETRA        65       1     486     839     847     848    3309    1314+
+           3310    3311    1320    1321
CTETRA        66       1     486     520     839     848     650    3312+
+           3309    3311    3307    1320
CTETRA        67       1     520     840     841     842    3306    1296+
+           3305    3313    1294    1295
CTETRA        68       1     486     520     513     839     650     648+
+            652    3309    3312    3314
CTETRA        69       1     520     790     840     842    3315    1292+
+           3306    3313    1290    1294
CTETRA        70       1     519     520     521     790     649     662+
+            663    3316    3315    3317
CTETRA        71       1     286     337     336     849    3154     416+
+           3153    3318    1326    1317
CTETRA        72       1    1543    1544    2190    2191    2022    3319+
+           3320    3321    3322    2517
CTETRA        73       1    1544    2180    1556    2190    3323    3324+
+           2073    3319    2511    3325
CTETRA        74       1    1538    1544    2162    2180    2016    3326+
+           3327    3328    3323    2502
CTETRA        75       1    1527    2181    1544    2191    3329    3330+
+           2017    3331    2515    3322
CTETRA        76       1    1528    1538    1544    2162    2002    2016+
+           2015    3332    3327    3326
CTETRA        77       1     285     520     286     843     653     651+
+            311    3333    3291    3290
CTETRA        78       1     286     849     843     850    3318    1316+
+           3290    3292    1324    1323
CTETRA        79       1     520     840     839     850    3306    1293+
+           3312    3293    1319    1318
CTETRA        80       1     492     819     821     826    3334    1210+
+           3335    3336    1218    1219
CTETRA        81       1     487     823     824     826    3337    1222+
+           3338    3339    1221    1220
CTETRA        82       1     280     724     729     730    3340     894+
+           3341    3342     900     898
CTETRA        83       1     279     724     280     730    3343    3340+
+            305    3344     900    3342
CTETRA        84       1     280     729     318     730    3341     899+
+           3345    3342     898     897
CTETRA        85       1     505     712     791     802    3295    1126+
+           3221    3296    1125    1128
CTETRA        86       1     279     318     317     730    3346     374+
+           3161    3344     897     901
CTETRA        87       1     484     530     786     787     695    3347+
+           3348    3349    3350    1143
CTETRA        88       1     514     531     532     798     698     700+
+            693    3249    3248    3351
CTETRA        89       1     523     524     531     804     679     704+
+            703    3352    3353    3354
CTETRA        90       1     525     786     530     805    3355    3347+
+            706    3356    1142    3357
CTETRA        91       1     530     787     532     798    3350    3358+
+            696    3359    1116    3351
CTETRA        92       1     530     798     804     805    3359    1136+
+           3360    3357    1144    1145
CTETRA        93       1     525     795     786     805    3361    1149+
+           3355    3356    1152    1142
CTETRA        94       1     524     525     530     804     671     706+
+            707    3353    3362    3360
CTETRA        95       1     524     794     525     804    3363    3364+
+            671    3353    1146    3362
CTETRA        96       1     286     338     339    2257    3365     421+
+           3366    3367    2798    2796
CTETRA        97       1     287     288    1422    2256     298    1606+
+           1605    3368    3369    3370
CTETRA        98       1     287     288     341     844     298    3371+
+           3372    3270    3373    1336
CTETRA        99       1     486     853     852     855    3267    1340+
+           3266    3374    1349    1351
CTETRA       100       1     287     486     491     852     533     540+
+            541    3271    3266    3265
CTETRA       101       1     286     339     338     854    3366     421+
+           3365    3375    1346    1345
CTETRA       102       1     287     854     486     855    3376    3377+
+            533    3378    1347    3374
CTETRA       103       1    1487    2344    2343    2347    3379    3105+
+           3380    3381    3120    3115
CTETRA       104       1    1456    1486    1487    2347    1820    1829+
+           1836    3382    3383    3381
CTETRA       105       1    1456    1466    2346    2347    1761    3384+
+           3385    3382    3386    3108
CTETRA       106       1    1441    2269    2319    2321    3387    3015+
+           3388    3389    3005    3013
CTETRA       107       1    1437    2268    2269    2280    3390    2848+
+           3391    3392    2847    2849
CTETRA       108       1    1441    1442    2269    2321    1643    3393+
+           3387    3389    3394    3005
CTETRA       109       1    1437    1441    1438    2269    1641    1640+
+           1642    3391    3387    3217
CTETRA       110       1    1438    2269    1442    2270    3217    3393+
+           1635    3395    2858    3396
CTETRA       111       1    1436    2316    2317    2320    3236    3011+
+           3397    3238    3010    3009
CTETRA       112       1    1441    2269    2268    2319    3387    2848+
+           3398    3388    3015    3016
CTETRA       113       1     180     197     181    2268    1386    1390+
+            190    3399    2845    3400
CTETRA       114       1     277    2244    1496    2246    3172    3174+
+           1860    3150    2754    3401
CTETRA       115       1      18     363     364    2246    3402     391+
+           3403    3149    2748    2756
CTETRA       116       1     521     522     716     740     658    3404+
+           3405    3406    3407     946
CTETRA       117       1     281     322    2225    2226    3408    2655+
+           3409    3410    2654    2649
CTETRA       118       1     281    2225     323    2227    3409    2657+
+           3411    3412    2662    2663
CTETRA       119       1     281    1537     321    2226    1989    3413+
+           3414    3410    3415    2656
CTETRA       120       1    1527    1529    2183    2192    1960    3416+
+           3417    3418    3419    2523
CTETRA       121       1    1526    1527    2191    2192    1959    3331+
+           3420    3421    3418    2522
CTETRA       122       1    1527    1544    1543    2191    2017    2022+
+           2021    3331    3322    3321
CTETRA       123       1    1527    1529    1532    2183    1960    1976+
+           1972    3417    3416    3422
CTETRA       124       1    1526    1529    1527    2192    1958    1960+
+           1959    3421    3419    3418
CTETRA       125       1    1529    2143    1531    2183    3423    3424+
+           1968    3416    2490    3425
CTETRA       126       1    1529    2143    2183    2193    3423    2490+
+           3416    3426    2518    2520
CTETRA       127       1    1529    2192    1530    2193    3419    3427+
+           1963    3426    2524    3428
CTETRA       128       1    1529    1531    1532    2183    1968    1977+
+           1976    3416    3425    3422
CTETRA       129       1    1473    1485    1484    2345    1810    1815+
+           1814    3429    3430    3431
CTETRA       130       1    1472    1473    1484    2335    1773    1814+
+           1813    3180    3432    3433
CTETRA       131       1    1457    1483    1484    2351    1822    1812+
+           1823    3434    3435    3436
CTETRA       132       1    1457    1484    2350    2351    1823    3437+
+           3438    3434    3436    3130
CTETRA       133       1    1472    2335    1484    2351    3180    3433+
+           1813    3439    3127    3436
CTETRA       134       1    1484    2345    2350    2351    3431    3119+
+           3437    3436    3129    3130
CTETRA       135       1     286     337     849     851    3154    1326+
+           3318    3440    1329    1327
CTETRA       136       1     286     848     849     850    3308    1325+
+           3318    3292    1322    1324
CTETRA       137       1     515     799     797     800    3441    1121+
+           3442    3246    1109    1119
CTETRA       138       1     515     517     796     799     636    3443+
+           3444    3441    3445    1113
CTETRA       139       1     294     770     773     774    3446    1051+
+           3447    3448    1054    1056
CTETRA       140       1     293     480     501     774     563     589+
+            590    3449    3450    3451
CTETRA       141       1    1435    2317    2318    2321    3452    3008+
+           3453    3454    3007    3006
CTETRA       142       1    1442    2271    2270    2318    3455    2852+
+           3396    3456    3003    3002
CTETRA       143       1    1439    2271    2277    2278    3287    2867+
+           3197    3457    2853    2868
CTETRA       144       1    1435    1440    1436    2317    1646    1648+
+           1647    3452    3233    3397
CTETRA       145       1    1436    2317    1440    2320    3397    3233+
+           1648    3238    3009    3232
CTETRA       146       1    1479    2317    2331    2332    3458    3055+
+           3459    3460    3057    3059
CTETRA       147       1    1435    2318    1442    2321    3453    3456+
+           1639    3454    3006    3394
CTETRA       148       1    1434    2271    1442    2318    3288    3455+
+           1637    3461    3003    3456
CTETRA       149       1    1439    2270    2278    2279    3462    2851+
+           3457    3463    2855    2854
CTETRA       150       1     132    1411     117    2240    2115    3464+
+           1356    3465    3466    2725
CTETRA       151       1    1410    1565    2239    2240    2112    3467+
+           3468    3469    3470    2731
CTETRA       152       1    1410    1411    1565    2240    1618    2113+
+           2112    3469    3466    3470
CTETRA       153       1     117    1411    1425    2240    3464    1611+
+           3471    2725    3466    3472
CTETRA       154       1    1411    1426    1425    2240    1614    1613+
+           1611    3466    3473    3472
CTETRA       155       1     132     118     133    1565    1357    1359+
+            141    2116    3474    2117
CTETRA       156       1     132     118    1565    2240    1357    3474+
+           2116    3465    2728    3470
CTETRA       157       1     118    2233    1565    2239    2724    3475+
+           3474    2729    2730    3467
CTETRA       158       1    1410    1565    2233    2239    2112    3475+
+           3476    3468    3467    2730
CTETRA       159       1    1542    1543    1553    2202    2019    2068+
+           2067    3477    3478    3479
CTETRA       160       1    1527    1528    1544    2181    1973    2015+
+           2017    3329    3480    3330
CTETRA       161       1    1543    1556    1553    2190    2069    2059+
+           2068    3320    3325    3481
CTETRA       162       1    1526    1527    1543    2191    1959    2021+
+           2020    3420    3331    3321
CTETRA       163       1    1543    1544    1556    2190    2022    2073+
+           2069    3320    3319    3325
CTETRA       164       1     289     346     829     830    3482    1241+
+           3483    3484    1252    1253
CTETRA       165       1     289    2307     346    2310    3485    2950+
+           3482    3486    2961    2964
CTETRA       166       1     289     290     347     830     296    3487+
+           3488    3484    3489    1251
CTETRA       167       1     289     346     347    2310    3482     413+
+           3488    3486    2964    2965
CTETRA       168       1     491     832     844     845    3254    1304+
+           3269    3490    1306    1307
CTETRA       169       1     288    1428    2250    2308    1854    3491+
+           3492    3493    3494    2948
CTETRA       170       1    1428    2306    2250    2308    3495    2946+
+           3491    3494    2945    2948
CTETRA       171       1     288     343     344    2308    3496     410+
+           3497    3493    2951    2952
CTETRA       172       1     288     816     343     844    3498    1243+
+           3496    3373    1303    1305
CTETRA       173       1     288    2250    1422    2256    3492    3499+
+           1606    3369    2791    3370
CTETRA       174       1     287     341     288    2256    3372    3371+
+            298    3368    2794    3369
CTETRA       175       1    1472    1484    1483    2351    1813    1812+
+           1811    3439    3436    3435
CTETRA       176       1    1472    1483    2336    2351    1811    3500+
+           3181    3439    3435    3128
CTETRA       177       1     278    1562    2195    2213    2095    3501+
+           3502    3503    3504    2614
CTETRA       178       1    1473    1484    2335    2345    1814    3433+
+           3432    3429    3431    3097
CTETRA       179       1     184     200     201    2316    1394     207+
+           1388    3505    3019    3020
CTETRA       180       1     183     200    2316    2320    1395    3019+
+           3235    3237    3017    3010
CTETRA       181       1     484     835     488     836    3506    3250+
+            550    3259    1269    3261
CTETRA       182       1     485     833     834     836    3262    1281+
+           3507    3260    1280    1265
CTETRA       183       1     488     490     836     837     549    3257+
+           3261    3252    3258    1279
CTETRA       184       1     484     787     786     836    3349    1143+
+           3348    3259    1264    1268
CTETRA       185       1     287     341     340     852    3372     418+
+           3508    3271    1331    1332
CTETRA       186       1     485     486     513     838     542     652+
+            694    3509    3510    3511
CTETRA       187       1     491     846     845     853    3264    1312+
+           3490    3268    1337    1339
CTETRA       188       1     286     486     287     854     534     533+
+            295    3375    3377    3376
CTETRA       189       1     486     848     847     854    3311    1321+
+           3310    3377    1343    1341
CTETRA       190       1     221    2290    1451    2291    2907    3512+
+           3513    2903    2908    3514
CTETRA       191       1     209     170     220    2291    1685    3286+
+           1401    3515    3516    2904
CTETRA       192       1     170     154     220    2291    1370    2909+
+           3286    3516    2910    2904
CTETRA       193       1     209     221    1451    2291    1402    3513+
+           1688    3515    2903    3514
CTETRA       194       1     279    1562    2213    2214    2096    3504+
+           3517    3163    3518    2606
CTETRA       195       1    1562    2211    2196    2213    3519    2597+
+           3520    3504    2608    2613
CTETRA       196       1    1500    1561    1562    2196    2106    2101+
+           2103    3521    3522    3520
CTETRA       197       1    1499    2211    1562    2212    3523    3519+
+           2102    3524    2602    3525
CTETRA       198       1    1504    2142    2141    2164    3526    2357+
+           3299    3527    2450    2448
CTETRA       199       1    1532    2142    2164    2183    3528    2450+
+           3529    3422    2489    2491
CTETRA       200       1    1504    2141    1505    2164    3299    3530+
+           1878    3527    2448    3531
CTETRA       201       1    1505    2163    1532    2164    3532    3533+
+           1969    3531    2440    3529
CTETRA       202       1    1510    2141    2140    2168    3534    2372+
+           3535    3536    2449    2451
CTETRA       203       1    1510    2168    2140    2169    3536    2451+
+           3535    3537    2443    2445
CTETRA       204       1    1526    2191    1543    2202    3420    3321+
+           2020    3538    2562    3478
CTETRA       205       1    1526    1530    1529    2192    1957    1963+
+           1958    3421    3427    3419
CTETRA       206       1    1527    2183    2182    2192    3417    2497+
+           3539    3418    2523    2521
CTETRA       207       1    1527    1528    2181    2182    1973    3480+
+           3329    3539    3540    2500
CTETRA       208       1    1514    1517    1516    2157    1915    1914+
+           1913    3541    3542    3543
CTETRA       209       1    1514    1516    2149    2157    1913    3544+
+           3545    3541    3543    2416
CTETRA       210       1    1514    2141    2145    2149    3298    2356+
+           3301    3545    2370    2373
CTETRA       211       1    1514    1515    1517    2148    1909    1919+
+           1915    3546    3547    3548
CTETRA       212       1    1514    2145    1515    2148    3301    3549+
+           1909    3546    2374    3547
CTETRA       213       1    1510    2141    1514    2149    3534    3298+
+           1907    3550    2370    3545
CTETRA       214       1    1455    2339    1469    2348    3551    3274+
+           1756    3282    3111    3276
CTETRA       215       1    1465    1470    1469    2328    1763    1764+
+           1745    3552    3278    3277
CTETRA       216       1    1455    1456    1487    2347    1760    1836+
+           1837    3281    3382    3381
CTETRA       217       1     133    1567    1564    2136    2122    2119+
+           2118    3167    3166    3553
CTETRA       218       1     133     118     134    2136    1359    1360+
+            142    3167    2723    3164
CTETRA       219       1     483     785     492     835    3554    3555+
+            557    3556    1262    3557
CTETRA       220       1     485     490     833     836     539    3255+
+           3262    3260    3257    1280
CTETRA       221       1     489     832     490     837    3558    3253+
+            547    3559    1272    3258
CTETRA       222       1     506     753     808     809    3284    1155+
+           3228    3227    1166    1167
CTETRA       223       1    1415    2261    2262    2263    3560    2816+
+           3561    3562    2815    2814
CTETRA       224       1     514     800     789     801    3245    1104+
+           3563    3564    1107    1102
CTETRA       225       1     531     797     798     800    3565    1120+
+           3248    3247    1119    1118
CTETRA       226       1    1503    2145    2142    2146    3566    2355+
+           3567    3568    2358    2361
CTETRA       227       1     509     754     708     764    3569    1003+
+           3570    3571    1002     999
CTETRA       228       1     179      15      16    2297     186     194+
+           1383    3302    3304    2935
CTETRA       229       1     485     513     532     834     694     692+
+            690    3507    3572    3573
CTETRA       230       1     513     788     834     838    3574    1266+
+           3572    3511    1282    1284
CTETRA       231       1     513     519     789     839     645    3575+
+           3576    3314    3577    1285
CTETRA       232       1      59    2137    1519    2151    3578    3579+
+           1923    3580    2385    3581
CTETRA       233       1      60    1508    1519    2137    1899    1922+
+           1921    3582    3583    3579
CTETRA       234       1      60    1508    2137    2171    1899    3583+
+           3582    3584    3585    2454
CTETRA       235       1    1519    2138    1520    2152    3586    3587+
+           1927    3588    2393    3589
CTETRA       236       1    1519    2151    2137    2152    3581    2385+
+           3579    3588    2391    2392
CTETRA       237       1      37    2151    1519    2152    3590    3581+
+           1941    3591    2391    3588
CTETRA       238       1      60    2137      45    2171    3582    2455+
+            438    3584    2454    2456
CTETRA       239       1    1525    1542    1541    2202    2014    2013+
+           2012    3592    3477    3593
CTETRA       240       1     287    1422    1423    2255    1605    1604+
+           1607    3594    3595    3596
CTETRA       241       1    1525    1526    2202    2203    1956    3538+
+           3592    3597    3598    2561
CTETRA       242       1    1525    1526    1542    2202    1956    2018+
+           2014    3592    3538    3477
CTETRA       243       1      75    2193    1530    2203    3599    3428+
+           1954    3600    2554    3601
CTETRA       244       1    1525    1530    1526    2203    1955    1957+
+           1956    3597    3601    3598
CTETRA       245       1    1526    1530    2192    2203    1957    3427+
+           3421    3598    3601    2555
CTETRA       246       1    1527    1532    1528    2182    1972    1971+
+           1973    3539    3602    3540
CTETRA       247       1    1529    2183    2192    2193    3416    2523+
+           3419    3426    2520    2524
CTETRA       248       1     485     490     491     833     539     538+
+            537    3262    3255    3256
CTETRA       249       1    1422    1429    2252    2329    1853    3603+
+           3604    3605    3606    3027
CTETRA       250       1    1422    2306    1428    2329    3607    3495+
+           1855    3605    3030    3608
CTETRA       251       1     287    2255     340    2256    3594    2785+
+           3508    3368    2789    2795
CTETRA       252       1     288     342    2250    2256    3609    2783+
+           3492    3369    2793    2791
CTETRA       253       1    1422    2251    2250    2306    3610    2792+
+           3499    3607    2947    2946
CTETRA       254       1    1422    2254    2255    2256    3611    2788+
+           3595    3370    2787    2789
CTETRA       255       1    1421    1424    2254    2259    1598    3612+
+           3613    3614    3615    2810
CTETRA       256       1     107    2260    1416    2266    2822    3616+
+           3617    2829    2828    3618
CTETRA       257       1     257    2241    2243    2245    3210    2740+
+           3619    3211    2749    2752
CTETRA       258       1     237    1419     107    2260    1596    3620+
+            471    3621    3622    2822
CTETRA       259       1    1413    1419    1414    2260    1592    1594+
+           1595    3623    3622    3624
CTETRA       260       1     483     484     786     835     556    3348+
+           3625    3556    3506    1267
CTETRA       261       1     523     531     797     804     703    3565+
+           3626    3352    3354    1135
CTETRA       262       1     514     532     788     798     693    3627+
+           3628    3249    3351    1115
CTETRA       263       1     530     787     798     805    3350    1116+
+           3359    3357    1141    1144
CTETRA       264       1      18     362     363    2243    3629     393+
+           3402    3630    2742    2743
CTETRA       265       1      18     363     362     755    3402     393+
+           3629    3631    1015    1010
CTETRA       266       1     294     362     361     755    3632     392+
+           3633    3634    1010    1011
CTETRA       267       1    1443    2283    1444    2286    3196    3635+
+           1664    3191    2889    3636
CTETRA       268       1    1508    1509    2138    2165    1887    3637+
+           3638    3639    3640    2447
CTETRA       269       1    1513    2165    2166    2169    3641    2437+
+           3642    3643    2436    2435
CTETRA       270       1    1509    2139    2165    2169    3644    2446+
+           3640    3645    2444    2436
CTETRA       271       1    1509    2165    1513    2169    3640    3641+
+           1880    3645    2436    3643
CTETRA       272       1    1410    2233    2232    2239    3476    2692+
+           3646    3468    2730    2732
CTETRA       273       1    1410    2238    2237    2239    3647    2720+
+           3648    3468    2736    2734
CTETRA       274       1    1410    2239    2237    2240    3468    2734+
+           3648    3469    2731    2735
CTETRA       275       1      33      80       3    2154    1930      81+
+             39    3649    3650    3651
CTETRA       276       1     285    2232     333    2238    3652    2697+
+           3653    3654    2717    2716
CTETRA       277       1    1410    1563    2232    2233    2108    3655+
+           3646    3476    3656    2692
CTETRA       278       1     284    2234    1563    2235    3657    3658+
+           2107    3659    2703    3660
CTETRA       279       1     283     284     330     745     313    3661+
+           3662    3663    3664     975
CTETRA       280       1     284    1410    1563    2232    1616    2108+
+           2107    3665    3646    3655
CTETRA       281       1     284     331    2232    2234    3666    2698+
+           3665    3657    2694    2691
CTETRA       282       1     283     330     284    2235    3662    3661+
+            313    3667    2702    3659
CTETRA       283       1      74    1530    1525    2203    1953    1955+
+           1951    3668    3601    3597
CTETRA       284       1      74    1525       7    2203    1951    1952+
+             84    3668    3597    3669
CTETRA       285       1    1530    2193    2192    2203    3428    2524+
+           3427    3601    2554    2555
CTETRA       286       1    1541    1542    1554    2202    2013    2066+
+           2064    3593    3477    3670
CTETRA       287       1    1525    2202    1541    2203    3592    3593+
+           2012    3597    2561    3671
CTETRA       288       1    1543    2191    1553    2202    3321    3672+
+           2068    3478    2562    3479
CTETRA       289       1      79    1515    2144    2147    1903    3673+
+           3674    3675    3676    2377
CTETRA       290       1      79      95      96    2147     452      98+
+            451    3675    2376    2378
CTETRA       291       1      78      79    1515    2144      85    1903+
+           1902    3273    3674    3673
CTETRA       292       1      79    2144      95    2147    3674    2365+
+            452    3675    2377    2376
CTETRA       293       1    1515    2144    2147    2148    3673    2377+
+           3676    3547    2379    2380
CTETRA       294       1    1514    2145    2148    2149    3301    2374+
+           3546    3545    2373    2375
CTETRA       295       1    1515    2145    2144    2148    3549    2360+
+           3673    3547    2374    2379
CTETRA       296       1     181     198     182    2319    1391    1392+
+            191    3677    3022    3240
CTETRA       297       1     182     183    1440    2320     193    1649+
+           1650    3241    3237    3232
CTETRA       298       1     184     201     185    2330    1388    1387+
+            188    3678    3051    3679
CTETRA       299       1    1435    2317    1479    2332    3452    3458+
+           1793    3680    3057    3460
CTETRA       300       1     182    2319     199    2320    3240    3023+
+           1393    3241    3014    3018
CTETRA       301       1    1413    1416    1419    2260    1588    1593+
+           1592    3623    3616    3622
CTETRA       302       1     108    1414    2260    2354    3681    3624+
+           2823    3135    3682    3136
CTETRA       303       1     238    1414     108    2354    1591    3681+
+            464    3683    3682    3135
CTETRA       304       1    1414    1459    1462    2354    1715    1717+
+           1714    3682    3684    3685
CTETRA       305       1     132     117     118    2240    1356     121+
+           1357    3465    2725    2728
CTETRA       306       1     131     117     132    1411    1358    1356+
+            140    1612    3464    2115
CTETRA       307       1     118    2239    1565    2240    2729    3467+
+           3474    2728    2731    3470
CTETRA       308       1     492     821     493     826    3335    3686+
+            565    3336    1219    3687
CTETRA       309       1     498     750     500     811    3688    3689+
+            583    3690    1181    3691
CTETRA       310       1     502     770     768     772    3208    1043+
+           3206    3204    1045    1041
CTETRA       311       1     500     771     501     775    3692    3693+
+            594    3694    1060    3695
CTETRA       312       1     480     748     500     775    3696    3697+
+            586    3698    1058    3694
CTETRA       313       1     480     500     501     775     586     594+
+            589    3698    3694    3695
CTETRA       314       1     500     750     501     771    3689    3699+
+            594    3692    1035    3693
CTETRA       315       1     480     481     500     748     576     585+
+            586    3696    3700    3697
CTETRA       316       1     500     749     748     815    3701    1059+
+           3697    3702    1203    1200
CTETRA       317       1    1455    2343    2339    2348    3703    3103+
+           3551    3282    3113    3111
CTETRA       318       1    1487    2341    2343    2344    3704    3102+
+           3380    3379    3104    3105
CTETRA       319       1    1445    2292    2289    2293    3705    2915+
+           3194    3706    2919    2918
CTETRA       320       1    1450    2289    2288    2293    3707    2900+
+           3708    3709    2918    2920
CTETRA       321       1    1446    2289    2286    2290    3193    2901+
+           3710    3711    2898    2896
CTETRA       322       1    1418    2241    2242    2243    3712    2741+
+           3713    3714    2740    2739
CTETRA       323       1      18     363     755     765    3402    1015+
+           3631    3715    1008    1012
CTETRA       324       1     294     361     362    2242    3633     392+
+           3632    3716    2744    2746
CTETRA       325       1    1536    2216    2223    2224    3717    2642+
+           3718    3719    2644    2645
CTETRA       326       1    1559    2161    2178    2179    3720    2509+
+           3721    3722    2505    2510
CTETRA       327       1    1558    2177    2159    2184    3723    2494+
+           3724    3725    2492    2484
CTETRA       328       1     273    2176    1560    2184    2486    3726+
+           3727    2485    2488    3728
CTETRA       329       1    1421    1430    2253    2337    1850    3729+
+           3730    3731    3732    3077
CTETRA       330       1    1421    1429    1430    2337    1852    1746+
+           1850    3731    3733    3732
CTETRA       331       1    1422    2251    2252    2254    3610    2781+
+           3604    3611    2780    2782
CTETRA       332       1    1420    1421    2253    2259    1600    3730+
+           3734    3735    3614    2805
CTETRA       333       1    1482    2336    1483    2353    3736    3500+
+           1806    3737    3137    3738
CTETRA       334       1    1457    1458    1483    2352    1743    1821+
+           1822    3739    3740    3741
CTETRA       335       1    1457    1483    2351    2352    1822    3435+
+           3434    3739    3741    3132
CTETRA       336       1    1471    1472    1483    2336    1770    1811+
+           1807    3184    3181    3500
CTETRA       337       1      77      94      78    2146     458     457+
+             86    3742    2366    3743
CTETRA       338       1    1471    1483    1482    2336    1807    1806+
+           1805    3184    3500    3736
CTETRA       339       1    1472    1475    1473    2335    1772    1774+
+           1773    3180    3183    3432
CTETRA       340       1     165    1475    1476    2274    1775    1777+
+           1768    3187    3182    3188
CTETRA       341       1       9    1471    1482    2336    1766    1805+
+           1803    3744    3184    3736
CTETRA       342       1     211     224     212    1453    1404    1405+
+            217    1698    3745    1700
CTETRA       343       1     211     224    1453    2295    1404    3745+
+           1698    3746    2924    3747
CTETRA       344       1     211    1453    1450    2295    1698    1699+
+           1684    3746    3747    3748
CTETRA       345       1     211    1450     223    2295    1684    3749+
+           1399    3746    3748    2923
CTETRA       346       1    1445    2293    1450    2295    3706    3709+
+           1704    3750    2927    3748
CTETRA       347       1     258     250      17     106    1873     254+
+            259    3751     476     469
CTETRA       348       1    1449    1453    1452    2294    1703    1701+
+           1702    3216    3752    3753
CTETRA       349       1    1449    2294    1452    2296    3216    3753+
+           1702    3754    2932    3755
CTETRA       350       1     181    2268     198    2319    3400    3021+
+           1391    3677    3016    3022
CTETRA       351       1     181     182    1441    2319     191    1656+
+           1655    3677    3240    3388
CTETRA       352       1    1509    1513    1510    2169    1880    1879+
+           1881    3645    3643    3537
CTETRA       353       1     180     197    2268    2281    1386    2845+
+           3399    3756    2843    2846
CTETRA       354       1     484     485     834     836     551    3507+
+           3757    3259    3260    1265
CTETRA       355       1     529     792     791     807    3758    1133+
+           3759    3760    1159    1169
CTETRA       356       1     514     788     789     800    3628    1106+
+           3563    3245    1105    1104
CTETRA       357       1     278     763     509     764    3761    3762+
+            608    3763     997    3571
CTETRA       358       1     278     708     315     764    3764     857+
+           3765    3763     999     998
CTETRA       359       1     284     331     332    2232    3666     383+
+           3766    3665    2698    2696
CTETRA       360       1     284     739     332     744    3767     944+
+           3766    3768     967     965
CTETRA       361       1     280     511     725     726     623    3769+
+           3770    3771    3772     883
CTETRA       362       1     280     726     728     729    3771     892+
+           3773    3341     895     896
CTETRA       363       1     280     508     726     729     603    3774+
+           3771    3341    3775     895
CTETRA       364       1     517     715     714     799    3776     921+
+           3777    3445    1110    1111
CTETRA       365       1     517     714     796     799    3777    1112+
+           3443    3445    1111    1113
CTETRA       366       1     515     517     516     796     636     638+
+            637    3444    3443    3778
CTETRA       367       1     504     516     517     713     640     638+
+            642    3779    3780    3781
CTETRA       368       1     516     517     713     796     638    3781+
+           3780    3778    3443    1114
CTETRA       369       1     503     504     517     731     632     642+
+            643    3782    3783    3784
CTETRA       370       1     248     271     273     104    3785     272+
+           3786     474    2764    2738
CTETRA       371       1     271    1560     273    2176    3787    3727+
+            272    2487    3726    2486
CTETRA       372       1     247     273    1560    2184    3788    3727+
+           2092    3789    2485    3728
CTETRA       373       1     281     323     324    2227    3411     370+
+           3790    3412    2663    2661
CTETRA       374       1       7    1525    1541    2203    1952    2012+
+           2010    3669    3597    3671
CTETRA       375       1       7    1541     136    2219    2010    2011+
+            137    3791    3792    3793
CTETRA       376       1       7    2203    1541    2219    3669    3671+
+           2010    3791    2618    3792
CTETRA       377       1    1539    1540    1559    2160    2009    2085+
+           2084    3794    3795    3796
CTETRA       378       1    1538    1539    1557    2161    2007    2071+
+           2070    3797    3798    3799
CTETRA       379       1    1539    1540    2160    2175    2009    3795+
+           3794    3800    3801    2480
CTETRA       380       1      64    1540    1539    2175    2008    2009+
+           2006    3802    3801    3800
CTETRA       381       1    1539    2161    2167    2175    3798    2427+
+           3803    3800    2475    2474
CTETRA       382       1    1538    1539    2161    2167    2007    3798+
+           3797    3804    3803    2427
CTETRA       383       1     239    2353    1459    2354    3805    3806+
+           1816    3807    3141    3684
CTETRA       384       1     239      10    2353    2354     463    3138+
+           3805    3807    3140    3141
CTETRA       385       1      10    2336    1482    2353    3070    3736+
+           3808    3138    3137    3737
CTETRA       386       1    1458    1482    1483    2353    1818    1806+
+           1821    3809    3737    3738
CTETRA       387       1    1413    2260    2261    2264    3623    2826+
+           3810    3811    2825    2827
CTETRA       388       1    1413    1415    1416    2264    1587    1581+
+           1588    3811    3812    3813
CTETRA       389       1    1413    1414    1462    2354    1595    1714+
+           1713    3814    3682    3685
CTETRA       390       1    1412    1415    1413    2261    1586    1587+
+           1589    3815    3560    3810
CTETRA       391       1    1413    2322    2260    2354    3816    3040+
+           3623    3814    3142    3136
CTETRA       392       1    1412    1413    1461    2322    1589    1711+
+           1710    3817    3816    3818
CTETRA       393       1     488     836     835     837    3261    1269+
+           3250    3252    1279    1278
CTETRA       394       1     291     353     352     746    3819     398+
+           3820    3821    1066    1067
CTETRA       395       1     495     747     746     820    3822    1070+
+           3823    3824    1204    1205
CTETRA       396       1     528     793     792     806    3825    1139+
+           3826    3827    1157    1156
CTETRA       397       1     506     507     527     808     610     672+
+            673    3228    3828    3829
CTETRA       398       1     506     806     529     807    3830    3831+
+            687    3832    1158    3760
CTETRA       399       1     506     791     711     810    3222    1127+
+           3220    3224    1175    1171
CTETRA       400       1     527     806     751     813    3833    1176+
+           3834    3835    1177    1179
CTETRA       401       1     284     285     333     739     312    3653+
+           3836    3767    3837     943
CTETRA       402       1     284     333     332     739    3836     379+
+           3766    3767     943     944
CTETRA       403       1     521     717     739     740    3838     941+
+           3839    3406     945     948
CTETRA       404       1     285     521     718     739     655    3840+
+           3841    3837    3839     940
CTETRA       405       1     532     787     788     798    3358    1117+
+           3627    3351    1116    1115
CTETRA       406       1     513     514     788     789     646    3628+
+           3574    3576    3563    1106
CTETRA       407       1    1496    1497    2245    2249    1864    3842+
+           3843    3844    3845    2778
CTETRA       408       1     517     518     715     799     639    3846+
+           3776    3445    3847    1110
CTETRA       409       1     515     797     531     800    3442    3565+
+            699    3246    1119    3247
CTETRA       410       1     514     799     800     801    3848    1109+
+           3245    3564    1108    1107
CTETRA       411       1     515     516     523     796     637     685+
+            702    3444    3778    3849
CTETRA       412       1    1456    2347    2346    2349    3382    3108+
+           3385    3850    3125    3122
CTETRA       413       1    1463    2304    2307    2310    3851    2959+
+           3852    3853    2958    2961
CTETRA       414       1    1428    1463    2304    2307    1721    3851+
+           3854    3855    3852    2959
CTETRA       415       1    1428    2307    2305    2308    3855    2943+
+           3856    3494    2942    2941
CTETRA       416       1     288    2250     343    2308    3492    2784+
+           3496    3493    2948    2951
CTETRA       417       1     289    2307    1428    2308    3485    3855+
+           1720    3857    2942    3494
CTETRA       418       1    1503    2142    1531    2146    3567    3858+
+           1966    3568    2361    3859
CTETRA       419       1     280     321    1537    2205    3860    3413+
+           1988    3861    2591    3862
CTETRA       420       1     281    2225    2223    2226    3409    2650+
+           3863    3410    2649    2651
CTETRA       421       1     281     322     321     725    3408     372+
+           3414    3864     886     888
CTETRA       422       1     280     320     319     728    3865     376+
+           3866    3773     890     904
CTETRA       423       1     280     725     321     728    3770     888+
+           3860    3773     891     889
CTETRA       424       1    1505    2163    2168    2170    3532    2439+
+           3867    3868    2431    2442
CTETRA       425       1    1506    2167    2162    2170    3869    2426+
+           3870    3871    2432    2429
CTETRA       426       1    1510    2140    2139    2169    3535    2419+
+           3872    3537    2445    2444
CTETRA       427       1    1505    2168    1510    2169    3867    3536+
+           1876    3873    2443    3537
CTETRA       428       1      80    2147      96    2154    3874    2378+
+            450    3650    2399    2398
CTETRA       429       1       6    2160    1540    2174    3875    3795+
+           2004    3876    2469    3877
CTETRA       430       1    1531    2143    2142    2183    3424    2362+
+           3858    3425    2490    2489
CTETRA       431       1      74       7       8    2203      84      90+
+            455    3668    3669    2576
CTETRA       432       1      64    2174    1540    2175    3878    3877+
+           2008    3802    2482    3801
CTETRA       433       1      64      65    1540    2174      68    2003+
+           2008    3878    3879    3877
CTETRA       434       1    1539    2160    2161    2175    3794    2481+
+           3798    3800    2480    2475
CTETRA       435       1       6    1558    1540    2160    2077    2078+
+           2004    3875    3880    3795
CTETRA       436       1       6    1540      65    2174    2004    2003+
+             69    3876    3877    3879
CTETRA       437       1      64      49    2174    2175     440    2473+
+           3878    3802    2479    2482
CTETRA       438       1    1438    1441    1442    2269    1640    1643+
+           1635    3217    3387    3393
CTETRA       439       1      64    1539    1507    2175    2006    2005+
+           1897    3802    3800    3881
CTETRA       440       1    1516    1520    2139    2150    1925    3882+
+           3883    3884    3885    2422
CTETRA       441       1    1516    2157    2156    2158    3543    2414+
+           3886    3887    2421    2425
CTETRA       442       1    1516    2140    2149    2158    3888    2371+
+           3544    3887    2417    2420
CTETRA       443       1    1516    2149    2157    2158    3544    2416+
+           3543    3887    2420    2421
CTETRA       444       1    1516    2139    2140    2158    3883    2419+
+           3888    3887    2418    2417
CTETRA       445       1    1509    1516    1520    2139    1912    1925+
+           1924    3644    3883    3882
CTETRA       446       1    1434    2271    2318    2333    3288    3003+
+           3461    3889    3060    3062
CTETRA       447       1    1442    2318    2270    2321    3456    3002+
+           3396    3394    3006    3004
CTETRA       448       1     182    1440    1441    2319    1650    1645+
+           1656    3240    3239    3388
CTETRA       449       1     134     135    1491    2136     138    2042+
+           2124    3164    3890    3165
CTETRA       450       1    1491    1566    1567    2136    2125    2121+
+           2127    3165    3891    3166
CTETRA       451       1    1502    1560    2176    2184    2094    3726+
+           3892    3893    3728    2488
CTETRA       452       1     246    2159     275    2184    3894    2471+
+           3895    3896    2484    2483
CTETRA       453       1     246     247     273     104     253    3788+
+           3897     475     473    2738
CTETRA       454       1     246     275       5     104    3895     276+
+            472     475    2737     112
CTETRA       455       1     248     271     104    2247    3785    2764+
+            474    3898    2760    2762
CTETRA       456       1     292    2314     354    2315    3899    2988+
+           3900    3901    2997    2999
CTETRA       457       1     280    2208    2209    2210    3902    2595+
+           3903    3904    2589    2594
CTETRA       458       1     280     319     320    2210    3866     376+
+           3865    3904    2593    2592
CTETRA       459       1     280     321     320     728    3860     373+
+           3865    3773     889     890
CTETRA       460       1      79    1518    1515    2147    1916    1918+
+           1903    3675    3905    3676
CTETRA       461       1      79      80    1518    2147      82    1917+
+           1916    3675    3874    3905
CTETRA       462       1      79      96      80    2147     451     450+
+             82    3675    2378    3874
CTETRA       463       1    1518    2148    2147    2155    3906    2380+
+           3905    3907    2404    2402
CTETRA       464       1    1526    1543    1542    2202    2020    2019+
+           2018    3538    3478    3477
CTETRA       465       1    1528    2162    1544    2181    3332    3326+
+           2015    3480    2501    3330
CTETRA       466       1    1506    1538    2162    2167    2000    3327+
+           3870    3869    3804    2426
CTETRA       467       1    1528    1532    2163    2182    1971    3533+
+           3908    3540    3602    2498
CTETRA       468       1      60      45      61    2171     438     442+
+             70    3584    2456    3909
CTETRA       469       1      61    1512    2171    2172    1900    3910+
+           3909    3911    3912    2459
CTETRA       470       1      61      62    1512    2172      71    1901+
+           1900    3911    3913    3912
CTETRA       471       1    1413    1462    1461    2322    1713    1712+
+           1711    3816    3914    3818
CTETRA       472       1     292     356     293    1412    3915    3916+
+            299    1585    3917    1584
CTETRA       473       1     292     356    1412    2315    3915    3917+
+           1585    3901    3000    3918
CTETRA       474       1    1460    2299    2314    2315    3919    2992+
+           3920    3921    2996    2997
CTETRA       475       1    1412    2298    2299    2315    3922    2998+
+           3923    3918    2994    2996
CTETRA       476       1    1412    2299    2298    2322    3923    2998+
+           3922    3817    3045    3044
CTETRA       477       1    1412    2262    2261    2298    3924    2816+
+           3815    3922    2990    2991
CTETRA       478       1     183     200     184    2316    1395    1394+
+            192    3235    3019    3505
CTETRA       479       1     184    1480    1436    2316    1799    1798+
+           1652    3505    3925    3236
CTETRA       480       1     184     185    1481    2330     188    1796+
+           1801    3678    3679    3926
CTETRA       481       1     184    2316     201    2330    3505    3020+
+           1388    3678    3052    3051
CTETRA       482       1     136    1541    1555    2219    2011    2063+
+           2062    3793    3792    3927
CTETRA       483       1    1541    2202    1554    2219    3593    3670+
+           2064    3792    2620    3928
CTETRA       484       1       7     136       8    2219     137    1352+
+             90    3791    3793    2619
CTETRA       485       1      74       8      91    2203     455      99+
+            453    3668    2576    2556
CTETRA       486       1     136     119       8    2219    1355     120+
+           1352    3793    2677    2619
CTETRA       487       1     487     818     824     831    3929    1216+
+           3338    3930    1257    1256
CTETRA       488       1     489     829     817     831    3931    1246+
+           3932    3933    1254    1258
CTETRA       489       1     487     489     818     831     552    3934+
+           3929    3930    3933    1257
CTETRA       490       1     487     824     830     831    3338    1249+
+           3935    3930    1256    1255
CTETRA       491       1     278      19     758     763    3936     995+
+           3937    3761     991     993
CTETRA       492       1     278     758     510     763    3937    3938+
+            611    3761     993    3939
CTETRA       493       1     509     761     754     763    3940    1000+
+           3569    3762     994    1004
CTETRA       494       1     509     709     754     809    3941    1163+
+           3569    3285    1165    1164
CTETRA       495       1      75      92      76    2193     460     461+
+             87    3599    2519    3942
CTETRA       496       1       6    2159    2160    2174    3943    2468+
+           3875    3876    2467    2469
CTETRA       497       1     246       6       5    2159     251      58+
+            472    3894    3943    2470
CTETRA       498       1    1412    1461    2299    2322    1710    3944+
+           3923    3817    3818    3045
CTETRA       499       1    1412    2299    1460    2315    3923    3919+
+           1708    3918    2996    3921
CTETRA       500       1     294     769     360     773    3945    1049+
+           3946    3447    1050    1052
CTETRA       501       1     294     360    2242    2267    3946    2745+
+           3716    3947    2836    2835
CTETRA       502       1    1415    1418    2265    2267    1577    3948+
+           3949    3950    3951    2837
CTETRA       503       1    1415    2264    2263    2267    3812    2842+
+           3562    3950    2838    2841
CTETRA       504       1      18    2242     362    2243    3952    2746+
+           3629    3630    2739    2742
CTETRA       505       1      18    1418    2242    2243    1578    3713+
+           3952    3630    3714    2739
CTETRA       506       1     257    2245    2243    2246    3211    2752+
+           3619    3953    2753    2747
CTETRA       507       1     294     359     360    2267    3954     397+
+           3946    3947    2840    2836
CTETRA       508       1     288     344     289    2308    3497    3955+
+            297    3493    2952    3857
CTETRA       509       1     288     341     342    2256    3371     420+
+           3609    3369    2794    2793
CTETRA       510       1    1422    2250    2251    2256    3499    2792+
+           3610    3370    2791    2790
CTETRA       511       1     280     318     319    2209    3345     375+
+           3866    3903    2587    2586
CTETRA       512       1     279     318    2209    2212    3346    2587+
+           3956    3162    2605    2600
CTETRA       513       1     280     319     318     729    3866     375+
+           3345    3341     903     899
CTETRA       514       1      78      94    2144    2146     457    2364+
+           3273    3743    2366    2359
CTETRA       515       1     279     317     318    2212    3161     374+
+           3346    3162    2612    2605
CTETRA       516       1     279     722     724     730    3957     864+
+           3343    3344     902     900
CTETRA       517       1     279     280    1499    2209     305    1991+
+           2089    3956    3903    3958
CTETRA       518       1    1503    2144    2145    2146    3959    2360+
+           3566    3568    2359    2358
CTETRA       519       1    1547    1553    1556    2190    2060    2059+
+           2061    3960    3481    3325
CTETRA       520       1    1547    1556    1552    2190    2061    2065+
+           2058    3960    3325    3961
CTETRA       521       1    1552    1556    2180    2190    2065    3324+
+           3962    3961    3325    2511
CTETRA       522       1    1543    2190    1553    2191    3320    3481+
+           2068    3321    2517    3672
CTETRA       523       1    1544    1557    1556    2180    2072    2074+
+           2073    3323    3963    3324
CTETRA       524       1    1527    2182    2181    2191    3539    2500+
+           3329    3331    2516    2515
CTETRA       525       1    1505    1506    1528    2170    1883    1975+
+           1974    3868    3871    3964
CTETRA       526       1    1506    1538    1528    2162    2000    2002+
+           1975    3870    3327    3332
CTETRA       527       1    1539    1559    1557    2161    2084    2083+
+           2071    3798    3720    3799
CTETRA       528       1    1519    1520    1523    2152    1927    1947+
+           1942    3588    3589    3965
CTETRA       529       1    1520    2138    2139    2150    3587    2423+
+           3882    3885    2394    2422
CTETRA       530       1      76    1531    1529    2143    1967    1968+
+           1962    3966    3424    3423
CTETRA       531       1     127     128    1490    2253     144    1844+
+           1846    3967    3968    3969
CTETRA       532       1     127    2253    1490    2338    3967    3969+
+           1846    3970    3076    3971
CTETRA       533       1     126     115     127    2338    1364    1362+
+            145    3972    3074    3970
CTETRA       534       1    1421    1430    1490    2253    1850    1849+
+           1851    3730    3729    3969
CTETRA       535       1    1521    2153    2156    2157    3973    2412+
+           3974    3975    2413    2414
CTETRA       536       1    1430    1454    1431    2338    1748    1750+
+           1749    3976    3977    3978
CTETRA       537       1     292     353     746     778    3979    1066+
+           3980    3981    1076    1069
CTETRA       538       1     213    1452     225    2297    1693    3982+
+           1408    3303    3983    2937
CTETRA       539       1     224     225    1452    2296     234    3982+
+           3984    2928    2929    3755
CTETRA       540       1    1448    2296    1452    2297    3985    3755+
+           1697    3986    2938    3983
CTETRA       541       1     224    1452    2295    2296    3984    3987+
+           2924    2928    3755    2930
CTETRA       542       1    1442    2270    2269    2321    3396    2858+
+           3393    3394    3004    3005
CTETRA       543       1    1437    2269    1438    2280    3391    3217+
+           1642    3392    2849    3214
CTETRA       544       1    1440    1441    2319    2321    1645    3388+
+           3239    3234    3389    3013
CTETRA       545       1     488     489     490     837     553     547+
+            549    3252    3559    3258
CTETRA       546       1     485     834     833     846    3507    1281+
+           3262    3263    1308    1310
CTETRA       547       1     489     817     816     832    3932    1245+
+           3988    3558    1270    1271
CTETRA       548       1     294     502     769     770     597    3203+
+           3945    3446    3208    1047
CTETRA       549       1     497     502     501     768     600     598+
+            592    3989    3206    3205
CTETRA       550       1     292     746     747     778    3980    1070+
+           3990    3981    1069    1068
CTETRA       551       1     222     223    1450    2288     227    3749+
+           3991    2906    2925    3708
CTETRA       552       1    1537    2215    2205    2226    3992    2628+
+           3862    3415    2652    2653
CTETRA       553       1     281     321     322    2226    3414     372+
+           3408    3410    2656    2654
CTETRA       554       1     292    1412    1460    2315    1585    1708+
+           1706    3901    3918    3921
CTETRA       555       1     169    1444    2282    2285    1658    3993+
+           3994    3995    3996    2892
CTETRA       556       1    1446    2288    2289    2290    3997    2900+
+           3193    3711    2899    2898
CTETRA       557       1    1447    1451    2290    2291    1687    3512+
+           3998    3999    3514    2908
CTETRA       558       1    1444    2282    2285    2286    3993    2892+
+           3996    3636    2894    2895
CTETRA       559       1    1447    2286    2285    2290    4000    2895+
+           4001    3998    2896    2897
CTETRA       560       1    1421    2254    2252    2259    3613    2782+
+           4002    3614    2810    2808
CTETRA       561       1    1501    1502    2176    2177    2047    3892+
+           4003    4004    4005    2493
CTETRA       562       1    1561    1562    2196    2204    2101    3520+
+           3522    4006    4007    2545
CTETRA       563       1    1562    2195    2196    2204    3501    2547+
+           3520    4007    2546    2545
CTETRA       564       1    1501    1550    1502    2177    2046    2048+
+           2047    4004    4008    4005
CTETRA       565       1    1561    2186    2196    2197    4009    2549+
+           3522    4010    2557    2559
CTETRA       566       1    1501    2177    2176    2186    4004    2493+
+           4003    4011    2534    2533
CTETRA       567       1    1421    1424    1422    2254    1598    1602+
+           1601    3613    3612    3611
CTETRA       568       1      64      48      49    2175     446      55+
+            440    3802    2478    2479
CTETRA       569       1      65      49       5    2174     439      52+
+            441    3879    2473    2472
CTETRA       570       1     127     115     128    2253    1362    1363+
+            144    3967    2801    3968
CTETRA       571       1     127    1490    1431    2338    1846    1848+
+           1847    3970    3971    3978
CTETRA       572       1     127     115    2253    2338    1362    2801+
+           3967    3970    3074    3076
CTETRA       573       1    1421    2252    1429    2337    4002    3603+
+           1852    3731    3081    3733
CTETRA       574       1     184    1481    1480    2330    1801    1802+
+           1799    3678    3926    4012
CTETRA       575       1    1436    2316    1480    2331    3236    3925+
+           1798    4013    3054    4014
CTETRA       576       1     185     201      11    2330    1387     204+
+           1389    3679    3051    3053
CTETRA       577       1    1455    1469    1470    2348    1756    1764+
+           1759    3282    3276    3279
CTETRA       578       1    1469    2337    2328    2348    3275    3080+
+           3277    3276    3112    3116
CTETRA       579       1    1429    1465    1469    2328    1734    1745+
+           1744    4015    3552    3277
CTETRA       580       1    1429    1469    1430    2337    1744    1747+
+           1746    3733    3275    3732
CTETRA       581       1    1454    1469    1455    2339    1751    1756+
+           1757    4016    3274    3551
CTETRA       582       1     181     197     198    2268    1390     205+
+           1391    3400    2845    3021
CTETRA       583       1     180    2268    1437    2281    3399    3390+
+           1654    3756    2846    4017
CTETRA       584       1     180     181    1437    2268     190    1653+
+           1654    3399    3400    3390
CTETRA       585       1     294     770     769     773    3446    1047+
+           3945    3447    1051    1050
CTETRA       586       1       4      37      25    2151      42     433+
+            432    4018    3590    2387
CTETRA       587       1     116    2258    1424    2259    2806    4019+
+           4020    2804    2807    3615
CTETRA       588       1      63    2173      48    2175    4021    2477+
+            447    4022    2476    2478
CTETRA       589       1     292     746     495     747    3980    3823+
+            575    3990    1070    3822
CTETRA       590       1    1547    2190    1552    2200    3960    3961+
+           2058    4023    2566    4024
CTETRA       591       1    1552    2180    2189    2190    3962    2513+
+           4025    3961    2511    2514
CTETRA       592       1    1552    2180    2179    2189    3962    2506+
+           4026    4025    2513    2538
CTETRA       593       1    1546    1552    2189    2200    2057    4025+
+           4027    4028    4024    2568
CTETRA       594       1    1546    1552    1551    2189    2057    2056+
+           2055    4027    4025    4029
CTETRA       595       1      62      47      63    2173     445     448+
+             73    4030    2466    4021
CTETRA       596       1      60      61    1508    2171      70    1898+
+           1899    3584    3909    3585
CTETRA       597       1      61      46      62    2172     443     444+
+             71    3911    2461    3913
CTETRA       598       1      62    1511    2172    2173    1895    4031+
+           3913    4030    4032    2464
CTETRA       599       1      63    1507    2173    2175    1896    4033+
+           4021    4022    3881    2476
CTETRA       600       1      63      64    1507    2175      72    1897+
+           1896    4022    3802    3881
CTETRA       601       1      12     185      11    2330     189    1389+
+            195    4034    3679    3053
CTETRA       602       1     287     340     341    2256    3508     418+
+           3372    3368    2795    2794
CTETRA       603       1     287     339    2255    2257    4035    2786+
+           3594    4036    2796    2797
CTETRA       604       1     287     852     340     855    3271    1332+
+           3508    3378    1351    1350
CTETRA       605       1     336    2132    1426    2236    2715    3156+
+           4037    2710    2707    4038
CTETRA       606       1     286     337     338    2257    3154     417+
+           3365    3367    2713    2798
CTETRA       607       1     286    1426     336    2132    1620    4037+
+           3153    3155    3156    2715
CTETRA       608       1     294     361     360     769    3633     396+
+           3946    3945    1040    1049
CTETRA       609       1     294     774     773     782    3448    1056+
+           3447    4039    1096    1094
CTETRA       610       1     293     774     294     782    3449    3448+
+            303    4040    1096    4039
CTETRA       611       1     257    2243      18    2246    3619    3630+
+            260    3953    2747    3149
CTETRA       612       1      18     362     294     755    3629    3632+
+            304    3631    1010    3634
CTETRA       613       1     294     360     359     773    3946     397+
+           3954    3447    1052    1053
CTETRA       614       1     502     755     756     765    3202    1013+
+           4041    4042    1012    1014
CTETRA       615       1     502     765     756     767    4042    1014+
+           4041    4043    1022    1026
CTETRA       616       1     282     736     325     738    4044     935+
+           4045    4046     934     933
CTETRA       617       1    1537    2216    2215    2223    4047    2631+
+           3992    4048    2642    2643
CTETRA       618       1     282     324     325    2224    4049     377+
+           4045    4050    2660    2648
CTETRA       619       1     282     325     324     738    4045     377+
+           4049    4046     933     930
CTETRA       620       1     281     323     322     727    3411     371+
+           3408    4051     887     885
CTETRA       621       1     280     281     321     725     309    3414+
+           3860    3770    3864     888
CTETRA       622       1     281     725     511     727    3864    3769+
+            624    4051     884    4052
CTETRA       623       1     511     725     720     727    3769     882+
+           4053    4052     884     879
CTETRA       624       1     280    2208    1499    2209    3902    4054+
+           1991    3903    2595    3958
CTETRA       625       1      37      25    2151    2152     433    2387+
+           3590    3591    2390    2391
CTETRA       626       1     280    2209     319    2210    3903    2586+
+           3866    3904    2594    2593
CTETRA       627       1     523     529     528     803     683     684+
+            678    4055    4056    4057
CTETRA       628       1     505     791     529     802    3221    3759+
+            682    3296    1128    4058
CTETRA       629       1     527     528     529     806     688     684+
+            689    3833    3827    3831
CTETRA       630       1     505     506     529     791     620     687+
+            682    3221    3222    3759
CTETRA       631       1     515     796     523     797    3444    3849+
+            702    3442    1122    3626
CTETRA       632       1     523     802     529     803    4059    4058+
+            683    4055    1131    4056
CTETRA       633       1     516     529     523     802     681     683+
+            685    3297    4058    4059
CTETRA       634       1     504     505     516     712     626     641+
+            640    4060    3295    3294
CTETRA       635       1     504     713     517     731    3779    3781+
+            642    3783     917    3784
CTETRA       636       1      33      21    1522    2155     428    4061+
+           1933    4062    2407    4063
CTETRA       637       1     516     523     796     802     685    3849+
+           3778    3297    4059    1124
CTETRA       638       1     523     796     802     803    3849    1124+
+           4059    4055    1129    1131
CTETRA       639       1     511     512     720     733     628    4064+
+           4053    4065    4066     908
CTETRA       640       1     282     512     736     738     629    4067+
+           4044    4046    4068     934
CTETRA       641       1     503     512     504     731     630     631+
+            632    3782    4069    3783
CTETRA       642       1     504     731     512     733    3783    4069+
+            631    4070     915    4066
CTETRA       643       1     281     512     721     727     627    4071+
+           4072    4051    4073     881
CTETRA       644       1     281     512     324     721     627    4074+
+           3790    4072    4071     878
CTETRA       645       1    1434    1442    1435    2318    1637    1639+
+           1638    3461    3456    3453
CTETRA       646       1    1439    2279    2278    2292    3463    2854+
+           3457    4075    2913    2912
CTETRA       647       1    1485    2341    1487    2344    4076    3704+
+           1827    4077    3104    3379
CTETRA       648       1    1479    1480    1487    2341    1800    1826+
+           1825    4078    4079    3704
CTETRA       649       1    1479    2332    2341    2342    3460    3092+
+           4078    4080    3094    3095
CTETRA       650       1    1479    2331    1480    2341    3459    4014+
+           1800    4078    3091    4079
CTETRA       651       1    1461    2322    1462    2323    3818    3914+
+           1712    4081    3048    4082
CTETRA       652       1     294    2242    1418    2267    3716    3713+
+           1576    3947    2835    3951
CTETRA       653       1     267    1495    1561    2204    3168    2100+
+           4083    2551    4084    4006
CTETRA       654       1    1501    2186    1561    2197    4011    4009+
+           2105    4085    2557    4010
CTETRA       655       1    1500    1561    2196    2197    2106    3522+
+           3521    4086    4010    2559
CTETRA       656       1    1495    1562    1561    2204    2097    2101+
+           2100    4084    4007    4006
CTETRA       657       1    1561    2185    2186    2194    4087    2532+
+           4009    4088    2530    2531
CTETRA       658       1    1561    2186    2185    2196    4009    2532+
+           4087    3522    2549    2548
CTETRA       659       1    1562    2196    2195    2213    3520    2547+
+           3501    3504    2613    2614
CTETRA       660       1      36    1523    1524    2150    1939    1946+
+           1945    4089    4090    4091
CTETRA       661       1    1516    1521    1524    2156    1949    1944+
+           1950    3886    3974    4092
CTETRA       662       1      23    2150    1524    2156    2382    4091+
+           4093    2409    2410    4092
CTETRA       663       1    1456    2349    1457    2350    3850    4094+
+           1755    4095    3126    3438
CTETRA       664       1    1456    1467    1457    2349    1754    1753+
+           1755    3850    4096    4094
CTETRA       665       1    1458    1483    2352    2353    1821    3741+
+           3740    3809    3738    3145
CTETRA       666       1    1457    2351    2350    2352    3434    3130+
+           3438    3739    3132    3131
CTETRA       667       1    1435    2318    2332    2333    3453    3058+
+           3680    4097    3062    3063
CTETRA       668       1    1474    2333    2332    2342    4098    3063+
+           4099    4100    3089    3094
CTETRA       669       1    1445    2279    2292    2294    4101    2913+
+           3705    4102    2916    2921
CTETRA       670       1    1434    2318    1435    2333    3461    3453+
+           1638    3889    3062    4097
CTETRA       671       1     285     335     336    2236    4103     415+
+           4104    4105    2711    2710
CTETRA       672       1     293     358     781     782    4106    1087+
+           4107    4040    1091    1092
CTETRA       673       1     294     501     770     774     595    3207+
+           3446    3448    3451    1054
CTETRA       674       1     281     511     512     727     624     628+
+            627    4051    4052    4073
CTETRA       675       1     280     320     321    2205    3865     373+
+           3860    3861    2590    2591
CTETRA       676       1     517     713     714     731    3781     918+
+           3777    3784     917     919
CTETRA       677       1     504     512     511     733     631     628+
+            625    4070    4066    4065
CTETRA       678       1     504     511     505     719     625     622+
+            626    4108    4109    4110
CTETRA       679       1     291     820     746     828    4111    1205+
+           3821    4112    1235    1233
CTETRA       680       1     291     495     746     820     578    3823+
+           3821    4111    3824    1205
CTETRA       681       1     495     783     747     820    4113    1197+
+           3822    3824    1206    1204
CTETRA       682       1     292     747     480     777    3990    4114+
+            562    4115    1071    4116
CTETRA       683       1     292     495     480     747     575     574+
+            562    3990    3822    4114
CTETRA       684       1    1466    2327    2326    2346    4117    3029+
+           4118    3384    3110    3106
CTETRA       685       1    1473    1478    1474    2334    1786    1785+
+           1787    4119    4120    4121
CTETRA       686       1    1473    2273    2334    2335    4122    3066+
+           4119    3432    3068    3067
CTETRA       687       1    1485    2342    2341    2344    4123    3095+
+           4076    4077    3099    3104
CTETRA       688       1    1479    2332    2331    2341    3460    3059+
+           3459    4078    3092    3091
CTETRA       689       1    1436    1479    2317    2331    1794    3458+
+           3397    4013    3459    3055
CTETRA       690       1    1486    2344    1487    2347    4124    3379+
+           1829    3383    3120    3381
CTETRA       691       1    1534    1547    1546    2200    2037    2036+
+           2035    4125    4023    4028
CTETRA       692       1    1456    1470    1466    2347    1758    1762+
+           1761    3382    3280    3386
CTETRA       693       1    1474    1479    1485    2342    1795    1809+
+           1808    4100    4080    4123
CTETRA       694       1    1436    2317    2316    2331    3397    3011+
+           3236    4013    3055    3054
CTETRA       695       1    1434    1435    1474    2333    1638    1789+
+           1788    3889    4097    4098
CTETRA       696       1    1474    2272    2333    2334    4126    3061+
+           4098    4121    3064    3065
CTETRA       697       1    1474    1485    2334    2342    1808    4127+
+           4121    4100    4123    3090
CTETRA       698       1    1438    1442    1439    2270    1635    1634+
+           1636    3395    3396    3462
CTETRA       699       1    1435    2332    1474    2333    3680    4099+
+           1789    4097    3063    4098
CTETRA       700       1    1434    2272    2271    2333    4128    2869+
+           3288    3889    3061    3060
CTETRA       701       1    1435    1442    1440    2321    1639    1644+
+           1646    3454    3394    3234
CTETRA       702       1     292     354     353     778    3900     399+
+           3979    3981    1074    1076
CTETRA       703       1    1439    2270    1442    2271    3462    3396+
+           1634    3287    2852    3455
CTETRA       704       1    1505    2163    2164    2168    3532    2440+
+           3531    3867    2439    2441
CTETRA       705       1    1445    1446    1450    2289    1669    1692+
+           1704    3194    3193    3707
CTETRA       706       1     284     332     333    2232    3766     379+
+           3836    3665    2696    2697
CTETRA       707       1    1533    2199    2206    2220    4129    2583+
+           4130    4131    2636    2635
CTETRA       708       1    1534    2216    2217    2220    4132    2634+
+           4133    4134    2629    2632
CTETRA       709       1     281     324    1536    2227    3790    4135+
+           1996    3412    2661    4136
CTETRA       710       1    1534    2215    2216    2220    4137    2631+
+           4132    4134    2630    2629
CTETRA       711       1     280    2205    2208    2210    3861    2580+
+           3902    3904    2588    2589
CTETRA       712       1    1551    1552    1557    2179    2056    2081+
+           2082    4138    4026    4139
CTETRA       713       1    1551    2179    2178    2188    4138    2510+
+           4140    4141    2539    2541
CTETRA       714       1    1551    1559    2178    2179    2087    3721+
+           4140    4138    3722    2510
CTETRA       715       1     269    2185    1561    2194    2528    4087+
+           4142    2527    2530    4088
CTETRA       716       1     281    2223    2225    2227    3863    2650+
+           3409    3412    2659    2662
CTETRA       717       1     265    2195    1495    2204    2543    4143+
+           3169    2552    2546    4084
CTETRA       718       1    1495    2195    1562    2204    4143    3501+
+           2097    4084    2546    4007
CTETRA       719       1    1558    2160    2177    2178    3880    2495+
+           3723    4144    2507    2508
CTETRA       720       1    1507    1539    2167    2175    2005    3803+
+           4145    3881    3800    2474
CTETRA       721       1       6      65       5    2174      69     441+
+             58    3876    3879    2472
CTETRA       722       1     184    1480    2316    2330    1799    3925+
+           3505    3678    4012    3052
CTETRA       723       1    1436    1480    1479    2331    1798    1800+
+           1794    4013    4014    3459
CTETRA       724       1    1480    2316    2330    2331    3925    3052+
+           4012    4014    3054    3056
CTETRA       725       1    1435    2318    2317    2332    3453    3008+
+           3452    3680    3058    3057
CTETRA       726       1     183     199     200    2320    1396     208+
+           1395    3237    3018    3017
CTETRA       727       1    1485    2344    1486    2345    4077    4124+
+           1828    3430    3100    4146
CTETRA       728       1    1480    2340    1487    2341    4147    4148+
+           1826    4079    3093    3704
CTETRA       729       1    1435    1436    1479    2317    1647    1794+
+           1793    3452    3397    3458
CTETRA       730       1    1474    2334    2333    2342    4121    3065+
+           4098    4100    3090    3089
CTETRA       731       1    1459    2353    1462    2354    3806    4149+
+           1717    3684    3141    3685
CTETRA       732       1    1458    1459    1482    2353    1740    1817+
+           1818    3809    3806    3737
CTETRA       733       1     238    1459    1414    2354    1716    1715+
+           1591    3683    3684    3682
CTETRA       734       1    1458    2323    1462    2353    4150    4082+
+           1739    3809    3144    4149
CTETRA       735       1    1458    1462    1459    2353    1739    1717+
+           1740    3809    4149    3806
CTETRA       736       1    1458    1468    1462    2323    1741    1737+
+           1739    4150    4151    4082
CTETRA       737       1    1462    2353    2323    2354    4149    3144+
+           4082    3685    3141    3143
CTETRA       738       1    1457    1468    1458    2352    1742    1741+
+           1743    3739    4152    3740
CTETRA       739       1    1458    1468    2323    2352    1741    4151+
+           4150    3740    4152    3146
CTETRA       740       1    1483    2336    2351    2353    3500    3128+
+           3435    3738    3137    3139
CTETRA       741       1     281     324     282    1536    3790    4049+
+            310    1996    4135    1984
CTETRA       742       1    1438    2270    1439    2279    3395    3462+
+           1636    3218    2855    3463
CTETRA       743       1    1439    2270    2271    2278    3462    2852+
+           3287    3457    2851    2853
CTETRA       744       1    1439    2278    2277    2287    3457    2868+
+           3197    3198    2887    2886
CTETRA       745       1    1445    2292    2293    2294    3705    2919+
+           3706    4102    2921    2922
CTETRA       746       1     287     340     339     855    3508     422+
+           4035    3378    1350    1348
CTETRA       747       1     486     854     853     855    3377    1342+
+           3267    3374    1347    1349
CTETRA       748       1     492     819     784     821    3334    1211+
+           4153    3335    1210    1209
CTETRA       749       1     489     817     818     831    3932    1259+
+           3934    3933    1258    1257
CTETRA       750       1     490     832     833     837    3253    1273+
+           3255    3258    1272    1274
CTETRA       751       1     487     824     823     830    3338    1222+
+           3337    3935    1249    1248
CTETRA       752       1     292     747     777     778    3990    1071+
+           4115    3981    1068    1073
CTETRA       753       1     493     494     495     821     571     573+
+            579    3686    4154    4155
CTETRA       754       1     291     292     353     746     301    3979+
+           3819    3821    3980    1066
CTETRA       755       1     480     747     495     748    4114    3822+
+            574    3696    1064    4156
CTETRA       756       1    1485    1487    1486    2344    1827    1829+
+           1828    4077    3379    4124
CTETRA       757       1     488     492     818     835     560    4157+
+           3251    3250    3557    1277
CTETRA       758       1     494     783     495     821    4158    4113+
+            573    4154    1207    4155
CTETRA       759       1     507     752     753     762    4159     984+
+           4160    4161     983     985
CTETRA       760       1     506     710     809     810    3223    1168+
+           3227    3224    1170    1172
CTETRA       761       1     510     753     761     762    4162     990+
+           4163    4164     985     989
CTETRA       762       1     509     510     753     761     613    4162+
+           3283    3940    4163     990
CTETRA       763       1     507     510     760     762     615    4165+
+           4166    4161    4164     986
CTETRA       764       1     496     507     510     760     616     615+
+            614    4167    4166    4165
CTETRA       765       1     510     761     759     762    4163     977+
+           4168    4164     989     987
CTETRA       766       1     209     220     221    2291    1401     229+
+           1402    3515    2904    2903
CTETRA       767       1    1534    1537    1536    2216    1998    1997+
+           1986    4132    4047    3717
CTETRA       768       1     506     509     507     753     606     609+
+            610    3284    3283    4160
CTETRA       769       1    1536    2216    1537    2223    3717    4047+
+           1997    3718    2642    4048
CTETRA       770       1    1537    2223    2215    2226    4048    2643+
+           3992    3415    2651    2652
CTETRA       771       1     531     798     797     804    3248    1120+
+           3565    3354    1136    1135
CTETRA       772       1     516     713     712     802    3780     910+
+           3294    3297    1123    1125
CTETRA       773       1     517     714     713     796    3777     918+
+           3781    3443    1112    1114
CTETRA       774       1     517     715     522     734    3776    4169+
+            660    4170     922    4171
CTETRA       775       1     505     529     516     802     682     681+
+            641    3296    4058    3297
CTETRA       776       1     523     803     524     804    4055    4172+
+            679    3352    1137    3353
CTETRA       777       1     526     793     528     813    4173    3825+
+            680    4174    1178    4175
CTETRA       778       1     524     528     793     803     677    3825+
+           4176    4172    4057    1138
CTETRA       779       1     291     351     352    2311    4177     406+
+           3820    4178    2972    2986
CTETRA       780       1     291     351     350     827    4177     405+
+           4179    4180    1226    1225
CTETRA       781       1     291     351    2311    2312    4177    2972+
+           4178    4181    2970    2973
CTETRA       782       1     179      16     196    2297    1383     202+
+           1384    3302    2935    2933
CTETRA       783       1    1415    1416    2264    2265    1581    3813+
+           3812    3949    4182    2832
CTETRA       784       1     294     755     361     769    3634    1011+
+           3633    3945    1039    1040
CTETRA       785       1    1416    2265    1417    2266    4182    4183+
+           1571    3618    2831    4184
CTETRA       786       1    1416    2260    2264    2266    3616    2825+
+           3813    3618    2828    2830
CTETRA       787       1     107    1417    2241    2266    4185    4186+
+           2824    2829    4184    2833
CTETRA       788       1    1416    2264    2265    2266    3813    2832+
+           4182    3618    2830    2831
CTETRA       789       1     277    2244     366    2248    3172    2758+
+           4187    4188    2766    2765
CTETRA       790       1    1533    2215    1534    2220    4189    4137+
+           1999    4131    2630    4134
CTETRA       791       1    1496    2245    2244    2249    3843    2755+
+           3174    3844    2778    2777
CTETRA       792       1     281    2223    1537    2226    3863    4048+
+           1989    3410    2651    3415
CTETRA       793       1     281     322     725     727    3408     886+
+           3864    4051     885     884
CTETRA       794       1     281     322     323    2225    3408     371+
+           3411    3409    2655    2657
CTETRA       795       1     281     721     323     727    4072     877+
+           3411    4051     881     887
CTETRA       796       1    1533    2206    1537    2215    4130    4190+
+           1995    4189    2627    3992
CTETRA       797       1    1499    2209    2207    2212    3958    2598+
+           4191    3524    2600    2599
CTETRA       798       1    1534    2215    1537    2216    4137    3992+
+           1998    4132    2631    4047
CTETRA       799       1    1537    2206    2205    2215    4190    2581+
+           3862    3992    2627    2628
CTETRA       800       1    1533    2199    2198    2206    4129    2573+
+           4192    4130    2583    2582
CTETRA       801       1    1501    2176    1560    2186    4003    3726+
+           2104    4011    2533    4193
CTETRA       802       1    1560    2186    2176    2194    4193    2533+
+           3726    4194    2531    2526
CTETRA       803       1    1557    2161    1559    2179    3799    3720+
+           2083    4139    2505    3722
CTETRA       804       1    1502    2176    2177    2184    3892    2493+
+           4005    3893    2488    2492
CTETRA       805       1    1560    1561    2186    2194    2099    4009+
+           4193    4194    4088    2531
CTETRA       806       1     167     168    1432    2284     176    1659+
+           1778    4195    4196    4197
CTETRA       807       1     271    1560    2176    2194    3787    3726+
+           2487    2525    4194    2526
CTETRA       808       1    1502    2177    1558    2184    4005    3723+
+           2075    3893    2492    3725
CTETRA       809       1     246     273     247    2184    3897    3788+
+            253    3896    2485    3789
CTETRA       810       1     248     273     271    1560    3786     272+
+           3785    2090    3727    3787
CTETRA       811       1     246     273     275     104    3897     274+
+           3895     475    2738    2737
CTETRA       812       1    1501    1502    1560    2176    2047    2094+
+           2104    4003    3892    3726
CTETRA       813       1     248    1494     271    2247    1871    4198+
+           3785    3898    4199    2760
CTETRA       814       1     269     271    1494    2247     270    4198+
+           4200    2761    2760    4199
CTETRA       815       1    1494    1497    1498    2249    1868    1865+
+           1866    4201    3845    3178
CTETRA       816       1     263     265    1495    2248     264    3169+
+           4202    2768    2769    3177
CTETRA       817       1     267    1494    1498    2249    3175    1866+
+           3171    2774    4201    3178
CTETRA       818       1    1561    2196    2185    2204    3522    2548+
+           4087    4006    2545    2550
CTETRA       819       1     263    1495     265    2195    4202    3169+
+            264    2544    4143    2543
CTETRA       820       1    1553    2201    1554    2202    4203    4204+
+           2054    3479    2564    3670
CTETRA       821       1    1548    1554    1553    2201    2052    2054+
+           2053    4205    4204    4203
CTETRA       822       1    1544    2181    2190    2191    3330    2512+
+           3319    3322    2515    2517
CTETRA       823       1    1553    2191    2190    2201    3672    2517+
+           3481    4203    2563    2565
CTETRA       824       1      37      24      25    2152     434      32+
+            433    3591    2388    2390
CTETRA       825       1      37    1519    1523    2152    1941    1942+
+           1938    3591    3588    3965
CTETRA       826       1      59    1519      37    2151    1923    1941+
+           1940    3580    3581    3590
CTETRA       827       1      59      44      60    2137     436     437+
+             67    3578    2384    3582
CTETRA       828       1    1508    1519    2137    2138    1922    3579+
+           3583    3638    3586    2395
CTETRA       829       1    1508    2138    2137    2171    3638    2395+
+           3583    3585    2452    2454
CTETRA       830       1    1520    2138    2150    2152    3587    2394+
+           3885    3589    2393    2389
CTETRA       831       1    1511    1513    1512    2166    1889    1888+
+           1890    4206    3642    4207
CTETRA       832       1    1506    2166    1511    2167    4208    4206+
+           1891    3869    2434    4209
CTETRA       833       1    1511    2166    1512    2172    4206    4207+
+           1890    4031    2458    3912
CTETRA       834       1      63      47      48    2173     448      56+
+            447    4021    2466    2477
CTETRA       835       1      62    1511    1512    2172    1895    1890+
+           1901    3913    4031    3912
CTETRA       836       1    1413    2261    2260    2322    3810    2826+
+           3623    3816    3039    3040
CTETRA       837       1    1413    1462    2322    2354    1713    3914+
+           3816    3814    3685    3142
CTETRA       838       1    1501    2187    2186    2197    4210    2537+
+           4011    4085    2558    2557
CTETRA       839       1    1461    1462    1468    2323    1712    1737+
+           1738    4081    4082    4151
CTETRA       840       1    1483    2351    2352    2353    3435    3132+
+           3741    3738    3139    3145
CTETRA       841       1     289     345     816     829    4211    1247+
+           4212    3483    1240    1244
CTETRA       842       1    1457    1467    1468    2352    1753    1752+
+           1742    3739    4213    4152
CTETRA       843       1    1550    1551    2178    2188    2050    4140+
+           4214    4215    4141    2541
CTETRA       844       1    1467    2323    1468    2352    4216    4151+
+           1752    4213    3146    4152
CTETRA       845       1     209     221     210    1451    1402    1403+
+            216    1688    3513    1689
CTETRA       846       1     209    1451    1447    2291    1688    1687+
+           1686    3515    3514    3999
CTETRA       847       1    1446    1451    1450    2288    1691    1690+
+           1692    3997    4217    3708
CTETRA       848       1    1446    1451    2288    2290    1691    4217+
+           3997    3711    3512    2899
CTETRA       849       1      18     496     277     766     587     588+
+            302    3151    4218    3152
CTETRA       850       1      18     765     496     766    3715    4219+
+            587    3151    1021    4218
CTETRA       851       1      18     294     502     755     304     597+
+            596    3631    3634    3202
CTETRA       852       1     502     756     757     767    4041    1027+
+           3200    4043    1026    1025
CTETRA       853       1     481     494     482     815     568     567+
+            569    4220    4221    4222
CTETRA       854       1     481     783     494     815    4223    4158+
+            568    4220    1198    4221
CTETRA       855       1     481     499     500     815     580     582+
+            585    4220    4224    3702
CTETRA       856       1     281    1536    1537    2223    1996    1997+
+           1989    3863    3718    4048
CTETRA       857       1     481     495     494     783     572     573+
+            568    4223    4113    4158
CTETRA       858       1     281     324     323     721    3790     370+
+           3411    4072     878     877
CTETRA       859       1    1535    2217    2216    2222    4225    2634+
+           4226    4227    2638    2637
CTETRA       860       1    1534    2217    2200    2220    4133    2625+
+           4125    4134    2632    2633
CTETRA       861       1     282     325    2221    2224    4045    2646+
+           4228    4050    2648    2640
CTETRA       862       1     512     732     737     738    4229     927+
+           4230    4068     931     932
CTETRA       863       1     503     736     512     737    4231    4067+
+            630    4232     936    4230
CTETRA       864       1     512     737     736     738    4230     936+
+           4067    4068     932     934
CTETRA       865       1     503     512     731     737     630    4069+
+           3782    4232    4230     926
CTETRA       866       1     512     721     720     732    4071     880+
+           4064    4229     913     912
CTETRA       867       1     282     324     512     738    4049    4074+
+            629    4046     930    4068
CTETRA       868       1    1460    2299    2300    2314    3919    2993+
+           4233    3920    2992    2985
CTETRA       869       1     291    2311     352    2314    4178    2986+
+           3820    4234    2984    2989
CTETRA       870       1    1448    2280    1449    2296    4235    3213+
+           1682    3985    2939    3754
CTETRA       871       1    1434    1439    1442    2271    1631    1634+
+           1637    3288    3287    3455
CTETRA       872       1    1440    1442    1441    2321    1644    1643+
+           1645    3234    3394    3389
CTETRA       873       1    1437    2268    2280    2281    3390    2847+
+           3392    4017    2846    2850
CTETRA       874       1    1438    2269    2270    2279    3217    2858+
+           3395    3218    2856    2855
CTETRA       875       1    1437    2280    1448    2281    3392    4235+
+           1677    4017    2850    4236
CTETRA       876       1     179     196    2281    2297    1384    2844+
+           4237    3302    2933    2934
CTETRA       877       1     294     360     361    2242    3946     396+
+           3633    3716    2745    2744
CTETRA       878       1     249     105    1497    2247     478    4238+
+           1872    4239    2763    4240
CTETRA       879       1     105    2245    1497    2249    2776    3842+
+           4238    2779    2778    3845
CTETRA       880       1     248     104     105    2247     474     114+
+            479    3898    2762    2763
CTETRA       881       1     258     106    2241    2245    3751    2751+
+           3209    3212    2750    2749
CTETRA       882       1    1410    1564    1563    2233    2110    2111+
+           2108    3476    4241    3656
CTETRA       883       1    1410    1565    1564    2233    2112    2114+
+           2110    3476    3475    4241
CTETRA       884       1    1491    1549    1492    2231    2027    2026+
+           2028    4242    4243    4244
CTETRA       885       1    1535    1549    2218    2230    2032    4245+
+           4246    4247    4248    2679
CTETRA       886       1    1492    1493    2229    2230    1981    4249+
+           4250    4251    4252    2681
CTETRA       887       1    1493    1535    2222    2230    1979    4227+
+           4253    4252    4247    2680
CTETRA       888       1    1535    2217    2222    2230    4225    2638+
+           4227    4247    2678    2680
CTETRA       889       1    1510    1516    2139    2140    1911    3883+
+           3872    3535    3888    2419
CTETRA       890       1    1509    1510    1516    2139    1881    1911+
+           1912    3644    3872    3883
CTETRA       891       1    1516    2150    2139    2158    3884    2422+
+           3883    3887    2424    2418
CTETRA       892       1    1516    1524    1520    2150    1950    1948+
+           1925    3884    4091    3885
CTETRA       893       1    1509    2139    2138    2165    3644    2423+
+           3637    3640    2446    2447
CTETRA       894       1    1499    2207    2211    2212    4191    2601+
+           3523    3524    2599    2602
CTETRA       895       1     279    1499    1562    2212    2089    2102+
+           2096    3162    3524    3525
CTETRA       896       1    1533    1534    1546    2199    1999    2035+
+           2031    4129    4254    4255
CTETRA       897       1    1500    1533    1545    2198    1994    2029+
+           2023    4256    4192    4257
CTETRA       898       1    1533    1537    1534    2215    1995    1998+
+           1999    4189    3992    4137
CTETRA       899       1      59       4       2    2151      66      57+
+            435    3580    4018    2386
CTETRA       900       1      59      60    1519    2137      67    1921+
+           1923    3578    3582    3579
CTETRA       901       1      60      44      45    2137     437      51+
+            438    3582    2384    2455
CTETRA       902       1      59      37       4    2151    1940      42+
+             66    3580    3590    4018
CTETRA       903       1      59       2      44    2151     435      50+
+            436    3580    2386    2383
CTETRA       904       1    1432    2283    2276    2284    4258    2874+
+           4259    4197    2876    2879
CTETRA       905       1     168    1444    1432    2282    1657    1660+
+           1659    4260    3993    4261
CTETRA       906       1    1477    1478    2273    2276    1791    4262+
+           4263    4264    4265    2865
CTETRA       907       1     168    2282    1432    2284    4260    4261+
+           1659    4196    2877    4197
CTETRA       908       1    1432    1433    1477    2276    1665    1792+
+           1780    4259    4266    4264
CTETRA       909       1    1416    1418    1417    2265    1580    1582+
+           1571    4182    3948    4183
CTETRA       910       1    1415    2265    2264    2267    3949    2832+
+           3812    3950    2837    2838
CTETRA       911       1      18     294     362    2242     304    3632+
+           3629    3952    3716    2746
CTETRA       912       1      18    2243     363    2246    3630    2743+
+           3402    3149    2747    2748
CTETRA       913       1     258    1417    1418    2241    1575    1582+
+           1583    3209    4186    3712
CTETRA       914       1    1417    2265    2241    2266    4183    2834+
+           4186    4184    2831    2833
CTETRA       915       1     286     287     339     854     295    4035+
+           3366    3375    3376    1346
CTETRA       916       1     287     339     854     855    4035    1346+
+           3376    3378    1348    1347
CTETRA       917       1     287    2255    1423    2257    3594    3596+
+           1607    4036    2797    4267
CTETRA       918       1     286     338     337     851    3365     417+
+           3154    3440    1330    1329
CTETRA       919       1     165     149     150    2274    1374     160+
+           1380    3187    2860    2859
CTETRA       920       1     483     530     525     786     697     706+
+            705    3625    3347    3355
CTETRA       921       1     525     804     794     805    3362    1146+
+           3364    3356    1145    1147
CTETRA       922       1     492     785     819     835    3555    1260+
+           3334    3557    1262    1261
CTETRA       923       1     484     485     532     834     551     690+
+            691    3757    3507    3573
CTETRA       924       1     483     786     785     835    3625    1151+
+           3554    3556    1267    1262
CTETRA       925       1     483     484     530     786     556     695+
+            697    3625    3348    3347
CTETRA       926       1     496     760     759     766    4167     988+
+           4268    4218    1017    1016
CTETRA       927       1     280     728     319     729    3773     904+
+           3866    3341     896     903
CTETRA       928       1     280     321     281    1537    3860    3414+
+            309    1988    3413    1989
CTETRA       929       1    1499    2206    1533    2207    4269    4130+
+           1992    4191    2584    4270
CTETRA       930       1     279     508     280     724     602     603+
+            305    3343    4271    3340
CTETRA       931       1    1460    1467    1464    2301    1726    1728+
+           1723    4272    4273    4274
CTETRA       932       1     504     712     713     733    4060     910+
+           3779    4070     909     911
CTETRA       933       1     504     511     719     733     625    4109+
+           4108    4070    4065     907
CTETRA       934       1     508     719     511     726    4275    4109+
+            621    3774     873    3772
CTETRA       935       1     512     720     721     727    4064     880+
+           4071    4073     879     881
CTETRA       936       1     280     508     511     726     603     621+
+            623    3771    3774    3772
CTETRA       937       1     482     494     784     815     567    4276+
+           4277    4222    4221    1194
CTETRA       938       1     494     783     784     815    4158    1199+
+           4276    4221    1198    1194
CTETRA       939       1     495     748     747     783    4156    1064+
+           3822    4113    1196    1197
CTETRA       940       1     480     747     748     776    4114    1064+
+           3696    4278    1063    1062
CTETRA       941       1     493     821     820     825    3686    1208+
+           4279    4280    1224    1234
CTETRA       942       1     492     784     494     821    4153    4276+
+            570    3335    1209    4154
CTETRA       943       1     481     748     495     783    3700    4156+
+            572    4223    1196    4113
CTETRA       944       1    1461    2300    2299    2323    4281    2993+
+           3944    4081    3049    3047
CTETRA       945       1     126      12      11    2338     143     195+
+           1361    3972    4282    3075
CTETRA       946       1      12    1481     185    2330    1797    1796+
+            189    4034    3926    3679
CTETRA       947       1     257    1496     258    2245    1859    1869+
+            261    3211    3843    3212
CTETRA       948       1    1418    2242    2265    2267    3713    2839+
+           3948    3951    2835    2837
CTETRA       949       1    1535    2216    1536    2222    4226    3717+
+           1985    4227    2637    4283
CTETRA       950       1    1499    2206    2207    2208    4269    2584+
+           4191    4054    2579    2585
CTETRA       951       1    1534    1548    2200    2217    2038    4284+
+           4125    4133    4285    2625
CTETRA       952       1    1533    1534    2199    2220    1999    4254+
+           4129    4131    4134    2636
CTETRA       953       1    1535    2218    2217    2230    4246    2626+
+           4225    4247    2679    2678
CTETRA       954       1     324    2224    1536    2227    2660    3719+
+           4135    2661    2658    4136
CTETRA       955       1     246    1558    2159    2184    2079    3724+
+           3894    3896    3725    2484
CTETRA       956       1     106     107    1417    2241     110    4185+
+           4286    2751    2824    4186
CTETRA       957       1     246       5     275    2159     472     276+
+           3895    3894    2470    2471
CTETRA       958       1     180     196     197    2281    1385     203+
+           1386    3756    2844    2843
CTETRA       959       1      78      95      79    2144     456     452+
+             85    3273    2365    3674
CTETRA       960       1    1545    1550    2187    2188    2049    4287+
+           4288    4289    4215    2542
CTETRA       961       1    1551    1552    2179    2189    2056    4026+
+           4138    4029    4025    2538
CTETRA       962       1    1500    1545    2187    2198    2023    4288+
+           4290    4256    4257    2569
CTETRA       963       1    1533    1546    1545    2198    2031    2030+
+           2029    4192    4291    4257
CTETRA       964       1    1499    1533    1500    2207    1992    1994+
+           1993    4191    4270    4292
CTETRA       965       1    1545    1546    2188    2198    2030    4293+
+           4289    4257    4291    2570
CTETRA       966       1    1520    2150    1523    2152    3885    4090+
+           1947    3589    2389    3965
CTETRA       967       1      36    1524      23    2150    1945    4093+
+            430    4089    4091    2382
CTETRA       968       1      35      23      36    1524     429     430+
+             41    1943    4093    1945
CTETRA       969       1      59      44    2137    2151     436    2384+
+           3578    3580    2383    2385
CTETRA       970       1      24    1523    2150    2152    4294    4090+
+           2381    2388    3965    2389
CTETRA       971       1    1508    1512    1509    2165    1886    1885+
+           1887    3639    4295    3640
CTETRA       972       1      61    1512    1508    2171    1900    1886+
+           1898    3909    3910    3585
CTETRA       973       1    1508    1520    1519    2138    1926    1927+
+           1922    3638    3587    3586
CTETRA       974       1    1508    2165    2138    2171    3639    2447+
+           3638    3585    2453    2452
CTETRA       975       1    1508    1512    2165    2171    1886    4295+
+           3639    3585    3910    2453
CTETRA       976       1    1516    1524    2150    2156    1950    4091+
+           3884    3886    4092    2410
CTETRA       977       1    1480    2330    1489    2340    4012    4296+
+           1839    4147    3084    4297
CTETRA       978       1     105    1497    2247    2249    4238    4240+
+           2763    2779    3845    2775
CTETRA       979       1    1480    1489    1487    2340    1839    1838+
+           1826    4147    4297    4148
CTETRA       980       1    1480    1481    1489    2330    1802    1840+
+           1839    4012    3926    4296
CTETRA       981       1    1481    1488    1489    2330    1833    1841+
+           1840    3926    4298    4296
CTETRA       982       1    1455    1489    2339    2343    1842    4299+
+           3551    3703    4300    3103
CTETRA       983       1    1480    2331    2340    2341    4014    3085+
+           4147    4079    3091    3093
CTETRA       984       1     169     170    1447    2285     172    1672+
+           1671    3995    4301    4001
CTETRA       985       1    1445    2287    2289    2292    4302    2902+
+           3194    3705    2914    2915
CTETRA       986       1     166    2274     150    2275    4303    2859+
+           1381    4304    2862    2861
CTETRA       987       1     487     818     819     824    3929    1217+
+           4305    3338    1216    1215
CTETRA       988       1     293     781     774     782    4107    1095+
+           3449    4040    1092    1096
CTETRA       989       1    1475    2273    2274    2275    4306    2866+
+           3182    4307    2863    2862
CTETRA       990       1     293     357     780     781    4308    1089+
+           4309    4107    1086    1090
CTETRA       991       1     507     509     510     753     609     613+
+            615    4160    3283    4162
CTETRA       992       1     497     751     752     757    4310    1032+
+           4311    3201    1031     982
CTETRA       993       1     527     752     751     806    4312    1032+
+           3834    3833    1161    1176
CTETRA       994       1    1500    2187    2197    2198    4290    2558+
+           4086    4256    2569    2571
CTETRA       995       1     277     367     366     758    4313     390+
+           4187    4314    1005    1006
CTETRA       996       1     503     735     736     737    3229     937+
+           4231    4232     928     936
CTETRA       997       1     282    1536     324    2224    1984    4135+
+           4049    4050    3719    2660
CTETRA       998       1     281     282     324     512     310    4049+
+           3790     627     629    4074
CTETRA       999       1     503     731     735     737    3782     924+
+           3229    4232     926     928
CTETRA      1000       1     283     742     328     743    4315     958+
+           4316    4317     957     959
CTETRA      1001       1     497     750     751     768    4318    1030+
+           4310    3989    1029    1028
CTETRA      1002       1     497     501     498     750     592     591+
+            593    4318    3699    3688
CTETRA      1003       1     497     498     527     751     593     676+
+            675    4310    4319    3834
CTETRA      1004       1     497     527     507     752     675     672+
+            674    4311    4312    4159
CTETRA      1005       1     502     757     756     768    3200    1027+
+           4041    3206    1033    1034
CTETRA      1006       1     497     752     507     757    4311    4159+
+            674    3201     982    4320
CTETRA      1007       1    1548    2201    2200    2217    4205    2567+
+           4284    4285    2624    2625
CTETRA      1008       1     508     723     719     726    4321     869+
+           4275    3774     874     873
CTETRA      1009       1     508     723     726     729    4321     874+
+           3774    3775     893     895
CTETRA      1010       1     508     710     711     723    3225     872+
+           3226    4321     870     867
CTETRA      1011       1     237     107     108    2260     471     111+
+            465    3621    2822    2823
CTETRA      1012       1    1413    2260    1414    2354    3623    3624+
+           1595    3814    3136    3682
CTETRA      1013       1     238     108     239    2354     464     466+
+            242    3683    3135    3807
CTETRA      1014       1       9     239      10    1482     240     463+
+            163    1803    1804    3808
CTETRA      1015       1     237    1414    1419    2260    1590    1594+
+           1596    3621    3624    3622
CTETRA      1016       1      37    1523      24    2152    1938    4294+
+            434    3591    3965    2388
CTETRA      1017       1       4      25       2    2151     432      31+
+             57    4018    2387    2386
CTETRA      1018       1     209     170      14     220    1685     171+
+            215    1401    3286    1400
CTETRA      1019       1     183     184    1436    2316     192    1652+
+           1651    3235    3505    3236
CTETRA      1020       1    1440    2319    2320    2321    3239    3014+
+           3232    3234    3013    3012
CTETRA      1021       1    1435    1479    1474    2332    1793    1795+
+           1789    3680    3460    4099
CTETRA      1022       1    1480    2331    2330    2340    4014    3056+
+           4012    4147    3085    3084
CTETRA      1023       1    1488    2330    2338    2339    4298    3086+
+           4322    4323    3087    3082
CTETRA      1024       1    1473    1474    1485    2334    1787    1808+
+           1810    4119    4121    4127
CTETRA      1025       1    1449    2280    2294    2296    3213    2917+
+           3216    3754    2939    2932
CTETRA      1026       1    1445    1453    1449    2294    1705    1703+
+           1680    4102    3752    3216
CTETRA      1027       1    1433    1443    1439    2277    1661    1662+
+           1632    4324    3195    3197
CTETRA      1028       1     236     107     237    1419     470     471+
+            245    1597    3620    1596
CTETRA      1029       1     237     108     238    1414     465     464+
+            241    1590    3681    1591
CTETRA      1030       1    1546    2189    2199    2200    4027    2574+
+           4255    4028    2568    2575
CTETRA      1031       1      18    1418     294    2242    1578    1576+
+            304    3952    3713    3716
CTETRA      1032       1     236    1416     107    1419    1572    3617+
+            470    1597    1593    3620
CTETRA      1033       1     237     108    1414    2260     465    3681+
+           1590    3621    2823    3624
CTETRA      1034       1      63      48      64    2175     447     446+
+             72    4022    2478    3802
CTETRA      1035       1    1425    1426    2133    2240    1613    3159+
+           4325    3472    3473    2726
CTETRA      1036       1     130     117    1425    2133    1365    3471+
+           1610    3243    2727    4325
CTETRA      1037       1    1423    1427    1425    2133    1622    1625+
+           1624    3158    3244    4325
CTETRA      1038       1    1423    1425    1426    2133    1624    1613+
+           1621    3158    4325    3159
CTETRA      1039       1     131     117    1411    1425    1358    3464+
+           1612    1609    3471    1611
CTETRA      1040       1     117    1425    2133    2240    3471    4325+
+           2727    2725    3472    2726
CTETRA      1041       1    1550    2178    2177    2187    4214    2508+
+           4008    4287    2536    2535
CTETRA      1042       1     247    1560    1502    2184    2092    2094+
+           2093    3789    3728    3893
CTETRA      1043       1    1558    2160    2159    2177    3880    2468+
+           3724    3723    2495    2494
CTETRA      1044       1    1502    1550    1558    2177    2048    2076+
+           2075    4005    4008    3723
CTETRA      1045       1     246    1558       6    2159    2079    2077+
+            251    3894    3724    3943
CTETRA      1046       1    1550    1558    2177    2178    2076    3723+
+           4008    4214    4144    2508
CTETRA      1047       1     246    1502    1558    2184    2080    2075+
+           2079    3896    3893    3725
CTETRA      1048       1      63    1507    1511    2173    1896    1893+
+           1894    4021    4033    4032
CTETRA      1049       1    1510    2140    2141    2149    3535    2372+
+           3534    3550    2371    2370
CTETRA      1050       1    1473    1475    1478    2273    1774    1790+
+           1786    4122    4306    4262
CTETRA      1051       1    1503    1515    1514    2145    1905    1909+
+           1908    3566    3549    3301
CTETRA      1052       1    1503    1514    1504    2145    1908    1906+
+           1910    3566    3301    3300
CTETRA      1053       1    1504    1514    1510    2141    1906    1907+
+           1877    3299    3298    3534
CTETRA      1054       1    1514    2149    2148    2157    3545    2375+
+           3546    3541    2416    2415
CTETRA      1055       1    1517    2148    1518    2155    3548    3906+
+           1920    4326    2404    3907
CTETRA      1056       1    1515    1518    1517    2148    1918    1920+
+           1919    3547    3906    3548
CTETRA      1057       1    1517    2148    2153    2157    3548    2406+
+           4327    3542    2415    2413
CTETRA      1058       1       6       5    2159    2174      58    2470+
+           3943    3876    2472    2467
CTETRA      1059       1     258     106    1417    2241    3751    4286+
+           1575    3209    2751    4186
CTETRA      1060       1     246     247    1502    2184     253    2093+
+           2080    3896    3789    3893
CTETRA      1061       1    1501    1550    2177    2187    2046    4008+
+           4004    4210    4287    2535
CTETRA      1062       1     269    1561    1560    2194    4142    2099+
+           4328    2527    4088    4194
CTETRA      1063       1    1500    2197    2196    2211    4086    2559+
+           3521    4329    2596    2597
CTETRA      1064       1     269    1560     271    2194    4328    3787+
+            270    2527    4194    2525
CTETRA      1065       1    1500    1545    1501    2187    2023    2025+
+           2024    4290    4288    4210
CTETRA      1066       1     282    2221    1536    2224    4228    4330+
+           1984    4050    2640    3719
CTETRA      1067       1    1537    2205    2206    2208    3862    2581+
+           4190    4331    2580    2579
CTETRA      1068       1    1536    2221    2222    2224    4330    2641+
+           4283    3719    2640    2639
CTETRA      1069       1     324     721     512     738     878    4071+
+           4074     930     929    4068
CTETRA      1070       1    1470    2328    2327    2348    3278    3036+
+           4332    3279    3116    3117
CTETRA      1071       1    1466    1470    2327    2347    1762    4332+
+           4117    3386    3280    3109
CTETRA      1072       1    1455    1487    1489    2343    1837    1838+
+           1842    3703    3380    4300
CTETRA      1073       1    1487    2340    1489    2343    4148    4297+
+           1838    3380    3101    4300
CTETRA      1074       1    1429    2328    1469    2337    4015    3277+
+           1744    3733    3080    3275
CTETRA      1075       1    1420    1421    1490    2253    1600    1851+
+           1845    3734    3730    3969
CTETRA      1076       1    1428    1465    1429    2328    1731    1734+
+           1733    4333    3552    4015
CTETRA      1077       1    1422    1428    1429    2329    1855    1733+
+           1853    3605    3608    3606
CTETRA      1078       1    1500    1533    2198    2207    1994    4192+
+           4256    4292    4270    2577
CTETRA      1079       1    1445    1453    2294    2295    1705    3752+
+           4102    3750    3747    2931
CTETRA      1080       1     212     224    1452    1453    1405    3984+
+           1694    1700    3745    1701
CTETRA      1081       1     210     222     211    1450    1398    1397+
+            214    1683    3991    1684
CTETRA      1082       1     210     222    1450    2288    1398    3991+
+           1683    4334    2906    3708
CTETRA      1083       1     211     222     223    1450    1397     227+
+           1399    1684    3991    3749
CTETRA      1084       1     210    1450    1451    2288    1683    1690+
+           1689    4334    3708    4217
CTETRA      1085       1    1445    2289    1450    2293    3194    3707+
+           1704    3706    2918    3709
CTETRA      1086       1     221    2288    1451    2290    2905    4217+
+           3513    2907    2899    3512
CTETRA      1087       1     128    1420    1490    2253    1628    1845+
+           1844    3968    3734    3969
CTETRA      1088       1     128     116    1420    2253    1368    4335+
+           1628    3968    2800    3734
CTETRA      1089       1     116    1424    1420    2259    4020    1599+
+           4335    2804    3615    3735
CTETRA      1090       1    1421    2253    2252    2337    3730    2809+
+           4002    3731    3077    3081
CTETRA      1091       1     167     151     152    2284    1379     159+
+           1378    4195    2884    2883
CTETRA      1092       1     286     849     848     851    3318    1325+
+           3308    3440    1327    1328
CTETRA      1093       1     286     851     848     854    3440    1328+
+           3308    3375    1344    1343
CTETRA      1094       1     286    2132     337    2257    3155    2712+
+           3154    3367    2714    2713
CTETRA      1095       1     285     335     841     843    4103    1298+
+           4336    3333    1301    1299
CTETRA      1096       1     285     841     520     843    4336    3305+
+            653    3333    1299    3291
CTETRA      1097       1     520     839     848     850    3312    1320+
+           3307    3293    1318    1322
CTETRA      1098       1     288    1428    1422    2250    1854    1855+
+           1606    3492    3491    3499
CTETRA      1099       1     288     489     816     844     543    3988+
+           3498    3373    4337    1303
CTETRA      1100       1    1477    2273    2275    2276    4263    2863+
+           4338    4264    2865    2864
CTETRA      1101       1    1428    2304    1465    2328    3854    4339+
+           1731    4333    3035    3552
CTETRA      1102       1     487     829     489     831    4340    3931+
+            552    3930    1254    3933
CTETRA      1103       1     493     821     825     826    3686    1224+
+           4280    3687    1219    1223
CTETRA      1104       1     289     344     345    2308    3955     411+
+           4211    3857    2952    2953
CTETRA      1105       1     289     345     344     816    4211     411+
+           3955    4212    1247    1242
CTETRA      1106       1     288     344     343     816    3497     410+
+           3496    3498    1242    1243
CTETRA      1107       1     530     786     787     805    3347    1143+
+           3350    3357    1142    1141
CTETRA      1108       1     515     523     531     797     702     703+
+            699    3442    3626    3565
CTETRA      1109       1     484     834     787     836    3757    1263+
+           3349    3259    1265    1264
CTETRA      1110       1    1494    2247    1497    2249    4199    4240+
+           1868    4201    2775    3845
CTETRA      1111       1     498     527     751     813     676    3834+
+           4319    4341    3835    1179
CTETRA      1112       1    1546    1551    2188    2189    2055    4141+
+           4293    4027    4029    2540
CTETRA      1113       1     527     528     806     813     688    3827+
+           3833    3835    4175    1177
CTETRA      1114       1     528     792     529     806    3826    3758+
+            684    3827    1156    3831
CTETRA      1115       1     284     330     331    2234    3661     386+
+           3666    3657    2695    2694
CTETRA      1116       1     503     736     735     743    4231     937+
+           3229    3231     963     961
CTETRA      1117       1     511     720     512     727    4053    4064+
+            628    4052     879    4073
CTETRA      1118       1     512     732     731     737    4229     916+
+           4069    4230     927     926
CTETRA      1119       1     527     752     806     808    4312    1161+
+           3833    3829    1154    1160
CTETRA      1120       1     501     768     770     771    3205    1043+
+           3207    3693    1038    1044
CTETRA      1121       1     497     751     757     768    4310    1031+
+           3201    3989    1028    1033
CTETRA      1122       1     497     751     527     752    4310    3834+
+            675    4311    1032    4312
CTETRA      1123       1     283     284    1563    2235     313    2107+
+           2109    3667    3659    3660
CTETRA      1124       1     282     283     327     743     308    4342+
+           4343    4344    4317     962
CTETRA      1125       1     523     528     524     803     678     677+
+            679    4055    4057    4172
CTETRA      1126       1     279     509     508     724     607     604+
+            602    3343    4345    4271
CTETRA      1127       1     282     503     283     743     617     618+
+            308    4344    3231    4317
CTETRA      1128       1     283    2229    2134    2235    4346    2674+
+           4347    3667    2670    2701
CTETRA      1129       1     503     731     517     734    3782    3784+
+            643    3230     923    4170
CTETRA      1130       1     517     731     714     734    3784     919+
+           3777    4170     923     920
CTETRA      1131       1     482     494     492     784     567     570+
+            558    4277    4276    4153
CTETRA      1132       1     290     487     493     823     536     564+
+            566    4348    3337    4349
CTETRA      1133       1     495     783     820     821    4113    1206+
+           3824    4155    1207    1208
CTETRA      1134       1     291     493     820     827     577    4279+
+           4111    4180    4350    1236
CTETRA      1135       1     107    1416    1417    2266    3617    1571+
+           4185    2829    3618    4184
CTETRA      1136       1       9    1482      10    2336    1803    3808+
+            163    3744    3736    3070
CTETRA      1137       1    1467    2325    2324    2346    4351    3043+
+           4352    4353    3107    3123
CTETRA      1138       1    1464    2302    2301    2325    4354    2982+
+           4274    4355    3037    3041
CTETRA      1139       1    1464    1467    1466    2325    1728    1730+
+           1729    4355    4351    4356
CTETRA      1140       1    1456    2346    1467    2349    3385    4353+
+           1754    3850    3122    4096
CTETRA      1141       1    1456    2347    2349    2350    3382    3125+
+           3850    4095    3121    3126
CTETRA      1142       1    1455    1470    1456    2347    1759    1758+
+           1760    3281    3280    3382
CTETRA      1143       1    1467    2301    2300    2324    4273    2969+
+           4357    4352    3042    3046
CTETRA      1144       1    1460    1461    1467    2300    1709    1727+
+           1726    4233    4281    4357
CTETRA      1145       1    1460    2300    2301    2311    4233    2969+
+           4272    4358    2968    2967
CTETRA      1146       1    1467    2346    2324    2349    4353    3123+
+           4352    4096    3122    3124
CTETRA      1147       1    1455    1487    2343    2347    1837    3380+
+           3703    3281    3381    3115
CTETRA      1148       1      12    2330      11    2338    4034    3053+
+            195    4282    3086    3075
CTETRA      1149       1    1489    2330    2339    2340    4296    3087+
+           4299    4297    3084    3088
CTETRA      1150       1    1488    1489    2330    2339    1841    4296+
+           4298    4323    4299    3087
CTETRA      1151       1    1428    2305    2306    2308    3856    2944+
+           3495    3494    2941    2945
CTETRA      1152       1    1463    1465    2304    2327    1732    4339+
+           3851    4359    4360    3031
CTETRA      1153       1     290     348    2309    2310    4361    2962+
+           4362    4363    2966    2955
CTETRA      1154       1     250    1496    1497    2245    1874    1864+
+           1875    4364    3843    3842
CTETRA      1155       1     249     105     250    1497     478     477+
+            255    1872    4238    1875
CTETRA      1156       1     269    1494    1560    1561    4200    2091+
+           4328    4142    2098    2099
CTETRA      1157       1    1473    1475    2273    2335    1774    4306+
+           4122    3432    3183    3068
CTETRA      1158       1     267    1561     269    2185    4083    4142+
+            268    2529    4087    2528
CTETRA      1159       1     247     273     248    1560    3788    3786+
+            252    2092    3727    2090
CTETRA      1160       1    1533    2206    2215    2220    4130    2627+
+           4189    4131    2635    2630
CTETRA      1161       1    1536    2222    2216    2224    4283    2637+
+           3717    3719    2639    2644
CTETRA      1162       1    1546    2188    2198    2199    4293    2570+
+           4291    4255    2572    2573
CTETRA      1163       1    1500    2196    1562    2211    3521    3520+
+           2103    4329    2597    3519
CTETRA      1164       1      75    1529    1530    2193    1961    1963+
+           1954    3599    3426    3428
CTETRA      1165       1    1514    2148    1517    2157    3546    3548+
+           1915    3541    2415    3542
CTETRA      1166       1    1517    2153    1521    2157    4327    3973+
+           1937    3542    2413    3975
CTETRA      1167       1    1509    1510    2139    2169    1881    3872+
+           3644    3645    3537    2444
CTETRA      1168       1     246     275     273    2184    3895     274+
+           3897    3896    2483    2485
CTETRA      1169       1    1538    2161    1557    2180    3797    3799+
+           2070    3328    2504    3963
CTETRA      1170       1     247     248     273     104     252    3786+
+           3788     473     474    2738
CTETRA      1171       1    1505    2169    1513    2170    3873    3643+
+           1882    3868    2438    4365
CTETRA      1172       1    1517    1522    2153    2155    1936    4366+
+           4327    4326    4063    2405
CTETRA      1173       1    1515    2147    1518    2148    3676    3905+
+           1918    3547    2380    3906
CTETRA      1174       1      78    1515    1503    2144    1902    1905+
+           1904    3273    3673    3959
CTETRA      1175       1    1516    1521    2156    2157    1949    3974+
+           3886    3543    3975    2414
CTETRA      1176       1    1507    2167    1511    2173    4145    4209+
+           1893    4033    2463    4032
CTETRA      1177       1    1544    2162    2180    2181    3326    2502+
+           3323    3330    2501    2503
CTETRA      1178       1    1505    1513    1506    2170    1882    1884+
+           1883    3868    4365    3871
CTETRA      1179       1    1457    2349    1467    2352    4094    4096+
+           1753    3739    3133    4213
CTETRA      1180       1    1486    2344    2347    2350    4124    3120+
+           3383    4367    3118    3121
CTETRA      1181       1    1456    1457    1486    2350    1755    1819+
+           1820    4095    3438    4367
CTETRA      1182       1    1428    2328    1429    2329    4333    4015+
+           1733    3608    3033    3606
CTETRA      1183       1    1463    1466    1465    2327    1735    1736+
+           1732    4359    4117    4360
CTETRA      1184       1    1465    1466    1470    2327    1736    1762+
+           1763    4360    4117    4332
CTETRA      1185       1    1421    1422    1429    2252    1601    1853+
+           1852    4002    3604    3603
CTETRA      1186       1     288     289    1428    2308     297    1720+
+           1854    3493    3857    3494
CTETRA      1187       1     288     342     343    2250    3609     419+
+           3496    3492    2783    2784
CTETRA      1188       1     130     117     131    1425    1365    1358+
+            146    1610    3471    1609
CTETRA      1189       1     129    1420     116    1424    1627    4335+
+           1367    1629    1599    4020
CTETRA      1190       1     128     115     116    2253    1363     125+
+           1368    3968    2801    2800
CTETRA      1191       1      17     106     235    1417     469     467+
+            243    1574    4286    1573
CTETRA      1192       1     235     107     236    1417     468     470+
+            244    1573    4185    1570
CTETRA      1193       1     287     491     288     844     541     545+
+            298    3270    3269    3373
CTETRA      1194       1     520     521     790     842     662    3317+
+           3315    3313    4368    1290
CTETRA      1195       1     289     829     487     830    3483    4340+
+            535    3484    1253    3935
CTETRA      1196       1     289     345     346    2307    4211     409+
+           3482    3485    2949    2950
CTETRA      1197       1     289     489     487     829     544     552+
+            535    3483    3931    4340
CTETRA      1198       1     489     816     817     829    3988    1245+
+           3932    3931    1244    1246
CTETRA      1199       1     289     346     345     829    3482     409+
+           4211    3483    1241    1240
CTETRA      1200       1    1428    2304    2305    2307    3854    2960+
+           3856    3855    2959    2943
CTETRA      1201       1     489     832     816     844    3558    1271+
+           3988    4337    1304    1303
CTETRA      1202       1     289     487     290     830     535     536+
+            296    3484    3935    3489
CTETRA      1203       1    1505    1510    1513    2169    1876    1879+
+           1882    3873    3537    3643
CTETRA      1204       1     482     784     785     814    4277    1190+
+           4369    4370    1189    1188
CTETRA      1205       1     499     812     811     814    4371    1184+
+           4372    4373    1193    1201
CTETRA      1206       1     481     748     783     815    3700    1196+
+           4223    4220    1200    1198
CTETRA      1207       1     482     784     492     785    4277    4153+
+            558    4369    1190    3555
CTETRA      1208       1     487     824     819     826    3338    1215+
+           4305    3339    1220    1218
CTETRA      1209       1     482     483     525     795     559     705+
+            668    4374    4375    3361
CTETRA      1210       1     482     795     525     814    4374    3361+
+            668    4370    1191    4376
CTETRA      1211       1     483     785     786     795    3554    1151+
+           3625    4375    1150    1149
CTETRA      1212       1     283     522     284     745     657     656+
+            313    3663    4377    3664
CTETRA      1213       1     508     711     719     723    3226     868+
+           4275    4321     867     869
CTETRA      1214       1     508     724     723     729    4271     871+
+           4321    3775     894     893
CTETRA      1215       1     505     711     712     719    3219     906+
+           3295    4110     868     905
CTETRA      1216       1     511     719     720     726    4109     875+
+           4053    3772     873     876
CTETRA      1217       1     280     511     281     725     623     624+
+            309    3770    3769    3864
CTETRA      1218       1     292     293     356     779     299    3916+
+           3915    4378    4379    1079
CTETRA      1219       1     292     480     293     779     562     563+
+            299    4378    4380    4379
CTETRA      1220       1     225    1452    2296    2297    3982    3755+
+           2929    2937    3983    2938
CTETRA      1221       1     291     352     353    2314    3820     398+
+           3819    4234    2989    2987
CTETRA      1222       1     494     784     783     821    4276    1199+
+           4158    4154    1209    1207
CTETRA      1223       1     292     777     480     779    4115    4116+
+            562    4378    1080    4380
CTETRA      1224       1     480     747     776     777    4114    1063+
+           4278    4116    1071    1072
CTETRA      1225       1    1466    2326    2325    2346    4118    3038+
+           4356    3384    3106    3107
CTETRA      1226       1    1428    2306    2305    2329    3495    2944+
+           3856    3608    3030    3034
CTETRA      1227       1     289    1463    1428    2307    1718    1721+
+           1720    3485    3852    3855
CTETRA      1228       1     288     489     289     816     543     544+
+            297    3498    3988    4212
CTETRA      1229       1     289     347     290    2310    3488    3487+
+            296    3486    2965    4363
CTETRA      1230       1     291     353     292    2314    3819    3979+
+            301    4234    2987    3899
CTETRA      1231       1     291     350     351    2312    4179     405+
+           4177    4181    2971    2970
CTETRA      1232       1    1460    2300    2311    2314    4233    2968+
+           4358    3920    2985    2984
CTETRA      1233       1    1464    2301    1467    2325    4274    4273+
+           1728    4355    3041    4351
CTETRA      1234       1    1466    2327    2346    2347    4117    3110+
+           3384    3386    3109    3108
CTETRA      1235       1     291    1460    1464    2311    1707    1723+
+           1722    4178    4358    4381
CTETRA      1236       1    1460    2299    1461    2300    3919    3944+
+           1709    4233    2993    4281
CTETRA      1237       1     181    1441    1437    2268    1655    1641+
+           1653    3400    3398    3390
CTETRA      1238       1    1448    2281    2280    2296    4236    2850+
+           4235    3985    2940    2939
CTETRA      1239       1     212     224     225    1452    1405     234+
+           1409    1694    3984    3982
CTETRA      1240       1     135    2136     119    2231    3890    2686+
+           1353    4382    2685    2684
CTETRA      1241       1     134     119     135    2136    1354    1353+
+            138    3164    2686    3890
CTETRA      1242       1    1426    2237    2236    2240    4383    2722+
+           4038    3473    2735    2733
CTETRA      1243       1     130    1425    1427    2133    1610    1625+
+           1626    3243    4325    3244
CTETRA      1244       1    1566    2136    2135    2233    3891    2689+
+           4384    4385    2705    2704
CTETRA      1245       1    1563    1566    2135    2233    2131    4384+
+           4386    3656    4385    2704
CTETRA      1246       1     134     118     119    2136    1360     122+
+           1354    3164    2723    2686
CTETRA      1247       1     284     330    2234    2235    3661    2695+
+           3657    3659    2702    2703
CTETRA      1248       1     283    2134     329    2235    4347    2699+
+           4387    3667    2701    2700
CTETRA      1249       1     283    1493    2229    2235    2128    4249+
+           4346    3667    4388    2670
CTETRA      1250       1    1535    1549    1548    2218    2032    2034+
+           2033    4246    4245    4389
CTETRA      1251       1    1492    1549    1535    2230    2026    2032+
+           1980    4251    4248    4247
CTETRA      1252       1    1492    2135    1566    2231    4390    4384+
+           2126    4244    2688    4391
CTETRA      1253       1    1526    2192    2191    2202    3421    2522+
+           3420    3538    2560    2562
CTETRA      1254       1    1554    2202    2218    2219    3670    2621+
+           4392    3928    2620    2622
CTETRA      1255       1    1554    2202    2201    2218    3670    2564+
+           4204    4392    2621    2623
CTETRA      1256       1    1491    1555    1549    2231    2040    2043+
+           2027    4242    4393    4243
CTETRA      1257       1    1500    2198    2197    2207    4256    2571+
+           4086    4292    2577    2578
CTETRA      1258       1    1500    2207    2197    2211    4292    2578+
+           4086    4329    2601    2596
CTETRA      1259       1     267    1494     269    1561    3175    4200+
+            268    4083    2098    4142
CTETRA      1260       1     267    1495    1494    1561    3168    1867+
+           3175    4083    2100    2098
CTETRA      1261       1    1527    1532    2182    2183    1972    3602+
+           3539    3417    3422    2497
CTETRA      1262       1      76      92    2143    2193     461    2369+
+           3966    3942    2519    2518
CTETRA      1263       1     248     105     249    2247     479     478+
+            256    3898    2763    4239
CTETRA      1264       1      78    2144    1503    2146    3273    3959+
+           1904    3743    2359    3568
CTETRA      1265       1      75      91    2193    2203     454    2553+
+           3599    3600    2556    2554
CTETRA      1266       1     248     249    1494    2247     256    1870+
+           1871    3898    4239    4199
CTETRA      1267       1     278    1562    1495    2195    2095    2097+
+           1857    3502    3501    4143
CTETRA      1268       1     265    1495     267    2204    3169    3168+
+            266    2552    4084    2551
CTETRA      1269       1     248     271    1494    1560    3785    4198+
+           1871    2090    3787    2091
CTETRA      1270       1     267    2247    1494    2249    2773    4199+
+           3175    2774    2775    4201
CTETRA      1271       1    1500    2187    1501    2197    4290    4210+
+           2024    4086    2558    4085
CTETRA      1272       1    1500    1501    1561    2197    2024    2105+
+           2106    4086    4085    4010
CTETRA      1273       1     265     267    1498    2249     266    3171+
+           3170    2771    2774    3178
CTETRA      1274       1    1540    1558    1559    2160    2078    2086+
+           2085    3795    3880    3796
CTETRA      1275       1     267     269    1494    2247     268    4200+
+           3175    2773    2761    4199
CTETRA      1276       1    1541    1554    1555    2219    2064    2045+
+           2063    3792    3928    3927
CTETRA      1277       1    1554    2218    1555    2219    4392    4394+
+           2045    3928    2622    3927
CTETRA      1278       1    1548    1554    2201    2218    2052    4204+
+           4205    4389    4392    2623
CTETRA      1279       1    1547    1548    1553    2201    2039    2053+
+           2060    4395    4205    4203
CTETRA      1280       1    1548    1549    1554    2218    2034    2044+
+           2052    4389    4245    4392
CTETRA      1281       1    1549    1555    1554    2218    2043    2045+
+           2044    4245    4394    4392
CTETRA      1282       1    1492    1549    2230    2231    2026    4248+
+           4251    4244    4243    2687
CTETRA      1283       1    1492    2230    2135    2231    4251    2690+
+           4390    4244    2687    2688
CTETRA      1284       1     165     150     166    2274    1380    1381+
+            177    3187    2859    4303
CTETRA      1285       1     210    1451     221    2288    1689    3513+
+           1403    4334    4217    2905
CTETRA      1286       1      34      22    1521    2153     423    4396+
+           1928    4397    2397    3973
CTETRA      1287       1    1508    1509    1520    2138    1887    1924+
+           1926    3638    3637    3587
CTETRA      1288       1      35    1521      22    2156    1929    4396+
+            424    4398    3974    2411
CTETRA      1289       1    1516    2156    2150    2158    3886    2410+
+           3884    3887    2425    2424
CTETRA      1290       1      35    1524    1521    2156    1943    1944+
+           1929    4398    4092    3974
CTETRA      1291       1    1509    1512    1513    2165    1885    1888+
+           1880    3640    4295    3641
CTETRA      1292       1    1520    1524    1523    2150    1948    1946+
+           1947    3885    4091    4090
CTETRA      1293       1      62      63    1511    2173      73    1894+
+           1895    4030    4021    4032
CTETRA      1294       1    1513    2169    2166    2170    3643    2435+
+           3642    4365    2438    2433
CTETRA      1295       1    1517    2153    2148    2155    4327    2406+
+           3548    4326    2405    2404
CTETRA      1296       1    1506    1513    2166    2170    1884    3642+
+           4208    3871    4365    2433
CTETRA      1297       1    1505    2168    2169    2170    3867    2443+
+           3873    3868    2442    2438
CTETRA      1298       1    1505    2141    1510    2168    3530    3534+
+           1876    3867    2449    3536
CTETRA      1299       1    1435    1440    2317    2321    1646    3233+
+           3452    3454    3234    3007
CTETRA      1300       1    1479    2341    1485    2342    4078    4076+
+           1809    4080    3095    4123
CTETRA      1301       1    1417    1418    2241    2265    1582    3712+
+           4186    4183    3948    2834
CTETRA      1302       1    1415    1418    1416    2265    1577    1580+
+           1581    3949    3948    4182
CTETRA      1303       1     236     107    1416    1417     470    3617+
+           1572    1570    4185    1571
CTETRA      1304       1     238     239    1459    2354     242    1816+
+           1716    3683    3807    3684
CTETRA      1305       1     294    1415     359    2267    1568    4399+
+           3954    3947    3950    2840
CTETRA      1306       1     107    1419    1416    2260    3620    1593+
+           3617    2822    3622    3616
CTETRA      1307       1     257     258    1418    2241     261    1583+
+           1579    3210    3209    3712
CTETRA      1308       1    1413    1416    2260    2264    1588    3616+
+           3623    3811    3813    2825
CTETRA      1309       1    1454    2337    1469    2339    4400    3275+
+           1751    4016    3083    3274
CTETRA      1310       1     168     152    2282    2284    1377    2881+
+           4260    4196    2883    2877
CTETRA      1311       1     166     151     167    2275    1382    1379+
+            178    4304    2885    4401
CTETRA      1312       1     521     717     718     739    3838     942+
+           3840    3839     941     940
CTETRA      1313       1     521     717     716     790    3838     947+
+           3405    3317    1098    1097
CTETRA      1314       1     519     789     790     801    3575    1103+
+           3316    4402    1102    1101
CTETRA      1315       1     285     841     718     842    4336    1288+
+           3841    4403    1295    1297
CTETRA      1316       1     521     718     717     842    3840     942+
+           3838    4368    1297    1291
CTETRA      1317       1     515     796     797     799    3444    1122+
+           3442    3441    1113    1121
CTETRA      1318       1     530     798     531     804    3359    3248+
+            701    3360    1136    3354
CTETRA      1319       1     482     785     795     814    4369    1150+
+           4374    4370    1188    1191
CTETRA      1320       1     524     793     794     804    4176    1148+
+           3363    3353    1140    1146
CTETRA      1321       1     293     780     774     781    4309    1083+
+           3449    4107    1090    1095
CTETRA      1322       1     166    1475    2274    2275    1776    3182+
+           4303    4304    4307    2862
CTETRA      1323       1     294     773     359     782    3447    1053+
+           3954    4039    1094    1093
CTETRA      1324       1     480     776     775     780    4278    1065+
+           3698    4404    1084    1082
CTETRA      1325       1     293     779     480     780    4379    4380+
+            563    4309    1085    4404
CTETRA      1326       1     480     495     481     748     574     572+
+            576    3696    4156    3700
CTETRA      1327       1     293     358     357     781    4106     402+
+           4308    4107    1087    1086
CTETRA      1328       1     501     771     774     775    3693    1055+
+           3451    3695    1060    1061
CTETRA      1329       1     498     501     500     750     591     594+
+            583    3688    3699    3689
CTETRA      1330       1      18     502     496     765     596     599+
+            587    3715    4042    4219
CTETRA      1331       1    1418    2242    2241    2265    3713    2741+
+           3712    3948    2839    2834
CTETRA      1332       1     518     715     799     801    3846    1110+
+           3847    4405    1100    1108
CTETRA      1333       1     522     715     716     741    4169     953+
+           3404    4406     949     951
CTETRA      1334       1     519     521     716     790     663    3405+
+           4407    3316    3317    1097
CTETRA      1335       1     509     710     709     809    4408     865+
+           3941    3285    1168    1165
CTETRA      1336       1     509     754     753     809    3569    1001+
+           3283    3285    1164    1166
CTETRA      1337       1     525     530     804     805     706    3360+
+           3362    3356    3357    1145
CTETRA      1338       1     483     786     525     795    3625    3355+
+            705    4375    1149    3361
CTETRA      1339       1     524     528     526     793     677     680+
+            670    4176    3825    4173
CTETRA      1340       1     524     793     526     794    4176    4173+
+            670    3363    1148    4409
CTETRA      1341       1    1458    2352    2323    2353    3740    3146+
+           4150    3809    3145    3144
CTETRA      1342       1    1457    2350    2349    2352    3438    3126+
+           4094    3739    3131    3133
CTETRA      1343       1    1467    2301    2324    2325    4273    3042+
+           4352    4351    3041    3043
CTETRA      1344       1    1465    2304    2327    2328    4339    3031+
+           4360    3552    3035    3036
CTETRA      1345       1    1463    2303    1466    2327    4410    4411+
+           1735    4359    3028    4117
CTETRA      1346       1    1428    2305    2304    2328    3856    2960+
+           3854    4333    3032    3035
CTETRA      1347       1     293     359    1415    2263    4412    4399+
+           1569    4413    2820    3562
CTETRA      1348       1    1413    2261    1415    2264    3810    3560+
+           1587    3811    2827    3812
CTETRA      1349       1     294    1418    1415    2267    1576    1577+
+           1568    3947    3951    3950
CTETRA      1350       1     293     480     774     780     563    3450+
+           3449    4309    4404    1083
CTETRA      1351       1     293     359     358     782    4412     404+
+           4106    4040    1093    1091
CTETRA      1352       1     284    2232    1563    2234    3665    3655+
+           2107    3657    2691    3658
CTETRA      1353       1     118    1564    1565    2233    4414    2114+
+           3474    2724    4241    3475
CTETRA      1354       1     135    2219    1555    2231    4415    3927+
+           2041    4382    2682    4393
CTETRA      1355       1     283     329     330    2235    4387     385+
+           3662    3667    2700    2702
CTETRA      1356       1     285    1426    1410    2237    1619    1617+
+           1615    4416    4383    3648
CTETRA      1357       1    1549    2218    2230    2231    4245    2679+
+           4248    4243    2683    2687
CTETRA      1358       1    1493    2222    2229    2230    4253    2676+
+           4249    4252    2680    2681
CTETRA      1359       1    1492    2229    2135    2230    4250    2672+
+           4390    4251    2681    2690
CTETRA      1360       1    1492    2135    2229    2235    4390    2672+
+           4250    4417    2671    2670
CTETRA      1361       1     283     328     329    2134    4316     384+
+           4387    4347    2665    2699
CTETRA      1362       1     118    2136    1564    2233    2723    3553+
+           4414    2724    2705    4241
CTETRA      1363       1     133     118    1564    1565    1359    4414+
+           2118    2117    3474    2114
CTETRA      1364       1     135     119    2219    2231    1353    2677+
+           4415    4382    2684    2682
CTETRA      1365       1       7       8    2203    2219      90    2576+
+           3669    3791    2619    2618
CTETRA      1366       1    1566    2135    2136    2231    4384    2689+
+           3891    4391    2688    2685
CTETRA      1367       1     135     136    1555    2219     139    2062+
+           2041    4415    3793    3927
CTETRA      1368       1    1491    1492    1566    2231    2028    2126+
+           2125    4242    4244    4391
CTETRA      1369       1    1491    1566    2136    2231    2125    3891+
+           3165    4242    4391    2685
CTETRA      1370       1     283    1493    2228    2229    2128    4418+
+           4419    4346    4249    2673
CTETRA      1371       1     283    1563    1493    2235    2109    2129+
+           2128    3667    3660    4388
CTETRA      1372       1    1541    2203    2202    2219    3671    2561+
+           3593    3792    2618    2620
CTETRA      1373       1    1545    1551    1550    2188    2051    2050+
+           2049    4289    4141    4215
CTETRA      1374       1    1550    2178    2187    2188    4214    2536+
+           4287    4215    2541    2542
CTETRA      1375       1    1557    2161    2179    2180    3799    2505+
+           4139    3963    2504    2506
CTETRA      1376       1    1552    1557    2179    2180    2081    4139+
+           4026    3962    3963    2506
CTETRA      1377       1    1546    2189    2188    2199    4027    2540+
+           4293    4255    2574    2572
CTETRA      1378       1    1545    1546    1551    2188    2030    2055+
+           2051    4289    4293    4141
CTETRA      1379       1    1533    2206    2198    2207    4130    2582+
+           4192    4270    2584    2577
CTETRA      1380       1    1499    1537    1533    2206    1990    1995+
+           1992    4269    4190    4130
CTETRA      1381       1    1545    2188    2187    2198    4289    2542+
+           4288    4257    2570    2569
CTETRA      1382       1    1533    1546    2198    2199    2031    4291+
+           4192    4129    4255    2573
CTETRA      1383       1    1551    2179    2188    2189    4138    2539+
+           4141    4029    2538    2540
CTETRA      1384       1    1507    1539    1538    2167    2005    2007+
+           2001    4145    3803    3804
CTETRA      1385       1      34    1522      21    2153    1934    4061+
+            425    4397    4366    2396
CTETRA      1386       1    1510    1516    2140    2149    1911    3888+
+           3535    3550    3544    2371
CTETRA      1387       1    1505    2164    2141    2168    3531    2448+
+           3530    3867    2441    2449
CTETRA      1388       1    1504    2141    2142    2145    3299    2357+
+           3526    3300    2356    2355
CTETRA      1389       1    1506    2166    2167    2170    4208    2434+
+           3869    3871    2433    2432
CTETRA      1390       1    1532    2164    2163    2182    3529    2440+
+           3533    3602    2496    2498
CTETRA      1391       1    1439    1443    1445    2287    1662    1668+
+           1666    3198    3190    4302
CTETRA      1392       1    1504    1505    1532    2164    1878    1969+
+           1970    3527    3531    3529
CTETRA      1393       1    1532    2164    2182    2183    3529    2496+
+           3602    3422    2491    2497
CTETRA      1394       1      76      92      93    2143     461     103+
+            462    3966    2369    2368
CTETRA      1395       1      77      93      94    2146     459     101+
+            458    3742    2367    2366
CTETRA      1396       1    1531    2142    1532    2183    3858    3528+
+           1977    3425    2489    3422
CTETRA      1397       1      76      77    1531    2143      88    1965+
+           1967    3966    4420    3424
CTETRA      1398       1    1562    2211    2213    2214    3519    2608+
+           3504    3518    2607    2606
CTETRA      1399       1     292     355     356    2315    4421     401+
+           3915    3901    3001    3000
CTETRA      1400       1     279    2212    1562    2214    3162    3525+
+           2096    3163    2611    3518
CTETRA      1401       1     279     316     315     708    4422     368+
+           4423    4424     856     857
CTETRA      1402       1     509     722     709     724    4425     860+
+           3941    4345     864     863
CTETRA      1403       1     278     315     279    2213    3765    4423+
+            306    3503    2604    3517
CTETRA      1404       1     278     509     279     708     608     607+
+            306    3764    3570    4424
CTETRA      1405       1     279     280     318     730     305    3345+
+           3346    3344    3342     897
CTETRA      1406       1    1499    1500    1562    2211    1993    2103+
+           2102    3523    4329    3519
CTETRA      1407       1    1564    1567    1566    2136    2119    2121+
+           2120    3553    3166    3891
CTETRA      1408       1    1563    2234    2135    2235    3658    2706+
+           4386    3660    2703    2671
CTETRA      1409       1      74      91      75    2203     453     454+
+             83    3668    2556    3600
CTETRA      1410       1    1549    1555    2218    2231    2043    4394+
+           4245    4243    4393    2683
CTETRA      1411       1    1553    2191    2201    2202    3672    2563+
+           4203    3479    2562    2564
CTETRA      1412       1    1542    1553    1554    2202    2067    2054+
+           2066    3477    3479    3670
CTETRA      1413       1     283     503     522     742     618     659+
+            657    4315    4426    4427
CTETRA      1414       1     282    1493    2221    2228    1983    4428+
+           4228    4429    4418    2669
CTETRA      1415       1     516     796     713     802    3778    1114+
+           3780    3297    1124    1123
CTETRA      1416       1     512     732     720     733    4229     912+
+           4064    4066     914     908
CTETRA      1417       1     503     734     742     743    3230     955+
+           4426    3231     960     957
CTETRA      1418       1     512     731     732     733    4069     916+
+           4229    4066     915     914
CTETRA      1419       1     282     325     326    2221    4045     380+
+           4430    4228    2646    2647
CTETRA      1420       1     505     508     506     711     619     605+
+            620    3219    3226    3220
CTETRA      1421       1     279     722     509     724    3957    4425+
+            607    3343     864    4345
CTETRA      1422       1     283     327     328    2228    4342     381+
+           4316    4419    2667    2664
CTETRA      1423       1    1534    2216    1535    2217    4132    4226+
+           1987    4133    2634    4225
CTETRA      1424       1    1535    1548    2217    2218    2033    4285+
+           4225    4246    4389    2626
CTETRA      1425       1     321    1537    2205    2226    3413    3862+
+           2591    2656    3415    2653
CTETRA      1426       1    1534    1536    1535    2216    1986    1985+
+           1987    4132    3717    4226
CTETRA      1427       1    1512    2166    2165    2172    4207    2437+
+           4295    3912    2458    2457
CTETRA      1428       1      61    2171      46    2172    3909    2460+
+            443    3911    2459    2461
CTETRA      1429       1    1528    2163    2162    2181    3908    2430+
+           3332    3480    2499    2501
CTETRA      1430       1    1509    1520    2138    2139    1924    3587+
+           3637    3644    3882    2423
CTETRA      1431       1    1538    2161    2162    2167    3797    2428+
+           3327    3804    2427    2426
CTETRA      1432       1     126    1488      12    2338    1834    1832+
+            143    3972    4322    4282
CTETRA      1433       1     149    2274    1476    2336    2860    3188+
+           3186    3069    3071    3185
CTETRA      1434       1     281    1536    2223    2227    1996    3718+
+           3863    3412    4136    2659
CTETRA      1435       1     126      11     115    2338    1361     123+
+           1364    3972    3075    3074
CTETRA      1436       1    1485    2334    2342    2345    4127    3090+
+           4123    3430    3096    3098
CTETRA      1437       1    1478    2273    2272    2334    4262    2872+
+           4431    4120    3066    3064
CTETRA      1438       1    1472    2336    2335    2351    3181    3073+
+           3180    3439    3128    3127
CTETRA      1439       1    1472    1476    1475    2274    1771    1777+
+           1772    3179    3188    3182
CTETRA      1440       1      74      75    1530    2203      83    1954+
+           1953    3668    3600    3601
CTETRA      1441       1     183    1436    1440    2320    1651    1648+
+           1649    3237    3238    3232
CTETRA      1442       1    1434    1474    2272    2333    1788    4126+
+           4128    3889    4098    3061
CTETRA      1443       1    1466    2325    1467    2346    4356    4351+
+           1730    3384    3107    4353
CTETRA      1444       1    1456    1486    2347    2350    1820    3383+
+           3382    4095    4367    3121
CTETRA      1445       1    1463    2304    2303    2327    3851    2957+
+           4410    4359    3031    3028
CTETRA      1446       1    1466    2303    2326    2327    4411    3024+
+           4118    4117    3028    3029
CTETRA      1447       1    1464    2325    1466    2326    4355    4356+
+           1729    4432    3038    4118
CTETRA      1448       1    1445    2294    2293    2295    4102    2922+
+           3706    3750    2931    2927
CTETRA      1449       1    1432    1443    1433    2283    1663    1661+
+           1665    4258    3196    4433
CTETRA      1450       1    1433    1443    2277    2283    1661    3195+
+           4324    4433    3196    2875
CTETRA      1451       1    1439    2278    2287    2292    3457    2887+
+           3198    4075    2912    2914
CTETRA      1452       1    1443    1445    2287    2289    1668    4302+
+           3190    3192    3194    2902
CTETRA      1453       1    1452    2294    1453    2295    3753    3752+
+           1701    3987    2931    3747
CTETRA      1454       1    1437    2268    1441    2269    3390    3398+
+           1641    3391    2848    3387
CTETRA      1455       1    1437    1449    1448    2280    1681    1682+
+           1677    3392    3213    4235
CTETRA      1456       1    1448    1449    1452    2296    1682    1702+
+           1697    3985    3754    3755
CTETRA      1457       1    1438    2280    2279    2294    3214    2857+
+           3218    3215    2917    2916
CTETRA      1458       1    1426    2132    2133    2236    3156    2708+
+           3159    4038    2707    2709
CTETRA      1459       1     129    1424     116    1427    1629    4020+
+           1367    1630    1623    3242
CTETRA      1460       1    1412    2262    2298    2315    3924    2990+
+           3922    3918    2995    2994
CTETRA      1461       1     293    1415    1412    2262    1569    1586+
+           1584    4434    3561    3924
CTETRA      1462       1     293     359     294    1415    4412    3954+
+            303    1569    4399    1568
CTETRA      1463       1     501     771     770     774    3693    1044+
+           3207    3451    1055    1054
CTETRA      1464       1     293    1412     356    2262    1584    3917+
+           3916    4434    3924    2818
CTETRA      1465       1     293     501     294     774     590     595+
+            303    3449    3451    3448
CTETRA      1466       1     500     749     771     775    3701    1036+
+           3692    3694    1057    1060
CTETRA      1467       1     294     502     755     769     597    3202+
+           3634    3945    3203    1039
CTETRA      1468       1     293     358     359    2263    4106     404+
+           4412    4413    2819    2820
CTETRA      1469       1     496     502     757     767     599    3200+
+           3199    4435    4043    1025
CTETRA      1470       1     496     765     502     767    4219    4042+
+            599    4435    1022    4043
CTETRA      1471       1     293     357     356     779    4308     403+
+           3916    4379    1088    1079
CTETRA      1472       1     257    2241    1418    2243    3210    3712+
+           1579    3619    2740    3714
CTETRA      1473       1     293     356     357    2262    3916     403+
+           4308    4434    2818    2817
CTETRA      1474       1    1412    1415    2261    2262    1586    3560+
+           3815    3924    3561    2816
CTETRA      1475       1    1415    2261    2263    2264    3560    2815+
+           3562    3812    2827    2842
CTETRA      1476       1     168     153     169    2282    1376    1372+
+            175    4260    2882    3994
CTETRA      1477       1     169    2282     153    2285    3994    2882+
+           1372    3995    2892    2891
CTETRA      1478       1     167     152     168    2284    1378    1377+
+            176    4195    2883    4196
CTETRA      1479       1     168     169    1444    2282     175    1658+
+           1657    4260    3994    3993
CTETRA      1480       1     169    1447    1444    2285    1671    1673+
+           1658    3995    4001    3996
CTETRA      1481       1     170    1447    2285    2291    1672    4001+
+           4301    3516    3999    2911
CTETRA      1482       1      14     170      13     220     171    1369+
+            162    1400    3286     228
CTETRA      1483       1     285     718     521     842    3841    3840+
+            655    4403    1297    4368
CTETRA      1484       1     285     286     336     843     311    3153+
+           4104    3333    3290    1302
CTETRA      1485       1     285     520     841     842     653    3305+
+           4336    4403    3313    1295
CTETRA      1486       1     286     336     843     849    3153    1302+
+           3290    3318    1317    1316
CTETRA      1487       1     290     493     822     823     566    4436+
+           4437    4348    4349    1214
CTETRA      1488       1     290    2309    1463    2310    4362    4438+
+           1719    4363    2955    3853
CTETRA      1489       1     289    1463    2307    2310    1718    3852+
+           3485    3486    3853    2961
CTETRA      1490       1     290     822     348     823    4437    1238+
+           4361    4348    1214    1239
CTETRA      1491       1     290     823     348     830    4348    1239+
+           4361    3489    1248    1250
CTETRA      1492       1     289     290    1463    2310     296    1719+
+           1718    3486    4363    3853
CTETRA      1493       1     524     526     525     794     670     669+
+            671    3363    4409    3364
CTETRA      1494       1     524     803     793     804    4172    1138+
+           4176    3353    1137    1140
CTETRA      1495       1     526     528     527     813     680     688+
+            686    4174    4175    3835
CTETRA      1496       1     525     794     526     812    3364    4409+
+            669    4439    1187    4440
CTETRA      1497       1    1536    2224    2223    2227    3719    2645+
+           3718    4136    2658    2659
CTETRA      1498       1     496     757     507     760    3199    4320+
+            616    4167     981    4166
CTETRA      1499       1    1492    1493    1563    2235    1981    2129+
+           2130    4417    4388    3660
CTETRA      1500       1    1563    2232    2233    2234    3655    2692+
+           3656    3658    2691    2693
CTETRA      1501       1    1412    1461    1460    2299    1710    1709+
+           1708    3923    3944    3919
CTETRA      1502       1    1501    1545    1550    2187    2025    2049+
+           2046    4210    4288    4287
CTETRA      1503       1     508     509     710     724     604    4408+
+           3225    4271    4345     866
CTETRA      1504       1     482     525     499     814     668     667+
+            581    4370    4376    4373
CTETRA      1505       1     525     795     794     812    3361    1153+
+           3364    4439    1192    1187
CTETRA      1506       1     523     797     803     804    3626    1130+
+           4055    3352    1135    1137
CTETRA      1507       1     496     760     766     767    4167    1017+
+           4218    4435    1024    1023
CTETRA      1508       1     501     750     768     771    3699    1029+
+           3205    3693    1035    1038
CTETRA      1509       1     496     757     760     767    3199     981+
+           4167    4435    1025    1024
CTETRA      1510       1    1531    2142    2143    2146    3858    2362+
+           3424    3859    2361    2363
CTETRA      1511       1    1487    2341    2340    2343    3704    3093+
+           4148    3380    3102    3101
CTETRA      1512       1    1429    2252    2329    2337    3603    3027+
+           3606    3733    3081    3079
CTETRA      1513       1    1428    2305    2328    2329    3856    3032+
+           4333    3608    3034    3033
CTETRA      1514       1     116    1420    2253    2259    4335    3734+
+           2800    2804    3735    2805
CTETRA      1515       1    1421    2252    2253    2259    4002    2809+
+           3730    3614    2808    2805
CTETRA      1516       1    1424    2258    2254    2259    4019    2811+
+           3612    3615    2807    2810
CTETRA      1517       1    1445    1450    1453    2295    1704    1699+
+           1705    3750    3748    3747
CTETRA      1518       1    1438    2279    1445    2294    3218    4101+
+           1667    3215    2916    4102
CTETRA      1519       1    1443    2286    1446    2289    3191    3710+
+           1670    3192    2901    3193
CTETRA      1520       1     223    1450    2288    2293    3749    3708+
+           2925    2926    3709    2920
CTETRA      1521       1    1439    1445    2279    2292    1666    4101+
+           3463    4075    3705    2913
CTETRA      1522       1    1438    1439    1445    2279    1636    1666+
+           1667    3218    3463    4101
CTETRA      1523       1    1444    2283    2282    2286    3635    2878+
+           3993    3636    2889    2894
CTETRA      1524       1     165     166    1475    2274     177    1776+
+           1775    3187    4303    3182
CTETRA      1525       1     166     167    1477    2275     178    1779+
+           1781    4304    4401    4338
CTETRA      1526       1     167    2275     151    2284    4401    2885+
+           1379    4195    2880    2884
CTETRA      1527       1     167    1432    1477    2284    1778    1780+
+           1779    4195    4197    4441
CTETRA      1528       1     293    1415    2262    2263    1569    3561+
+           4434    4413    3562    2814
CTETRA      1529       1     293    2262     357    2263    4434    2817+
+           4308    4413    2814    2821
CTETRA      1530       1    1412    2261    1413    2322    3815    3810+
+           1589    3817    3039    3816
CTETRA      1531       1     293     294     359     782     303    3954+
+           4412    4040    4039    1093
CTETRA      1532       1     277     365     366    2244    3148     394+
+           4187    3172    2757    2758
CTETRA      1533       1     277     759     366     766    4442    1007+
+           4187    3152    1016    1018
CTETRA      1534       1     277     510     758     759     612    3938+
+           4314    4442    4168     979
CTETRA      1535       1      18     364     365    2246    3403     395+
+           3147    3149    2756    2759
CTETRA      1536       1     277     510     278     758     612     611+
+            307    4314    3938    3937
CTETRA      1537       1     285     335    2236    2237    4103    2711+
+           4105    4416    2721    2722
CTETRA      1538       1     285     336    1426    2236    4104    4037+
+           1619    4105    2710    4038
CTETRA      1539       1    1534    1546    2199    2200    2035    4255+
+           4254    4125    4028    2575
CTETRA      1540       1    1423    2132    2257    2258    3157    2714+
+           4267    3160    2803    2812
CTETRA      1541       1     491     845     844     852    3490    1307+
+           3269    3265    1335    1334
CTETRA      1542       1    1528    2163    2181    2182    3908    2499+
+           3480    3540    2498    2500
CTETRA      1543       1    1504    1532    2142    2164    1970    3528+
+           3526    3527    3529    2450
CTETRA      1544       1    1503    1504    1531    2142    1910    1978+
+           1966    3567    3526    3858
CTETRA      1545       1     164     149     165    1476    1373    1374+
+            173    1767    3186    1768
CTETRA      1546       1    1555    2219    2218    2231    3927    2622+
+           4394    4393    2682    2683
CTETRA      1547       1    1517    1522    1521    2153    1936    1935+
+           1937    4327    4366    3973
CTETRA      1548       1    1539    2160    1559    2161    3794    3796+
+           2084    3798    2481    3720
CTETRA      1549       1    1558    1559    2160    2178    2086    3796+
+           3880    4144    3721    2507
CTETRA      1550       1    1503    2144    1515    2145    3959    3673+
+           1905    3566    2360    3549
CTETRA      1551       1    1538    2162    2161    2180    3327    2428+
+           3797    3328    2502    2504
CTETRA      1552       1    1511    2167    2166    2173    4209    2434+
+           4206    4032    2463    2462
CTETRA      1553       1    1538    1557    1544    2180    2070    2072+
+           2016    3328    3963    3323
CTETRA      1554       1    1505    1528    2163    2170    1974    3908+
+           3532    3868    3964    2431
CTETRA      1555       1    1510    1514    1516    2149    1907    1913+
+           1911    3550    3545    3544
CTETRA      1556       1    1505    1528    1532    2163    1974    1971+
+           1969    3532    3908    3533
CTETRA      1557       1     528     793     806     813    3825    1157+
+           3827    4175    1178    1177
CTETRA      1558       1    1410    1426    1411    2240    1617    1614+
+           1618    3469    3473    3466
CTETRA      1559       1     284     521     739     740     654    3839+
+           3767    4443    3406     948
CTETRA      1560       1     210     221     222    2288    1403     230+
+           1398    4334    2905    2906
CTETRA      1561       1     282     327     736     743    4343     964+
+           4044    4344     962     963
CTETRA      1562       1      36      24      37    1523     431     434+
+             43    1939    4294    1938
CTETRA      1563       1      22    1521    2153    2156    4396    3973+
+           2397    2411    3974    2412
CTETRA      1564       1     488     818     489     837    3251    3934+
+            553    3252    1276    3559
CTETRA      1565       1      35      22      23    2156     424      29+
+            429    4398    2411    2409
CTETRA      1566       1      36      24    1523    2150     431    4294+
+           1939    4089    2381    4090
CTETRA      1567       1    1499    1537    2206    2208    1990    4190+
+           4269    4054    4331    2579
CTETRA      1568       1    1512    2165    2171    2172    4295    2453+
+           3910    3912    2457    2459
CTETRA      1569       1    1517    1518    1522    2155    1920    1932+
+           1936    4326    3907    4063
CTETRA      1570       1    1432    2282    2283    2284    4261    2878+
+           4258    4197    2877    2876
CTETRA      1571       1     258     250     106    2245    1873     476+
+           3751    3212    4364    2750
CTETRA      1572       1     282     283    1493    2228     308    2128+
+           1983    4429    4419    4418
CTETRA      1573       1      21    2153    1522    2155    2396    4366+
+           4061    2407    2405    4063
CTETRA      1574       1     249    1497    1494    2247    1872    1868+
+           1870    4239    4240    4199
CTETRA      1575       1    1512    1513    2165    2166    1888    3641+
+           4295    4207    3642    2437
CTETRA      1576       1    1499    2208    2207    2209    4054    2585+
+           4191    3958    2595    2598
CTETRA      1577       1    1496    2244    2245    2246    3174    2755+
+           3843    3401    2754    2753
CTETRA      1578       1    1496    1498    1497    2249    1863    1865+
+           1864    3844    3178    3845
CTETRA      1579       1     277    1495    1498    2248    1856    1862+
+           1861    4188    3177    3176
CTETRA      1580       1    1496    2244    1498    2249    3174    3173+
+           1863    3844    2777    3178
CTETRA      1581       1     277     365    2244    2246    3148    2757+
+           3172    3150    2759    2754
CTETRA      1582       1     164    1476    1471    2336    1767    1769+
+           1765    3189    3185    3184
CTETRA      1583       1     526     794     793     813    4409    1148+
+           4173    4174    1186    1178
CTETRA      1584       1    1454    1489    1488    2339    1843    1841+
+           1831    4016    4299    4323
CTETRA      1585       1     292    1460    2314    2315    1706    3920+
+           3899    3901    3921    2997
CTETRA      1586       1     518     521     522     716     664     658+
+            661    4444    3405    3404
CTETRA      1587       1    1465    2327    1470    2328    4360    4332+
+           1763    3552    3036    3278
CTETRA      1588       1     126     127    1431    2338     145    1847+
+           1835    3972    3970    3978
CTETRA      1589       1      12    1488    2330    2338    1832    4298+
+           4034    4282    4322    3086
CTETRA      1590       1     486     513     838     839     652    3511+
+           3510    3309    3314    1287
CTETRA      1591       1    1433    1434    1478    2272    1633    1783+
+           1784    4445    4128    4431
CTETRA      1592       1    1433    2277    2276    2283    4324    2873+
+           4266    4433    2875    2874
CTETRA      1593       1     181    1441    2268    2319    1655    3398+
+           3400    3677    3388    3016
CTETRA      1594       1     480     779     776     780    4380    1081+
+           4278    4404    1085    1084
CTETRA      1595       1     285     336     335     843    4104     415+
+           4103    3333    1302    1301
CTETRA      1596       1    1479    1487    1485    2341    1825    1827+
+           1809    4078    3704    4076
CTETRA      1597       1    1437    1438    1449    2280    1642    1679+
+           1681    3392    3214    3213
CTETRA      1598       1     284     521     285     739     654     655+
+            312    3767    3839    3837
CTETRA      1599       1    1433    2272    1478    2276    4445    4431+
+           1784    4266    2871    4265
CTETRA      1600       1     116    1427    1424    2258    3242    1623+
+           4020    2806    4446    4019
CTETRA      1601       1    1473    2334    1485    2345    4119    4127+
+           1810    3429    3096    3430
CTETRA      1602       1    1473    2335    2334    2345    3432    3067+
+           4119    3429    3097    3096
CTETRA      1603       1     288     289     344     816     297    3955+
+           3497    3498    4212    1242
CTETRA      1604       1    1478    2272    2273    2276    4431    2872+
+           4262    4265    2871    2865
CTETRA      1605       1    1433    2272    2276    2277    4445    2871+
+           4266    4324    2870    2873
CTETRA      1606       1    1467    2300    2323    2324    4357    3049+
+           4216    4352    3046    3050
CTETRA      1607       1     290     348     349    2309    4361     408+
+           4447    4362    2962    2963
CTETRA      1608       1    1461    2299    2322    2323    3944    3045+
+           3818    4081    3047    3048
CTETRA      1609       1     285    1410    2232    2238    1615    3646+
+           3652    3654    3647    2717
CTETRA      1610       1      64      49      65    2174     440     439+
+             68    3878    2473    3879
CTETRA      1611       1     239     108      10    2354     466     109+
+            463    3807    3135    3140
CTETRA      1612       1    1461    1468    1467    2323    1738    1752+
+           1727    4081    4151    4216
CTETRA      1613       1     257     277    1496    2246    1858    1860+
+           1859    3953    3150    3401
CTETRA      1614       1    1460    2300    1467    2301    4233    4357+
+           1726    4272    2969    4273
CTETRA      1615       1    1464    2311    2301    2312    4381    2967+
+           4274    4448    2973    2980
CTETRA      1616       1    1461    1467    2300    2323    1727    4357+
+           4281    4081    4216    3049
CTETRA      1617       1     522     716     740     741    3404     946+
+           3407    4406     951     952
CTETRA      1618       1    1457    1484    1486    2350    1823    1824+
+           1819    3438    3437    4367
CTETRA      1619       1     356    2262    1412    2315    2818    3924+
+           3917    3000    2995    3918
CTETRA      1620       1    1511    2166    2172    2173    4206    2458+
+           4031    4032    2462    2464
CTETRA      1621       1    1464    2301    2302    2312    4274    2982+
+           4354    4448    2980    2981
CTETRA      1622       1     506     807     791     810    3832    1169+
+           3222    3224    1174    1175
CTETRA      1623       1     292     355     777     779    4421    1077+
+           4115    4378    1078    1080
CTETRA      1624       1     291    1460    2311    2314    1707    4358+
+           4178    4234    3920    2984
CTETRA      1625       1     179     180    1448    2281     187    1676+
+           1678    4237    3756    4236
CTETRA      1626       1    1422    2251    2254    2256    3610    2780+
+           3611    3370    2790    2787
CTETRA      1627       1     278     315     314     764    3765     388+
+           4449    3763     998     996
CTETRA      1628       1    1423    1424    1427    2258    1603    1623+
+           1622    3160    4019    4446
CTETRA      1629       1    1430    1469    1454    2337    1747    1751+
+           1748    3732    3275    4400
CTETRA      1630       1    1422    2251    2306    2329    3610    2947+
+           3607    3605    3026    3030
CTETRA      1631       1     129     116     130    1427    1367    1366+
+            147    1630    3242    1626
CTETRA      1632       1    1484    2345    1486    2350    3431    4146+
+           1824    3437    3119    4367
CTETRA      1633       1    1430    1490    2253    2338    1849    3969+
+           3729    3976    3971    3076
CTETRA      1634       1    1551    1557    1559    2179    2082    2083+
+           2087    4138    4139    3722
CTETRA      1635       1     486     847     853     854    3310    1338+
+           3267    3377    1341    1342
CTETRA      1636       1     485     486     838     846     542    3510+
+           3509    3263    3272    1309
CTETRA      1637       1     486     847     846     853    3310    1315+
+           3272    3267    1338    1337
CTETRA      1638       1     287     486     852     855     533    3266+
+           3271    3378    3374    1351
CTETRA      1639       1     485     838     834     846    3509    1284+
+           3507    3263    1309    1308
CTETRA      1640       1     489     491     490     832     546     538+
+            547    3558    3254    3253
CTETRA      1641       1     506     508     509     710     605     604+
+            606    3223    3225    4408
CTETRA      1642       1    1439    2287    1445    2292    3198    4302+
+           1666    4075    2914    3705
CTETRA      1643       1     290     350     349     822    4450     407+
+           4447    4437    1229    1237
CTETRA      1644       1     250    1497     105    2245    1875    4238+
+            477    4364    3842    2776
CTETRA      1645       1     250     105     106    2245     477     113+
+            476    4364    2776    2750
CTETRA      1646       1     290     487     823     830     536    3337+
+           4348    3489    3935    1248
CTETRA      1647       1     487     493     823     826     564    4349+
+           3337    3339    3687    1221
CTETRA      1648       1     499     525     812     814     667    4439+
+           4371    4373    4376    1193
CTETRA      1649       1      62      46      47    2172     444      54+
+            445    3913    2461    2465
CTETRA      1650       1     499     814     811     815    4373    1201+
+           4372    4224    1195    1202
CTETRA      1651       1     482     492     483     785     558     557+
+            559    4369    3555    3554
CTETRA      1652       1    1501    1560    1561    2186    2104    2099+
+           2105    4011    4193    4009
CTETRA      1653       1    1446    1447    1451    2290    1675    1687+
+           1691    3711    3998    3512
CTETRA      1654       1     504     505     712     719     626    3295+
+           4060    4108    4110     905
CTETRA      1655       1     506     527     529     806     673     689+
+            687    3830    3833    3831
CTETRA      1656       1     529     806     792     807    3831    1156+
+           3758    3760    1158    1159
CTETRA      1657       1     529     802     792     803    4058    1132+
+           3758    4056    1131    1134
CTETRA      1658       1    1527    2182    2191    2192    3539    2516+
+           3331    3418    2521    2522
CTETRA      1659       1      77    1531    2143    2146    1965    3424+
+           4420    3742    3859    2363
CTETRA      1660       1     503     517     522     734     643     660+
+            659    3230    4170    4171
CTETRA      1661       1     514     518     515     799     634     633+
+            635    3848    3847    3441
CTETRA      1662       1     517     518     522     715     639     661+
+            660    3776    3846    4169
CTETRA      1663       1     167    1477    2275    2284    1779    4338+
+           4401    4195    4441    2880
CTETRA      1664       1     504     713     731     733    3779     917+
+           3783    4070     911     915
CTETRA      1665       1     504     712     516     713    4060    3294+
+            640    3779     910    3780
CTETRA      1666       1     500     811     749     815    3691    1182+
+           3701    3702    1202    1203
CTETRA      1667       1     169     154     170    2285    1371    1370+
+            172    3995    2893    4301
CTETRA      1668       1     498     811     499     813    3690    4372+
+            584    4341    1183    4451
CTETRA      1669       1     288     491     489     844     545     546+
+            543    3373    3269    4337
CTETRA      1670       1     498     526     527     813     666     686+
+            676    4341    4174    3835
CTETRA      1671       1     509     709     708     754    3941     859+
+           3570    3569    1163    1003
CTETRA      1672       1     498     500     499     811     583     582+
+            584    3690    3691    4372
CTETRA      1673       1     525     794     795     805    3364    1153+
+           3361    3356    1147    1152
CTETRA      1674       1     480     777     776     779    4116    1072+
+           4278    4380    1080    1081
CTETRA      1675       1     500     748     749     775    3697    1059+
+           3701    3694    1058    1057
CTETRA      1676       1     499     811     812     813    4372    1184+
+           4371    4451    1183    1185
CTETRA      1677       1     487     818     492     819    3929    4157+
+            561    4305    1217    3334
CTETRA      1678       1     498     499     526     813     584     665+
+            666    4341    4451    4174
CTETRA      1679       1     502     756     755     772    4041    1013+
+           3202    3204    1042    1048
CTETRA      1680       1     499     525     526     812     667     669+
+            665    4371    4439    4440
CTETRA      1681       1     514     789     519     801    3563    3575+
+            644    3564    1102    4402
CTETRA      1682       1     530     532     531     798     696     700+
+            701    3359    3351    3248
CTETRA      1683       1     486     839     838     847    3309    1287+
+           3510    3310    1314    1313
CTETRA      1684       1     528     529     792     803     684    3758+
+           3826    4057    4056    1134
CTETRA      1685       1     525     795     812     814    3361    1192+
+           4439    4376    1191    1193
CTETRA      1686       1     507     752     527     808    4159    4312+
+            672    3828    1154    3829
CTETRA      1687       1     532     788     787     834    3627    1117+
+           3358    3573    1266    1263
CTETRA      1688       1     528     792     793     803    3826    1139+
+           3825    4057    1134    1138
CTETRA      1689       1     290     822     493     827    4437    4436+
+            566    4452    1227    4350
CTETRA      1690       1     480     748     775     776    3696    1058+
+           3698    4278    1062    1065
CTETRA      1691       1     500     749     750     771    3701    1037+
+           3689    3692    1036    1035
CTETRA      1692       1     489     818     817     837    3934    1259+
+           3932    3559    1276    1275
CTETRA      1693       1     499     811     500     815    4372    3691+
+            582    4224    1202    3702
CTETRA      1694       1     484     532     530     787     691     696+
+            695    3349    3358    3350
CTETRA      1695       1     484     532     787     834     691    3358+
+           3349    3757    3573    1263
CTETRA      1696       1     492     494     493     821     570     571+
+            565    3335    4154    3686
CTETRA      1697       1     498     750     811     813    3688    1181+
+           3690    4341    1180    1183
CTETRA      1698       1     480     501     774     775     589    3451+
+           3450    3698    3695    1061
CTETRA      1699       1     492     785     784     819    3555    1190+
+           4153    3334    1260    1211
CTETRA      1700       1     278      19     263     367    3936     262+
+           4453    4454     389    2767
CTETRA      1701       1     279     317     722     730    3161     862+
+           3957    3344     901     902
CTETRA      1702       1     481     482     499     815     569     581+
+            580    4220    4222    4224
CTETRA      1703       1      18     365     364     766    3147     395+
+           3403    3151    1019    1020
CTETRA      1704       1     493     495     820     821     579    3824+
+           4279    3686    4155    1208
CTETRA      1705       1     135    1555    1491    2231    2041    2040+
+           2042    4382    4393    4242
CTETRA      1706       1     283     329     328     742    4387     384+
+           4316    4315     973     958
CTETRA      1707       1     135     119     136    2219    1353    1355+
+            139    4415    2677    3793
CTETRA      1708       1     514     799     515     800    3848    3441+
+            635    3245    1109    3246
CTETRA      1709       1      75      76    1529    2193      87    1962+
+           1961    3599    3942    3426
CTETRA      1710       1     179    2281    1448    2297    4237    4236+
+           1678    3302    2934    3986
CTETRA      1711       1    1456    1466    1467    2346    1761    1730+
+           1754    3385    3384    4353
CTETRA      1712       1    1486    2345    2344    2350    4146    3100+
+           4124    4367    3119    3118
CTETRA      1713       1    1484    2335    2345    2351    3433    3097+
+           3431    3436    3127    3129
CTETRA      1714       1    1430    1431    1490    2338    1749    1848+
+           1849    3976    3978    3971
CTETRA      1715       1     116    2133    1427    2258    2799    3244+
+           3242    2806    2802    4446
CTETRA      1716       1     286    1423    1426    2132    1608    1621+
+           1620    3155    3157    3156
CTETRA      1717       1     133    1564     118    2136    2118    4414+
+           1359    3167    3553    2723
CTETRA      1718       1    1464    2303    2302    2326    4455    2979+
+           4354    4432    3024    3025
CTETRA      1719       1     521     716     717     740    3405     947+
+           3838    3406     946     945
CTETRA      1720       1     511     720     719     733    4053     875+
+           4109    4065     908     907
CTETRA      1721       1    1464    2302    2303    2309    4354    2979+
+           4455    4456    2978    2956
CTETRA      1722       1    1463    1464    1466    2303    1725    1729+
+           1735    4410    4455    4411
CTETRA      1723       1     258     106      17    1417    3751     469+
+            259    1575    4286    1574
CTETRA      1724       1     291     495     292     746     578     575+
+            301    3821    3823    3980
CTETRA      1725       1     291    2311    1464    2312    4178    4381+
+           1722    4181    2973    4448
CTETRA      1726       1     290     291     350     827     300    4179+
+           4450    4452    4180    1225
CTETRA      1727       1     290     350    2312    2313    4450    2971+
+           4457    4458    2976    2977
CTETRA      1728       1     290     291    1464    2312     300    1722+
+           1724    4457    4181    4448
CTETRA      1729       1      34      22      35    1521     423     424+
+             38    1928    4396    1929
CTETRA      1730       1    1434    1474    1478    2272    1788    1785+
+           1783    4128    4126    4431
CTETRA      1731       1    1446    2286    1447    2290    3710    4000+
+           1675    3711    2896    3998
CTETRA      1732       1    1432    2276    1477    2284    4259    4264+
+           1780    4197    2879    4441
CTETRA      1733       1    1444    2285    1447    2286    3996    4001+
+           1673    3636    2895    4000
CTETRA      1734       1     239    1482    1459    2353    1804    1817+
+           1816    3805    3737    3806
CTETRA      1735       1    1492    2229    1493    2235    4250    4249+
+           1981    4417    2670    4388
CTETRA      1736       1    1464    2302    2325    2326    4354    3037+
+           4355    4432    3025    3038
CTETRA      1737       1    1467    2349    2324    2352    4096    3124+
+           4352    4213    3133    3134
CTETRA      1738       1     269    1494     271    1560    4200    4198+
+            270    4328    2091    3787
CTETRA      1739       1     277     366     367    2248    4187     390+
+           4313    4188    2765    2770
CTETRA      1740       1       3       1      20    2154      89      27+
+            426    3651    2400    2401
CTETRA      1741       1    1432    2282    1444    2283    4261    3993+
+           1660    4258    2878    3635
CTETRA      1742       1     277    1498    2244    2248    1861    3173+
+           3172    4188    3176    2766
CTETRA      1743       1     209    1447     170    2291    1686    1672+
+           1685    3515    3999    3516
CTETRA      1744       1     286    1423    2132    2257    1608    3157+
+           3155    3367    4267    2714
CTETRA      1745       1      35      23    1524    2156     429    4093+
+           1943    4398    2409    4092
CTETRA      1746       1     132    1565    1411    2240    2116    2113+
+           2115    3465    3470    3466
CTETRA      1747       1     285     334    2237    2238    4459    2719+
+           4416    3654    2718    2720
CTETRA      1748       1     282    1493    1536    2221    1983    1982+
+           1984    4228    4428    4330
CTETRA      1749       1    1492    1535    1493    2230    1980    1979+
+           1981    4251    4247    4252
CTETRA      1750       1    1534    2200    2199    2220    4125    2575+
+           4254    4134    2633    2636
CTETRA      1751       1     284     744     330     745    3768     976+
+           3661    3664     972     975
CTETRA      1752       1     282     736     503     743    4044    4231+
+            617    4344     963    3231
CTETRA      1753       1     282     512     503     736     629     630+
+            617    4044    4067    4231
CTETRA      1754       1      76      93      77    2143     462     459+
+             88    3966    2368    4420
CTETRA      1755       1     283     330     329     745    3662     385+
+           4387    3663     975     974
CTETRA      1756       1     279    2213     316    2214    3517    2603+
+           4422    3163    2606    2609
CTETRA      1757       1     278    2195     315    2213    3502    2617+
+           3765    3503    2614    2604
CTETRA      1758       1    1562    2212    2211    2214    3525    2602+
+           3519    3518    2611    2607
CTETRA      1759       1     283    2228    2134    2229    4419    2666+
+           4347    4346    2673    2674
CTETRA      1760       1      77      78    1503    2146      86    1904+
+           1964    3742    3743    3568
CTETRA      1761       1      77    2143      93    2146    4420    2368+
+            459    3742    2363    2367
CTETRA      1762       1      34      21      22    2153     425      26+
+            423    4397    2396    2397
CTETRA      1763       1     279     315     316    2213    4423     368+
+           4422    3517    2604    2603
CTETRA      1764       1     278     279     315     708     306    4423+
+           3765    3764    4424     857
CTETRA      1765       1    1452    2294    2295    2296    3753    2931+
+           3987    3755    2932    2930
CTETRA      1766       1    1434    2271    2272    2277    3288    2869+
+           4128    3289    2867    2870
CTETRA      1767       1     509     763     754     764    3762    1004+
+           3569    3571     997    1002
CTETRA      1768       1      36      23      24    2150     430      30+
+            431    4089    2382    2381
CTETRA      1769       1    1475    1477    1478    2273    1782    1791+
+           1790    4306    4263    4262
CTETRA      1770       1     278     314     315    2195    4449     388+
+           3765    3502    2616    2617
CTETRA      1771       1     283     328    2134    2228    4316    2665+
+           4347    4419    2664    2666
CTETRA      1772       1    1552    2190    2189    2200    3961    2514+
+           4025    4024    2566    2568
CTETRA      1773       1     526     812     794     813    4440    1187+
+           4409    4174    1185    1186
CTETRA      1774       1     290     348     347     830    4361     412+
+           3487    3489    1250    1251
CTETRA      1775       1    1546    1547    1552    2200    2036    2058+
+           2057    4028    4023    4024
CTETRA      1776       1    1534    1548    1547    2200    2038    2039+
+           2037    4125    4284    4023
CTETRA      1777       1     487     489     488     818     552     553+
+            554    3929    3934    3251
CTETRA      1778       1     487     830     829     831    3935    1253+
+           4340    3930    1255    1254
CTETRA      1779       1    1493    2222    2221    2229    4253    2641+
+           4428    4249    2676    2675
CTETRA      1780       1     289     816     489     829    4212    3988+
+            544    3483    1244    3931
CTETRA      1781       1       6    2159    1558    2160    3943    3724+
+           2077    3875    2468    3880
CTETRA      1782       1    1506    1511    1507    2167    1891    1893+
+           1892    3869    4209    4145
CTETRA      1783       1    1506    2162    1528    2170    3870    3332+
+           1975    3871    2429    3964
CTETRA      1784       1    1410    2232    2238    2239    3646    2717+
+           3647    3468    2732    2736
CTETRA      1785       1    1563    1564    1566    2233    2111    2120+
+           2131    3656    4241    4385
CTETRA      1786       1     267    1561    2185    2204    4083    4087+
+           2529    2551    4006    2550
CTETRA      1787       1    1526    2192    2202    2203    3421    2560+
+           3538    3598    2555    2561
CTETRA      1788       1    1552    1556    1557    2180    2065    2074+
+           2081    3962    3324    3963
CTETRA      1789       1    1559    2161    2160    2178    3720    2481+
+           3796    3721    2509    2507
CTETRA      1790       1     294     501     502     770     595     598+
+            597    3446    3207    3208
CTETRA      1791       1     514     798     788     800    3249    1115+
+           3628    3245    1118    1105
CTETRA      1792       1    1548    2201    2217    2218    4205    2624+
+           4285    4389    2623    2626
CTETRA      1793       1     487     488     492     818     554     560+
+            561    3929    3251    4157
CTETRA      1794       1     489     491     832     844     546    3254+
+           3558    4337    3269    1304
CTETRA      1795       1     491     833     832     845    3256    1273+
+           3254    3490    1311    1306
CTETRA      1796       1     487     492     493     826     561     565+
+            564    3339    3336    3687
CTETRA      1797       1     506     753     507     808    3284    4160+
+            610    3228    1155    3828
CTETRA      1798       1     291     352     351     828    3820     406+
+           4177    4112    1232    1230
CTETRA      1799       1    1534    1535    1548    2217    1987    2033+
+           2038    4133    4225    4285
CTETRA      1800       1    1493    1536    2221    2222    1982    4330+
+           4428    4253    4283    2641
CTETRA      1801       1     512     721     732     738    4071     913+
+           4229    4068     929     931
CTETRA      1802       1     257    1418      18    2243    1579    1578+
+            260    3619    3714    3630
CTETRA      1803       1     497     750     498     751    4318    3688+
+            593    4310    1030    4319
CTETRA      1804       1     279    2209    1499    2212    3956    3958+
+           2089    3162    2600    3524
CTETRA      1805       1    1493    2221    2228    2229    4428    2669+
+           4418    4249    2675    2673
CTETRA      1806       1    1504    1532    1531    2142    1970    1977+
+           1978    3526    3528    3858
CTETRA      1807       1    1506    1507    1538    2167    1892    2001+
+           2000    3869    4145    3804
CTETRA      1808       1    1518    2147    2154    2155    3905    2399+
+           4460    3907    2402    2403
CTETRA      1809       1     496     497     507     757     601     674+
+            616    3199    3201    4320
CTETRA      1810       1      33    1518      80    2154    1931    1917+
+           1930    3649    4460    3650
CTETRA      1811       1      33    1522    1518    2155    1933    1932+
+           1931    4062    4063    3907
CTETRA      1812       1     510     758     759     761    3938     979+
+           4168    4163     978     977
CTETRA      1813       1     505     508     711     719     619    3226+
+           3219    4110    4275     868
CTETRA      1814       1     284     740     739     744    4443     948+
+           3767    3768     968     967
CTETRA      1815       1    1501    2177    2186    2187    4004    2534+
+           4011    4210    2535    2537
CTETRA      1816       1     258    1496     250    2245    1869    1874+
+           1873    3212    3843    4364
CTETRA      1817       1     277     263     278    1495    4461    4453+
+            307    1856    4202    1857
CTETRA      1818       1     292     353     354    2314    3979     399+
+           3900    3899    2987    2988
CTETRA      1819       1    1550    1559    1558    2178    2088    2086+
+           2076    4214    3721    4144
CTETRA      1820       1     278    1495     263    2195    1857    4202+
+           4453    3502    4143    2544
CTETRA      1821       1     506     806     807     808    3830    1158+
+           3832    3228    1160    1162
CTETRA      1822       1    1422    2254    1423    2255    3611    4462+
+           1604    3595    2788    3596
CTETRA      1823       1    1431    1454    1488    2338    1750    1831+
+           1830    3978    3977    4322
CTETRA      1824       1    1454    1488    2338    2339    1831    4322+
+           3977    4016    4323    3082
CTETRA      1825       1    1429    2329    2328    2337    3606    3033+
+           4015    3733    3079    3080
CTETRA      1826       1    1430    2337    1454    2338    3732    4400+
+           1748    3976    3078    3977
CTETRA      1827       1    1489    2340    2339    2343    4297    3088+
+           4299    4300    3101    3103
CTETRA      1828       1     522     734     741     742    4171     950+
+           4406    4427     955     956
CTETRA      1829       1     491     833     845     846    3256    1311+
+           3490    3264    1310    1312
CTETRA      1830       1    1430    2253    2337    2338    3729    3077+
+           3732    3976    3076    3078
CTETRA      1831       1    1432    1444    1443    2283    1660    1664+
+           1663    4258    3635    3196
CTETRA      1832       1    1516    1517    1521    2157    1914    1937+
+           1949    3543    3542    3975
CTETRA      1833       1     170    2285     154    2291    4301    2893+
+           1370    3516    2911    2910
CTETRA      1834       1     291     746     352     828    3821    1067+
+           3820    4112    1233    1232
CTETRA      1835       1     520     790     839     840    3315    1286+
+           3312    3306    1292    1293
CTETRA      1836       1     292     354     355    2315    3900     400+
+           4421    3901    2999    3001
CTETRA      1837       1     283     329     742     745    4387     973+
+           4315    3663     974     970
CTETRA      1838       1     506     710     509     809    3223    4408+
+            606    3227    1168    3285
CTETRA      1839       1      15     213     226    2297     218    1407+
+           1406    3304    3303    2936
CTETRA      1840       1     179     196     180    2281    1384    1385+
+            187    4237    2844    3756
CTETRA      1841       1     213    1448    1452    2297    1696    1697+
+           1693    3303    3986    3983
CTETRA      1842       1     179    1448     213    2297    1678    1696+
+           1695    3302    3986    3303
CTETRA      1843       1     212     225     213    1452    1409    1408+
+            219    1694    3982    1693
CTETRA      1844       1      34    1521    1522    2153    1928    1935+
+           1934    4397    3973    4366
CTETRA      1845       1     285     335     334     841    4103     414+
+           4459    4336    1298    1289
CTETRA      1846       1     505     511     508     719     622     621+
+            619    4110    4109    4275
CTETRA      1847       1     284     285    1410    2232     312    1615+
+           1616    3665    3652    3646
CTETRA      1848       1     279     316     317    2214    4422     369+
+           3161    3163    2609    2610
CTETRA      1849       1     509     708     709     722    3570     859+
+           3941    4425     858     860
CTETRA      1850       1     280     724     508     729    3340    4271+
+            603    3341     894    3775
CTETRA      1851       1     517     714     715     734    3777     921+
+           3776    4170     920     922
CTETRA      1852       1     284     332     331     744    3766     383+
+           3666    3768     965     966
CTETRA      1853       1     285     333     334    2238    3653     378+
+           4459    3654    2716    2718
CTETRA      1854       1     506     808     807     810    3228    1162+
+           3832    3224    1173    1174
CTETRA      1855       1     224    1452    1453    2295    3984    1701+
+           3745    2924    3987    3747
CTETRA      1856       1     280    2205    1537    2208    3861    3862+
+           1988    3902    2580    4331
CTETRA      1857       1    1446    2288    1450    2289    3997    3708+
+           1692    3193    2900    3707
CTETRA      1858       1     164    1471       9    2336    1765    1766+
+            174    3189    3184    3744
CTETRA      1859       1     164       9      10    2336     174     163+
+           1375    3189    3744    3070
CTETRA      1860       1     239      10    1482    2353     463    3808+
+           1804    3805    3138    3737
CTETRA      1861       1     509     709     710     724    3941     865+
+           4408    4345     863     866
CTETRA      1862       1     280     320    2205    2210    3865    2590+
+           3861    3904    2592    2588
CTETRA      1863       1     504     719     712     733    4108     905+
+           4060    4070     907     909
CTETRA      1864       1     359    1415    2263    2267    4399    3562+
+           2820    2840    3950    2841
CTETRA      1865       1     519     790     716     801    3316    1097+
+           4407    4402    1101    1099
CTETRA      1866       1     506     529     791     807     687    3759+
+           3222    3832    3760    1169
CTETRA      1867       1     511     720     725     726    4053     882+
+           3769    3772     876     883
CTETRA      1868       1     282     327     283    2228    4343    4342+
+            308    4429    2667    4419
CTETRA      1869       1     286     339     287    2257    3366    4035+
+            295    3367    2796    4036
CTETRA      1870       1     285     336     286    1426    4104    3153+
+            311    1619    4037    1620
CTETRA      1871       1    1493    1535    1536    2222    1979    1985+
+           1982    4253    4227    4283
CTETRA      1872       1     280     726     725     728    3771     883+
+           3770    3773     892     891
CTETRA      1873       1     286     848     486     854    3308    3311+
+            534    3375    1343    3377
CTETRA      1874       1     519     790     789     839    3316    1103+
+           3575    3577    1286    1285
CTETRA      1875       1     519     520     790     839     649    3315+
+           3316    3577    3312    1286
CTETRA      1876       1     518     519     716     801     647    4407+
+           4444    4405    4402    1099
CTETRA      1877       1     285    2236    1426    2237    4105    4038+
+           1619    4416    2722    4383
CTETRA      1878       1    1563    2233    2135    2234    3656    2704+
+           4386    3658    2693    2706
CTETRA      1879       1     522     734     715     741    4171     922+
+           4169    4406     950     949
CTETRA      1880       1     290     350     291    2312    4450    4179+
+            300    4457    2971    4181
CTETRA      1881       1     518     716     715     801    4444     953+
+           3846    4405    1099    1100
CTETRA      1882       1     292     777     354     778    4115    1075+
+           3900    3981    1073    1074
CTETRA      1883       1     282     327     326     736    4343     382+
+           4430    4044     964     954
CTETRA      1884       1     508     710     723     724    3225     870+
+           4321    4271     866     871
CTETRA      1885       1     529     791     792     802    3759    1133+
+           3758    4058    1128    1132
CTETRA      1886       1     522     742     741     745    4427     956+
+           4406    4377     970     969
CTETRA      1887       1     283     742     522     745    4315    4427+
+            657    3663     970    4377
CTETRA      1888       1     235     106     107    1417     467     110+
+            468    1573    4286    4185
CTETRA      1889       1     293     357     779     780    4308    1088+
+           4379    4309    1089    1085
CTETRA      1890       1     498     751     750     813    4319    1030+
+           3688    4341    1179    1180
CTETRA      1891       1    1492    1563    1566    2135    2130    2131+
+           2126    4390    4386    4384
CTETRA      1892       1     496     510     759     760     614    4168+
+           4268    4167    4165     988
CTETRA      1893       1      18     755     502     765    3631    3202+
+            596    3715    1012    4042
CTETRA      1894       1     293     357     358    2263    4308     402+
+           4106    4413    2821    2819
CTETRA      1895       1     277     496     510     759     588     614+
+            612    4442    4268    4168
CTETRA      1896       1     284     522     740     745     656    3407+
+           4443    3664    4377     971
CTETRA      1897       1    1564    2136    1566    2233    3553    3891+
+           2120    4241    2705    4385
CTETRA      1898       1     284     333     285    2232    3836    3653+
+            312    3665    2697    3652
CTETRA      1899       1     257      18     277    2246     260     302+
+           1858    3953    3149    3150
CTETRA      1900       1     521     717     790     842    3838    1098+
+           3317    4368    1291    1290
CTETRA      1901       1      18     364     363     765    3403     391+
+           3402    3715    1009    1008
CTETRA      1902       1     510     758     761     763    3938     978+
+           4163    3939     993     994
CTETRA      1903       1     518     519     521     716     647     663+
+            664    4444    4407    3405
CTETRA      1904       1     509     753     754     761    3283    1001+
+           3569    3940     990    1000
CTETRA      1905       1     284     522     521     740     656     658+
+            654    4443    3407    3406
CTETRA      1906       1     522     741     740     745    4406     952+
+           3407    4377     969     971
CTETRA      1907       1     502     768     756     772    3206    1034+
+           4041    3204    1041    1042
CTETRA      1908       1     513     789     788     838    3576    1106+
+           3574    3511    1283    1282
CTETRA      1909       1     503     731     734     735    3782     923+
+           3230    3229     924     925
CTETRA      1910       1     289     347     346     830    3488     413+
+           3482    3484    1251    1252
CTETRA      1911       1     290    1464    1463    2309    1724    1725+
+           1719    4362    4456    4438
CTETRA      1912       1    1499    2207    1500    2211    4191    4292+
+           1993    3523    2601    4329
CTETRA      1913       1     278     263     314    2195    4453    2615+
+           4449    3502    2544    2616
CTETRA      1914       1     290     493     291     827     566     577+
+            300    4452    4350    4180
CTETRA      1915       1     279     318     280    2209    3346    3345+
+            305    3956    2587    3903
CTETRA      1916       1     292     356     355     779    3915     401+
+           4421    4378    1079    1078
CTETRA      1917       1     277     263    1495    2248    4461    4202+
+           1856    4188    2768    3177
CTETRA      1918       1     292     355     354     777    4421     400+
+           3900    4115    1077    1075
CTETRA      1919       1    1412    2298    2261    2322    3922    2991+
+           3815    3817    3044    3039
CTETRA      1920       1     280    1537    1499    2208    1988    1990+
+           1991    3902    4331    4054
CTETRA      1921       1     279     317     316     722    3161     369+
+           4422    3957     862     861
CTETRA      1922       1     514     519     518     801     644     647+
+            634    3564    4402    4405
CTETRA      1923       1     287     844     341     852    3270    1336+
+           3372    3271    1334    1331
CTETRA      1924       1     513     789     838     839    3576    1283+
+           3511    3314    1285    1287
CTETRA      1925       1     515     518     517     799     633     639+
+            636    3441    3847    3445
CTETRA      1926       1     291     292    1460    2314     301    1706+
+           1707    4234    3899    3920
CTETRA      1927       1     277     496     759     766     588    4268+
+           4442    3152    4218    1016
CTETRA      1928       1     505     712     711     791    3295     906+
+           3219    3221    1126    1127
CTETRA      1929       1     493     822     823     825    4436    1214+
+           4349    4280    1213    1212
CTETRA      1930       1     290     349     348     822    4447     408+
+           4361    4437    1237    1238
CTETRA      1931       1     510     759     760     762    4168     988+
+           4165    4164     987     986
CTETRA      1932       1     496     766     765     767    4218    1021+
+           4219    4435    1023    1022
CTETRA      1933       1     497     757     502     768    3201    3200+
+            600    3989    1033    3206
CTETRA      1934       1     507     753     510     762    4160    4162+
+            615    4161     985    4164
CTETRA      1935       1     265    1498    2248    2249    3170    3176+
+           2769    2771    3178    2772
CTETRA      1936       1     282     326     327    2228    4430     382+
+           4343    4429    2668    2667
CTETRA      1937       1     506     527     806     808     673    3833+
+           3830    3228    3829    1160
CTETRA      1938       1     283     503     742     743     618    4426+
+           4315    4317    3231     957
CTETRA      1939       1     277     278     263     367     307    4453+
+           4461    4313    4454    2767
CTETRA      1940       1     279     316     708     722    4422     856+
+           4424    3957     861     858
CTETRA      1941       1     523     797     796     803    3626    1122+
+           3849    4055    1130    1129
CTETRA      1942       1     278     279    1562    2213     306    2096+
+           2095    3503    3517    3504
CTETRA      1943       1     277     278     367     758     307    4454+
+           4313    4314    3937    1005
CTETRA      1944       1     524     530     531     804     707     701+
+            704    3353    3360    3354
CTETRA      1945       1     279     708     509     722    4424    3570+
+            607    3957     858    4425
CTETRA      1946       1     278     314     763     764    4449     992+
+           3761    3763     996     997
CTETRA      1947       1     482     814     499     815    4370    4373+
+            581    4222    1195    4224
CTETRA      1948       1     278     314      19     763    4449     387+
+           3936    3761     992     991
CTETRA      1949       1     486     838     846     847    3510    1309+
+           3272    3310    1313    1315
CTETRA      1950       1     278      19     367     758    3936     389+
+           4454    3937     995    1005
CTETRA      1951       1     480     775     774     780    3698    1061+
+           3450    4404    1082    1083
CTETRA      1952       1     257    1496    2245    2246    1859    3843+
+           3211    3953    3401    2753
CTETRA      1953       1      18     364     765     766    3403    1009+
+           3715    3151    1020    1021
CTETRA      1954       1     513     514     532     788     646     693+
+            692    3574    3628    3627
CTETRA      1955       1     484     786     835     836    3348    1267+
+           3506    3259    1268    1269
CTETRA      1956       1     497     501     750     768     592    3699+
+           4318    3989    3205    1029
CTETRA      1957       1     507     757     752     760    4320     982+
+           4159    4166     981     980
CTETRA      1958       1     499     812     526     813    4371    4440+
+            665    4451    1185    4174
CTETRA      1959       1    1492    1563    2135    2235    2130    4386+
+           4390    4417    3660    2671
CTETRA      1960       1     291     493     495     820     577     579+
+            578    4111    4279    3824
CTETRA      1961       1     513     788     532     834    3574    3627+
+            692    3572    1266    3573
CTETRA      1962       1     481     500     748     815     585    3697+
+           3700    4220    3702    1200
CTETRA      1963       1     500     750     749     811    3689    1037+
+           3701    3691    1181    1182
CTETRA      1964       1     482     785     483     795    4369    3554+
+            559    4374    1150    4375
CTETRA      1965       1     483     492     488     835     557     560+
+            555    3556    3557    3250
CTETRA      1966       1      33      20      21    2155     427      28+
+            428    4062    2408    2407
CTETRA      1967       1     482     784     814     815    4277    1189+
+           4370    4222    1194    1195
CTETRA      1968       1    1547    2200    1548    2201    4023    4284+
+           2039    4395    2567    4205
CTETRA      1969       1     483     488     484     835     555     550+
+            556    3556    3250    3506
CTETRA      1970       1    1503    1504    2142    2145    1910    3526+
+           3567    3566    3300    2355
CTETRA      1971       1     290    2312    1464    2313    4457    4448+
+           1724    4458    2977    4463
CTETRA      1972       1    1475    2274    2273    2335    3182    2866+
+           4306    3183    3072    3068
CTETRA      1973       1    1462    2323    2322    2354    4082    3048+
+           3914    3685    3143    3142
CTETRA      1974       1     290     350     822     827    4450    1229+
+           4437    4452    1225    1227
CTETRA      1975       1     489     817     832     837    3932    1270+
+           3558    3559    1275    1272
CTETRA      1976       1     291     827     820     828    4180    1236+
+           4111    4112    1231    1235
CTETRA      1977       1    1474    1478    2272    2334    1785    4431+
+           4126    4121    4120    3064
CTETRA      1978       1    1484    1485    1486    2345    1815    1828+
+           1824    3431    3430    4146
CTETRA      1979       1    1464    2312    2302    2313    4448    2981+
+           4354    4463    2977    2983
CTETRA      1980       1     493     825     823     826    4280    1212+
+           4349    3687    1223    1221
CTETRA      1981       1    1467    2324    2323    2352    4352    3050+
+           4216    4213    3134    3146
CTETRA      1982       1     493     825     820     827    4280    1234+
+           4279    4350    1228    1236
CTETRA      1983       1    1421    1422    2252    2254    1601    3604+
+           4002    3613    3611    2782
CTETRA      1984       1    1454    2338    2337    2339    3977    3078+
+           4400    4016    3082    3083
CTETRA      1985       1     487     819     492     826    4305    3334+
+            561    3339    1218    3336
CTETRA      1986       1    1420    1424    1421    2259    1599    1598+
+           1600    3735    3615    3614
CTETRA      1987       1    1423    2255    2254    2258    3596    2788+
+           4462    3160    2813    2811
CTETRA      1988       1    1422    2250    1428    2306    3499    3491+
+           1855    3607    2946    3495
CTETRA      1989       1     514     518     799     801     634    3847+
+           3848    3564    4405    1108
CTETRA      1990       1    1454    1455    1489    2339    1757    1842+
+           1843    4016    3551    4299
CTETRA      1991       1      12    1488    1481    2330    1832    1833+
+           1797    4034    4298    3926
CTETRA      1992       1      80      96       1    2154     450      97+
+            449    3650    2398    2400
CTETRA      1993       1     182     198     199    2319    1392     206+
+           1393    3240    3022    3023
CTETRA      1994       1    1455    2347    2343    2348    3281    3115+
+           3703    3282    3114    3113
CTETRA      1995       1     290    1464    2309    2313    1724    4456+
+           4362    4458    4463    2975
CTETRA      1996       1     290     349     350    2313    4447     407+
+           4450    4458    2974    2976
CTETRA      1997       1     485     513     834     838     694    3572+
+           3507    3509    3511    1284
CTETRA      1998       1     290    2309     349    2313    4362    2963+
+           4447    4458    2975    2974
CTETRA      1999       1    1463    1464    2303    2309    1725    4455+
+           4410    4438    4456    2956
CTETRA      2000       1     518     522     715     716     661    4169+
+           3846    4444    3404     953
CTETRA      2001       1    1463    2303    2304    2310    4410    2957+
+           3851    3853    2954    2958
CTETRA      2002       1    1410    2237    1426    2240    3648    4383+
+           1617    3469    2735    3473
CTETRA      2003       1     286     520     486     848     651     650+
+            534    3308    3307    3311
CTETRA      2004       1     284     331     330     744    3666     386+
+           3661    3768     966     976
CTETRA      2005       1     290     347     348    2310    3487     412+
+           4361    4363    2965    2966
CTETRA      2006       1     513     519     514     789     645     644+
+            646    3576    3575    3563
CTETRA      2007       1    1428    1463    1465    2304    1721    1732+
+           1731    3854    3851    4339
CTETRA      2008       1     493     822     825     827    4436    1213+
+           4280    4350    1227    1228
CTETRA      2009       1    1464    1466    2303    2326    1729    4411+
+           4455    4432    4118    3024
CTETRA      2010       1    1422    2252    2251    2329    3604    2781+
+           3610    3605    3027    3026
CTETRA      2011       1    1474    2332    1479    2342    4099    3460+
+           1795    4100    3094    4080
CTETRA      2012       1    1460    2301    1464    2311    4272    4274+
+           1723    4358    2967    4381
CTETRA      2013       1    1464    2302    2309    2313    4354    2978+
+           4456    4463    2983    2975
CTETRA      2014       1     211     223     224    2295    1399     231+
+           1404    3746    2923    2924
CTETRA      2015       1     223    1450    2293    2295    3749    3709+
+           2926    2923    3748    2927
CTETRA      2016       1    1433    1434    2272    2277    1633    4128+
+           4445    4324    3289    2870
CTETRA      2017       1    1473    2273    1478    2334    4122    4262+
+           1786    4119    3066    4120
CTETRA      2018       1     492     819     818     835    3334    1217+
+           4157    3557    1261    1277
CTETRA      2019       1    1433    1478    1477    2276    1784    1791+
+           1792    4266    4265    4264
CTETRA      2020       1    1432    1433    2276    2283    1665    4266+
+           4259    4258    4433    2874
CTETRA      2021       1     126    1431    1488    2338    1835    1830+
+           1834    3972    3978    4322
CTETRA      2022       1     287     339     340    2255    4035     422+
+           3508    3594    2786    2785
CTETRA      2023       1     286     287    1423    2257     295    1607+
+           1608    3367    4036    4267
CTETRA      2024       1     288     343     342     844    3496     419+
+           3609    3373    1305    1333
CTETRA      2025       1     288     342     341     844    3609     420+
+           3371    3373    1333    1336
CTETRA      2026       1    1422    1424    1423    2254    1602    1603+
+           1604    3611    3612    4462
CTETRA      2027       1     286     338     851     854    3365    1330+
+           3440    3375    1345    1344
CTETRA      2028       1     168     152     153    2282    1377     158+
+           1376    4260    2881    2882
CTETRA      2029       1    1438    1445    1449    2294    1667    1680+
+           1679    3215    4102    3216
CTETRA      2030       1    1443    1444    1446    2286    1664    1674+
+           1670    3191    3636    3710
CTETRA      2031       1    1426    2236    2133    2240    4038    2709+
+           3159    3473    2733    2726
CTETRA      2032       1     485     491     486     846     537     540+
+            542    3263    3264    3272
CTETRA      2033       1     285     334     718     841    4459     939+
+           3841    4336    1289    1288
CTETRA      2034       1     128     116     129    1420    1368    1367+
+            148    1628    4335    1627
CTETRA      2035       1    1485    2342    2344    2345    4123    3099+
+           4077    3430    3098    3100
CTETRA      2036       1     164      10     149    2336    1375     157+
+           1373    3189    3070    3069
CTETRA      2037       1    1423    2257    2255    2258    4267    2797+
+           3596    3160    2812    2813
CTETRA      2038       1    1463    2309    2303    2310    4438    2956+
+           4410    3853    2955    2954
CTETRA      2039       1     507     753     752     808    4160     984+
+           4159    3828    1155    1154
CTETRA      2040       1     284     740     744     745    4443     968+
+           3768    3664     971     972
CTETRA      2041       1    1475    1477    2273    2275    1782    4263+
+           4306    4307    4338    2863
CTETRA      2042       1     285    2237    1410    2238    4416    3648+
+           1615    3654    2720    3647
CTETRA      2043       1    1423    1427    2133    2258    1622    3244+
+           3158    3160    4446    2802
CTETRA      2044       1     285     718     333     739    3841     938+
+           3653    3837     940     943
CTETRA      2045       1     180    1437    1448    2281    1654    1677+
+           1676    3756    4017    4236
CTETRA      2046       1     491     845     852     853    3490    1335+
+           3265    3268    1339    1340
CTETRA      2047       1    1470    2327    2347    2348    4332    3109+
+           3280    3279    3117    3114
CTETRA      2048       1     285     521     520     842     655     662+
+            653    4403    4368    3313
CTETRA      2049       1     285     334     333     718    4459     378+
+           3653    3841     939     938
CTETRA      2050       1     130     116     117    2133    1366     124+
+           1365    3243    2799    2727
CTETRA      2051       1     282     326     325     736    4430     380+
+           4045    4044     954     935
CTETRA      2052       1     503     734     522     742    3230    4171+
+            659    4426     955    4427
CTETRA      2053       1     166     150     151    2275    1381     161+
+           1382    4304    2861    2885
CTETRA      2054       1     282    2221     326    2228    4228    2647+
+           4430    4429    2669    2668
CTETRA      2055       1     291     351     827     828    4177    1226+
+           4180    4112    1230    1231
CTETRA      2056       1     283     328     327     743    4316     381+
+           4342    4317     959     962
CTETRA      2057       1     278     263      19     314    4453     262+
+           3936    4449    2615     387
CTETRA      2058       1     278     510     509     763     611     613+
+            608    3761    3939    3762
CTETRA      2059       1     277     758     366     759    4314    1006+
+           4187    4442     979    1007
CTETRA      2060       1     278     509     708     764     608    3570+
+           3764    3763    3571     999
CTETRA      2061       1     509     510     761     763     613    4163+
+           3940    3762    3939     994
CTETRA      2062       1    1540    2174    2160    2175    3877    2469+
+           3795    3801    2482    2480
CTETRA      2063       1    1448    2281    2296    2297    4236    2940+
+           3985    3986    2934    2938
CTETRA      2064       1     277     366     365     766    4187     394+
+           3148    3152    1018    1019
CTETRA      2065       1      15     226      16    2297    1406     232+
+            194    3304    2936    2935
CTETRA      2066       1     287    1422    2255    2256    1605    3595+
+           3594    3368    3370    2789
CTETRA      2067       1     285     334     335    2237    4459     414+
+           4103    4416    2719    2721
CTETRA      2068       1     277     367     263    2248    4313    2767+
+           4461    4188    2770    2768
CTETRA      2069       1     520     843     840     850    3291    1300+
+           3306    3293    1323    1319
CTETRA      2070       1     507     760     752     762    4166     980+
+           4159    4161     986     983
CTETRA      2071       1     513     520     519     839     648     649+
+            645    3314    3312    3577
CTETRA      2072       1     135    1491    2136    2231    2042    3165+
+           3890    4382    4242    2685
CTETRA      2073       1      76    2143    1529    2193    3966    3423+
+           1962    3942    2518    3426
CTETRA      2074       1    1423    2254    1424    2258    4462    3612+
+           1603    3160    2811    4019
CTETRA      2075       1     289     345    2307    2308    4211    2949+
+           3485    3857    2953    2942
CTETRA      2076       1    1547    1553    2190    2201    2060    3481+
+           3960    4395    4203    2565
CTETRA      2077       1      77    1503    1531    2146    1964    1966+
+           1965    3742    3568    3859
CTETRA      2078       1    1504    1510    1505    2141    1877    1876+
+           1878    3299    3534    3530
CTETRA      2079       1    1444    1447    1446    2286    1673    1675+
+           1674    3636    4000    3710
CTETRA      2080       1    1547    2190    2200    2201    3960    2566+
+           4023    4395    2565    2567
CTETRA      2081       1    1507    2167    2173    2175    4145    2463+
+           4033    3881    2474    2476
CTETRA      2082       1    1433    1439    1434    2277    1632    1631+
+           1633    4324    3197    3289
CTETRA      2083       1     213     225     226    2297    1408     233+
+           1407    3303    2937    2936
CTETRA      2084       1      62    2172      47    2173    3913    2465+
+            445    4030    2464    2466
CTETRA      2085       1    1528    2162    2163    2170    3332    2430+
+           3908    3964    2429    2431
CTETRA      2086       1    1472    1476    2274    2336    1771    3188+
+           3179    3181    3185    3071
CTETRA      2087       1    1447    2290    2285    2291    3998    2897+
+           4001    3999    2908    2911
CTETRA      2088       1     169     153     154    2285    1372     156+
+           1371    3995    2891    2893
CTETRA      2089       1      61      45      46    2171     442      53+
+            443    3909    2456    2460
CTETRA      2090       1    1477    2276    2275    2284    4264    2864+
+           4338    4441    2879    2880
CTETRA      2091       1     166    1477    1475    2275    1781    1782+
+           1776    4304    4338    4307
CTETRA      2092       1    1544    2181    2180    2190    3330    2503+
+           3323    3319    2512    2511
CTETRA      2093       1    1550    1551    1559    2178    2050    2087+
+           2088    4214    4140    3721
CTETRA      2094       1      75      91      92    2193     454     102+
+            460    3599    2553    2519
CTETRA      2095       1    1519    2137    2138    2152    3579    2395+
+           3586    3588    2392    2393
CTETRA      2096       1      33       3      20    2154      39     426+
+            427    3649    3651    2401
CTETRA      2097       1      33    2154      20    2155    3649    2401+
+            427    4062    2403    2408
CTETRA      2098       1      80    1518    2147    2154    1917    3905+
+           3874    3650    4460    2399
CTETRA      2099       1       3      80       1    2154      81     449+
+             89    3651    3650    2400
CTETRA      2100       1    1506    1513    1511    2166    1884    1889+
+           1891    4208    3642    4206
CTETRA      2101       1      33    1518    2154    2155    1931    4460+
+           3649    4062    3907    2403
CTETRA      2102       1      33      21      34    1522     428     425+
+             40    1933    4061    1934
$*
$* PROPERTY CARDS
$*
$*  Property: PSOLID1::Kupol_fem1::[1]
PSOLID         1       1       0                           SMECH
$*
$* MATERIAL CARDS
$*
$*  Material: Steel::Kupol_fem1::[1]
MAT1           12.0694+8        0.2880007.8290-61.1280-5
MATT1          1       1               2               3
TABLEM1        1                       1                                +
+        20.00002.0694+8 21.11002.0694+8    ENDT
TABLEM1        2                       1                                +
+        20.00000.288000 21.11000.288000 23.89000.288000 37.78000.288000+
+        51.67000.289000 65.56000.289000 79.44000.290000 93.33000.290000+
+       107.22000.291000121.11000.291000135.00000.291000148.89000.292000+
+       162.78000.292000176.67000.293000190.56000.293000204.44000.293000+
+       218.33000.294000232.22000.294000246.11000.294000260.00000.295000+
+       273.89000.295000287.78000.296000301.67000.296000315.56000.296000+
+       329.44000.297000343.33000.297000357.22000.298000371.11000.298000+
+       385.00000.298000398.89000.299000412.78000.299000426.67000.300000+
+       440.56000.300000454.44000.301000468.33000.301000482.22000.302000+
+       496.11000.302000510.00000.303000523.89000.304000537.78000.304000+
+       551.67000.305000565.56000.306000579.44000.307000593.33000.308000+
+       607.22000.309000621.11000.310000635.00000.311000648.89000.312000+
+       662.78000.313000676.67000.314000690.56000.316000704.44000.317000+
+           ENDT
TABLEM1        3                       1                                +
+        20.00001.1280-5 93.33001.1790-5107.22001.1880-5121.11001.1970-5+
+       135.00001.2060-5148.89001.2132-5162.78001.2222-5176.67001.2312-5+
+       190.56001.2402-5204.44001.2492-5218.33001.2582-5232.22001.2672-5+
+       246.11001.2762-5260.00001.2852-5273.89001.2942-5287.78001.3032-5+
+       301.67001.3122-5315.56001.3212-5329.44001.3302-5343.33001.3392-5+
+       357.22001.3464-5371.11001.3554-5385.00001.3644-5398.89001.3734-5+
+       412.78001.3806-5426.67001.3896-5440.56001.3986-5454.44001.4058-5+
+       468.33001.4148-5482.22001.4238-5496.11001.4310-5510.00001.4400-5+
+       523.89001.4472-5537.78001.4544-5551.67001.4616-5565.56001.4688-5+
+       579.44001.4742-5593.33001.4796-5607.22001.4832-5621.11001.4886-5+
+       635.00001.4904-5648.89001.4922-5662.78001.4922-5676.67001.4922-5+
+       690.56001.4904-5704.44001.4886-5718.33001.4850-5732.22001.4796-5+
+       746.11001.4724-5760.00001.4634-5773.89001.4472-5787.78001.4256-5+
+       801.67001.4004-5815.56001.3680-5    ENDT
$*
$* LOAD AND CONSTRAINT CARDS
$*
$*  Load: Force(1)
FORCE          1      26       087572.05  0.0000-1.00000  0.0000
FORCE          1      27       067305.81  0.0000-1.00000  0.0000
FORCE          1      28       080796.19  0.0000-1.00000  0.0000
FORCE          1      29       095397.13  0.0000-1.00000  0.0000
FORCE          1      30       01.1879+5  0.0000-1.00000  0.0000
FORCE          1      31       069958.48  0.0000-1.00000  0.0000
FORCE          1      32       089461.80  0.0000-1.00000  0.0000
FORCE          1      50       065545.55  0.0000-1.00000  0.0000
FORCE          1      51       076920.06  0.0000-1.00000  0.0000
FORCE          1      52       049780.76  0.0000-1.00000  0.0000
FORCE          1      53       084803.02  0.0000-1.00000  0.0000
FORCE          1      54       089255.85  0.0000-1.00000  0.0000
FORCE          1      55       092029.89  0.0000-1.00000  0.0000
FORCE          1      56       092100.03  0.0000-1.00000  0.0000
FORCE          1      97       067243.00  0.0000-1.00000  0.0000
FORCE          1      98       081809.26  0.0000-1.00000  0.0000
FORCE          1      99       082115.57  0.0000-1.00000  0.0000
FORCE          1     100       090320.72  0.0000-1.00000  0.0000
FORCE          1     101       089583.20  0.0000-1.00000  0.0000
FORCE          1     102       085453.93  0.0000-1.00000  0.0000
FORCE          1     103       087807.32  0.0000-1.00000  0.0000
FORCE          1     109       081287.64  0.0000-1.00000  0.0000
FORCE          1     110       067979.01  0.0000-1.00000  0.0000
FORCE          1     111       078878.35  0.0000-1.00000  0.0000
FORCE          1     112       011623.64  0.0000-1.00000  0.0000
FORCE          1     113       073106.37  0.0000-1.00000  0.0000
FORCE          1     114       058718.86  0.0000-1.00000  0.0000
FORCE          1     120       077091.61  0.0000-1.00000  0.0000
FORCE          1     121       064037.04  0.0000-1.00000  0.0000
FORCE          1     122       067507.72  0.0000-1.00000  0.0000
FORCE          1     123       069762.47  0.0000-1.00000  0.0000
FORCE          1     124       065753.25  0.0000-1.00000  0.0000
FORCE          1     125       065910.15  0.0000-1.00000  0.0000
FORCE          1     155       089886.63  0.0000-1.00000  0.0000
FORCE          1     156       095635.80  0.0000-1.00000  0.0000
FORCE          1     157       01.0438+5  0.0000-1.00000  0.0000
FORCE          1     158       092054.41  0.0000-1.00000  0.0000
FORCE          1     159       091500.56  0.0000-1.00000  0.0000
FORCE          1     160       095563.90  0.0000-1.00000  0.0000
FORCE          1     161       092410.41  0.0000-1.00000  0.0000
FORCE          1     202       094791.78  0.0000-1.00000  0.0000
FORCE          1     203       095661.23  0.0000-1.00000  0.0000
FORCE          1     204       096481.99  0.0000-1.00000  0.0000
FORCE          1     205       092982.97  0.0000-1.00000  0.0000
FORCE          1     206       091165.48  0.0000-1.00000  0.0000
FORCE          1     207       090870.23  0.0000-1.00000  0.0000
FORCE          1     208       090382.24  0.0000-1.00000  0.0000
FORCE          1     227       059466.29  0.0000-1.00000  0.0000
FORCE          1     228       089886.63  0.0000-1.00000  0.0000
FORCE          1     229       066257.28  0.0000-1.00000  0.0000
FORCE          1     230       059468.35  0.0000-1.00000  0.0000
FORCE          1     231       064165.30  0.0000-1.00000  0.0000
FORCE          1     232       052852.99  0.0000-1.00000  0.0000
FORCE          1     233       052846.58  0.0000-1.00000  0.0000
FORCE          1     234       081657.46  0.0000-1.00000  0.0000
FORCE          1     262       031192.39  0.0000-1.00000  0.0000
FORCE          1     264       038081.92  0.0000-1.00000  0.0000
FORCE          1     266       039146.80  0.0000-1.00000  0.0000
FORCE          1     268       030531.77  0.0000-1.00000  0.0000
FORCE          1     270       028497.69  0.0000-1.00000  0.0000
FORCE          1     272       032641.89  0.0000-1.00000  0.0000
FORCE          1     274       030310.52  0.0000-1.00000  0.0000
FORCE          1     276       034694.41  0.0000-1.00000  0.0000
FORCE          1     368       016898.71  0.0000-1.00000  0.0000
FORCE          1     369       011988.88  0.0000-1.00000  0.0000
FORCE          1     370       0 9279.43  0.0000-1.00000  0.0000
FORCE          1     371       0 8717.73  0.0000-1.00000  0.0000
FORCE          1     372       013480.13  0.0000-1.00000  0.0000
FORCE          1     373       018359.53  0.0000-1.00000  0.0000
FORCE          1     374       014887.16  0.0000-1.00000  0.0000
FORCE          1     375       014096.76  0.0000-1.00000  0.0000
FORCE          1     376       011279.84  0.0000-1.00000  0.0000
FORCE          1     377       018072.15  0.0000-1.00000  0.0000
FORCE          1     378       013019.02  0.0000-1.00000  0.0000
FORCE          1     379       015715.29  0.0000-1.00000  0.0000
FORCE          1     380       015896.68  0.0000-1.00000  0.0000
FORCE          1     381       0 9267.94  0.0000-1.00000  0.0000
FORCE          1     382       0 9271.06  0.0000-1.00000  0.0000
FORCE          1     383       015726.35  0.0000-1.00000  0.0000
FORCE          1     384       010885.94  0.0000-1.00000  0.0000
FORCE          1     385       017139.56  0.0000-1.00000  0.0000
FORCE          1     386       019906.64  0.0000-1.00000  0.0000
FORCE          1     387       015649.55  0.0000-1.00000  0.0000
FORCE          1     388       020539.30  0.0000-1.00000  0.0000
FORCE          1     389       015542.84  0.0000-1.00000  0.0000
FORCE          1     390       017510.51  0.0000-1.00000  0.0000
FORCE          1     391       012482.71  0.0000-1.00000  0.0000
FORCE          1     392       015774.51  0.0000-1.00000  0.0000
FORCE          1     393       018072.48  0.0000-1.00000  0.0000
FORCE          1     394       018191.38  0.0000-1.00000  0.0000
FORCE          1     395       012482.55  0.0000-1.00000  0.0000
FORCE          1     396       015786.51  0.0000-1.00000  0.0000
FORCE          1     397       016381.05  0.0000-1.00000  0.0000
FORCE          1     398       016650.95  0.0000-1.00000  0.0000
FORCE          1     399       016647.93  0.0000-1.00000  0.0000
FORCE          1     400       015243.11  0.0000-1.00000  0.0000
FORCE          1     401       015237.73  0.0000-1.00000  0.0000
FORCE          1     402       015360.47  0.0000-1.00000  0.0000
FORCE          1     403       016675.54  0.0000-1.00000  0.0000
FORCE          1     404       015349.34  0.0000-1.00000  0.0000
FORCE          1     405       016526.62  0.0000-1.00000  0.0000
FORCE          1     406       018591.11  0.0000-1.00000  0.0000
FORCE          1     407       012397.43  0.0000-1.00000  0.0000
FORCE          1     408       015641.95  0.0000-1.00000  0.0000
FORCE          1     409       016417.34  0.0000-1.00000  0.0000
FORCE          1     410       013367.41  0.0000-1.00000  0.0000
FORCE          1     411       013367.70  0.0000-1.00000  0.0000
FORCE          1     412       015100.87  0.0000-1.00000  0.0000
FORCE          1     413       015100.50  0.0000-1.00000  0.0000
FORCE          1     414       017779.57  0.0000-1.00000  0.0000
FORCE          1     415       019846.06  0.0000-1.00000  0.0000
FORCE          1     416       018001.60  0.0000-1.00000  0.0000
FORCE          1     417       011566.56  0.0000-1.00000  0.0000
FORCE          1     418       014056.22  0.0000-1.00000  0.0000
FORCE          1     419       014544.85  0.0000-1.00000  0.0000
FORCE          1     420       014059.60  0.0000-1.00000  0.0000
FORCE          1     421       011571.73  0.0000-1.00000  0.0000
FORCE          1     422       015804.06  0.0000-1.00000  0.0000
FORCE          1    2355       01.8792+5  0.0000-1.00000  0.0000
FORCE          1    2356       01.8686+5  0.0000-1.00000  0.0000
FORCE          1    2357       01.8503+5  0.0000-1.00000  0.0000
FORCE          1    2358       01.8956+5  0.0000-1.00000  0.0000
FORCE          1    2359       01.8791+5  0.0000-1.00000  0.0000
FORCE          1    2360       02.0469+5  0.0000-1.00000  0.0000
FORCE          1    2361       01.8528+5  0.0000-1.00000  0.0000
FORCE          1    2362       01.8063+5  0.0000-1.00000  0.0000
FORCE          1    2363       01.8116+5  0.0000-1.00000  0.0000
FORCE          1    2364       01.8307+5  0.0000-1.00000  0.0000
FORCE          1    2365       01.7761+5  0.0000-1.00000  0.0000
FORCE          1    2366       01.8234+5  0.0000-1.00000  0.0000
FORCE          1    2367       01.7986+5  0.0000-1.00000  0.0000
FORCE          1    2368       01.7809+5  0.0000-1.00000  0.0000
FORCE          1    2369       01.7484+5  0.0000-1.00000  0.0000
FORCE          1    2370       01.8494+5  0.0000-1.00000  0.0000
FORCE          1    2371       01.8284+5  0.0000-1.00000  0.0000
FORCE          1    2372       01.8436+5  0.0000-1.00000  0.0000
FORCE          1    2373       01.9910+5  0.0000-1.00000  0.0000
FORCE          1    2374       02.1529+5  0.0000-1.00000  0.0000
FORCE          1    2375       01.8872+5  0.0000-1.00000  0.0000
FORCE          1    2376       01.6910+5  0.0000-1.00000  0.0000
FORCE          1    2377       01.9090+5  0.0000-1.00000  0.0000
FORCE          1    2378       01.4030+5  0.0000-1.00000  0.0000
FORCE          1    2379       02.1314+5  0.0000-1.00000  0.0000
FORCE          1    2380       01.9707+5  0.0000-1.00000  0.0000
FORCE          1    2381       02.3595+5  0.0000-1.00000  0.0000
FORCE          1    2382       02.3997+5  0.0000-1.00000  0.0000
FORCE          1    2383       01.2225+5  0.0000-1.00000  0.0000
FORCE          1    2384       01.3362+5  0.0000-1.00000  0.0000
FORCE          1    2385       01.1908+5  0.0000-1.00000  0.0000
FORCE          1    2386       01.3550+5  0.0000-1.00000  0.0000
FORCE          1    2387       01.3131+5  0.0000-1.00000  0.0000
FORCE          1    2388       02.0662+5  0.0000-1.00000  0.0000
FORCE          1    2389       02.3031+5  0.0000-1.00000  0.0000
FORCE          1    2390       01.5081+5  0.0000-1.00000  0.0000
FORCE          1    2391       01.2373+5  0.0000-1.00000  0.0000
FORCE          1    2392       01.4703+5  0.0000-1.00000  0.0000
FORCE          1    2393       01.9780+5  0.0000-1.00000  0.0000
FORCE          1    2394       02.3492+5  0.0000-1.00000  0.0000
FORCE          1    2395       01.7085+5  0.0000-1.00000  0.0000
FORCE          1    2396       01.6911+5  0.0000-1.00000  0.0000
FORCE          1    2397       01.7567+5  0.0000-1.00000  0.0000
FORCE          1    2398       01.2573+5  0.0000-1.00000  0.0000
FORCE          1    2399       01.2091+5  0.0000-1.00000  0.0000
FORCE          1    2400       01.3455+5  0.0000-1.00000  0.0000
FORCE          1    2401       01.2498+5  0.0000-1.00000  0.0000
FORCE          1    2402       01.5589+5  0.0000-1.00000  0.0000
FORCE          1    2403       01.2011+5  0.0000-1.00000  0.0000
FORCE          1    2404       01.9133+5  0.0000-1.00000  0.0000
FORCE          1    2405       01.7940+5  0.0000-1.00000  0.0000
FORCE          1    2406       01.7790+5  0.0000-1.00000  0.0000
FORCE          1    2407       01.6233+5  0.0000-1.00000  0.0000
FORCE          1    2408       01.3848+5  0.0000-1.00000  0.0000
FORCE          1    2409       02.1657+5  0.0000-1.00000  0.0000
FORCE          1    2410       02.3214+5  0.0000-1.00000  0.0000
FORCE          1    2411       01.8350+5  0.0000-1.00000  0.0000
FORCE          1    2412       01.5835+5  0.0000-1.00000  0.0000
FORCE          1    2413       01.5029+5  0.0000-1.00000  0.0000
FORCE          1    2414       01.4288+5  0.0000-1.00000  0.0000
FORCE          1    2415       01.6299+5  0.0000-1.00000  0.0000
FORCE          1    2416       01.5421+5  0.0000-1.00000  0.0000
FORCE          1    2417       01.8918+5  0.0000-1.00000  0.0000
FORCE          1    2418       02.1776+5  0.0000-1.00000  0.0000
FORCE          1    2419       01.9583+5  0.0000-1.00000  0.0000
FORCE          1    2420       01.6250+5  0.0000-1.00000  0.0000
FORCE          1    2421       01.4388+5  0.0000-1.00000  0.0000
FORCE          1    2422       02.4160+5  0.0000-1.00000  0.0000
FORCE          1    2423       02.2173+5  0.0000-1.00000  0.0000
FORCE          1    2424       02.3079+5  0.0000-1.00000  0.0000
FORCE          1    2425       01.8359+5  0.0000-1.00000  0.0000
FORCE          1    2426       02.1545+5  0.0000-1.00000  0.0000
FORCE          1    2427       02.4066+5  0.0000-1.00000  0.0000
FORCE          1    2428       02.1271+5  0.0000-1.00000  0.0000
FORCE          1    2429       01.9679+5  0.0000-1.00000  0.0000
FORCE          1    2430       01.8621+5  0.0000-1.00000  0.0000
FORCE          1    2431       01.8984+5  0.0000-1.00000  0.0000
FORCE          1    2432       02.0395+5  0.0000-1.00000  0.0000
FORCE          1    2433       02.0122+5  0.0000-1.00000  0.0000
FORCE          1    2434       02.0777+5  0.0000-1.00000  0.0000
FORCE          1    2435       01.9607+5  0.0000-1.00000  0.0000
FORCE          1    2436       01.9660+5  0.0000-1.00000  0.0000
FORCE          1    2437       01.9467+5  0.0000-1.00000  0.0000
FORCE          1    2438       01.9486+5  0.0000-1.00000  0.0000
FORCE          1    2439       01.8618+5  0.0000-1.00000  0.0000
FORCE          1    2440       01.8141+5  0.0000-1.00000  0.0000
FORCE          1    2441       01.8363+5  0.0000-1.00000  0.0000
FORCE          1    2442       01.9063+5  0.0000-1.00000  0.0000
FORCE          1    2443       01.9104+5  0.0000-1.00000  0.0000
FORCE          1    2444       01.9675+5  0.0000-1.00000  0.0000
FORCE          1    2445       01.9241+5  0.0000-1.00000  0.0000
FORCE          1    2446       01.9881+5  0.0000-1.00000  0.0000
FORCE          1    2447       01.9395+5  0.0000-1.00000  0.0000
FORCE          1    2448       01.8307+5  0.0000-1.00000  0.0000
FORCE          1    2449       01.8432+5  0.0000-1.00000  0.0000
FORCE          1    2450       01.8097+5  0.0000-1.00000  0.0000
FORCE          1    2451       01.8727+5  0.0000-1.00000  0.0000
FORCE          1    2452       01.8020+5  0.0000-1.00000  0.0000
FORCE          1    2453       01.8671+5  0.0000-1.00000  0.0000
FORCE          1    2454       01.6654+5  0.0000-1.00000  0.0000
FORCE          1    2455       01.5727+5  0.0000-1.00000  0.0000
FORCE          1    2456       01.6515+5  0.0000-1.00000  0.0000
FORCE          1    2457       01.8964+5  0.0000-1.00000  0.0000
FORCE          1    2458       01.9545+5  0.0000-1.00000  0.0000
FORCE          1    2459       01.8281+5  0.0000-1.00000  0.0000
FORCE          1    2460       01.7490+5  0.0000-1.00000  0.0000
FORCE          1    2461       01.7935+5  0.0000-1.00000  0.0000
FORCE          1    2462       02.0341+5  0.0000-1.00000  0.0000
FORCE          1    2463       02.2333+5  0.0000-1.00000  0.0000
FORCE          1    2464       01.9543+5  0.0000-1.00000  0.0000
FORCE          1    2465       01.8616+5  0.0000-1.00000  0.0000
FORCE          1    2466       01.8900+5  0.0000-1.00000  0.0000
FORCE          1    2467       070328.33  0.0000-1.00000  0.0000
FORCE          1    2468       088847.83  0.0000-1.00000  0.0000
FORCE          1    2469       01.0014+5  0.0000-1.00000  0.0000
FORCE          1    2470       054442.54  0.0000-1.00000  0.0000
FORCE          1    2471       043303.27  0.0000-1.00000  0.0000
FORCE          1    2472       081152.53  0.0000-1.00000  0.0000
FORCE          1    2473       01.1539+5  0.0000-1.00000  0.0000
FORCE          1    2474       02.4472+5  0.0000-1.00000  0.0000
FORCE          1    2475       02.3289+5  0.0000-1.00000  0.0000
FORCE          1    2476       02.3068+5  0.0000-1.00000  0.0000
FORCE          1    2477       02.0433+5  0.0000-1.00000  0.0000
FORCE          1    2478       02.0426+5  0.0000-1.00000  0.0000
FORCE          1    2479       01.5764+5  0.0000-1.00000  0.0000
FORCE          1    2480       01.6781+5  0.0000-1.00000  0.0000
FORCE          1    2481       01.8688+5  0.0000-1.00000  0.0000
FORCE          1    2482       01.2679+5  0.0000-1.00000  0.0000
FORCE          1    2483       036722.36  0.0000-1.00000  0.0000
FORCE          1    2484       049531.84  0.0000-1.00000  0.0000
FORCE          1    2485       033671.58  0.0000-1.00000  0.0000
FORCE          1    2486       035447.27  0.0000-1.00000  0.0000
FORCE          1    2487       033994.27  0.0000-1.00000  0.0000
FORCE          1    2488       044250.01  0.0000-1.00000  0.0000
FORCE          1    2489       01.7921+5  0.0000-1.00000  0.0000
FORCE          1    2490       01.7721+5  0.0000-1.00000  0.0000
FORCE          1    2491       01.7842+5  0.0000-1.00000  0.0000
FORCE          1    2492       056367.63  0.0000-1.00000  0.0000
FORCE          1    2493       070988.37  0.0000-1.00000  0.0000
FORCE          1    2494       079190.61  0.0000-1.00000  0.0000
FORCE          1    2495       01.1483+5  0.0000-1.00000  0.0000
FORCE          1    2496       01.7829+5  0.0000-1.00000  0.0000
FORCE          1    2497       01.7558+5  0.0000-1.00000  0.0000
FORCE          1    2498       01.7775+5  0.0000-1.00000  0.0000
FORCE          1    2499       01.7889+5  0.0000-1.00000  0.0000
FORCE          1    2500       01.7323+5  0.0000-1.00000  0.0000
FORCE          1    2501       01.7617+5  0.0000-1.00000  0.0000
FORCE          1    2502       01.8402+5  0.0000-1.00000  0.0000
FORCE          1    2503       01.6393+5  0.0000-1.00000  0.0000
FORCE          1    2504       01.6797+5  0.0000-1.00000  0.0000
FORCE          1    2505       01.3575+5  0.0000-1.00000  0.0000
FORCE          1    2506       01.2370+5  0.0000-1.00000  0.0000
FORCE          1    2507       01.4520+5  0.0000-1.00000  0.0000
FORCE          1    2508       01.2860+5  0.0000-1.00000  0.0000
FORCE          1    2509       01.4636+5  0.0000-1.00000  0.0000
FORCE          1    2510       01.1555+5  0.0000-1.00000  0.0000
FORCE          1    2511       01.4818+5  0.0000-1.00000  0.0000
FORCE          1    2512       01.6018+5  0.0000-1.00000  0.0000
FORCE          1    2513       01.2400+5  0.0000-1.00000  0.0000
FORCE          1    2514       01.4040+5  0.0000-1.00000  0.0000
FORCE          1    2515       01.6677+5  0.0000-1.00000  0.0000
FORCE          1    2516       01.7036+5  0.0000-1.00000  0.0000
FORCE          1    2517       01.6378+5  0.0000-1.00000  0.0000
FORCE          1    2518       01.7450+5  0.0000-1.00000  0.0000
FORCE          1    2519       01.7249+5  0.0000-1.00000  0.0000
FORCE          1    2520       01.7378+5  0.0000-1.00000  0.0000
FORCE          1    2521       01.7216+5  0.0000-1.00000  0.0000
FORCE          1    2522       01.6970+5  0.0000-1.00000  0.0000
FORCE          1    2523       01.7294+5  0.0000-1.00000  0.0000
FORCE          1    2524       01.7109+5  0.0000-1.00000  0.0000
FORCE          1    2525       029695.35  0.0000-1.00000  0.0000
FORCE          1    2526       040067.58  0.0000-1.00000  0.0000
FORCE          1    2527       028972.34  0.0000-1.00000  0.0000
FORCE          1    2528       031439.37  0.0000-1.00000  0.0000
FORCE          1    2529       031857.82  0.0000-1.00000  0.0000
FORCE          1    2530       038403.42  0.0000-1.00000  0.0000
FORCE          1    2531       047736.57  0.0000-1.00000  0.0000
FORCE          1    2532       062245.48  0.0000-1.00000  0.0000
FORCE          1    2533       068258.94  0.0000-1.00000  0.0000
FORCE          1    2534       01.0592+5  0.0000-1.00000  0.0000
FORCE          1    2535       01.2566+5  0.0000-1.00000  0.0000
FORCE          1    2536       01.2213+5  0.0000-1.00000  0.0000
FORCE          1    2537       01.1888+5  0.0000-1.00000  0.0000
FORCE          1    2538       01.0316+5  0.0000-1.00000  0.0000
FORCE          1    2539       098565.22  0.0000-1.00000  0.0000
FORCE          1    2540       01.0847+5  0.0000-1.00000  0.0000
FORCE          1    2541       01.0791+5  0.0000-1.00000  0.0000
FORCE          1    2542       01.1614+5  0.0000-1.00000  0.0000
FORCE          1    2543       039163.76  0.0000-1.00000  0.0000
FORCE          1    2544       043706.28  0.0000-1.00000  0.0000
FORCE          1    2545       049405.22  0.0000-1.00000  0.0000
FORCE          1    2546       046409.83  0.0000-1.00000  0.0000
FORCE          1    2547       059555.22  0.0000-1.00000  0.0000
FORCE          1    2548       061476.96  0.0000-1.00000  0.0000
FORCE          1    2549       091388.94  0.0000-1.00000  0.0000
FORCE          1    2550       038053.35  0.0000-1.00000  0.0000
FORCE          1    2551       029330.79  0.0000-1.00000  0.0000
FORCE          1    2552       033540.43  0.0000-1.00000  0.0000
FORCE          1    2553       01.6842+5  0.0000-1.00000  0.0000
FORCE          1    2554       01.6774+5  0.0000-1.00000  0.0000
FORCE          1    2555       01.6778+5  0.0000-1.00000  0.0000
FORCE          1    2556       01.6509+5  0.0000-1.00000  0.0000
FORCE          1    2557       01.0942+5  0.0000-1.00000  0.0000
FORCE          1    2558       01.1214+5  0.0000-1.00000  0.0000
FORCE          1    2559       094024.89  0.0000-1.00000  0.0000
FORCE          1    2560       01.6717+5  0.0000-1.00000  0.0000
FORCE          1    2561       01.6455+5  0.0000-1.00000  0.0000
FORCE          1    2562       01.6880+5  0.0000-1.00000  0.0000
FORCE          1    2563       01.6648+5  0.0000-1.00000  0.0000
FORCE          1    2564       01.6956+5  0.0000-1.00000  0.0000
FORCE          1    2565       01.6136+5  0.0000-1.00000  0.0000
FORCE          1    2566       01.4997+5  0.0000-1.00000  0.0000
FORCE          1    2567       01.7072+5  0.0000-1.00000  0.0000
FORCE          1    2568       01.3673+5  0.0000-1.00000  0.0000
FORCE          1    2569       01.1294+5  0.0000-1.00000  0.0000
FORCE          1    2570       01.1667+5  0.0000-1.00000  0.0000
FORCE          1    2571       01.0915+5  0.0000-1.00000  0.0000
FORCE          1    2572       01.1836+5  0.0000-1.00000  0.0000
FORCE          1    2573       01.2283+5  0.0000-1.00000  0.0000
FORCE          1    2574       01.2565+5  0.0000-1.00000  0.0000
FORCE          1    2575       01.3298+5  0.0000-1.00000  0.0000
FORCE          1    2576       01.5672+5  0.0000-1.00000  0.0000
FORCE          1    2577       01.1367+5  0.0000-1.00000  0.0000
FORCE          1    2578       095686.69  0.0000-1.00000  0.0000
FORCE          1    2579       065707.94  0.0000-1.00000  0.0000
FORCE          1    2580       045155.89  0.0000-1.00000  0.0000
FORCE          1    2581       073747.84  0.0000-1.00000  0.0000
FORCE          1    2582       01.2363+5  0.0000-1.00000  0.0000
FORCE          1    2583       01.3017+5  0.0000-1.00000  0.0000
FORCE          1    2584       095158.80  0.0000-1.00000  0.0000
FORCE          1    2585       057106.26  0.0000-1.00000  0.0000
FORCE          1    2586       025447.61  0.0000-1.00000  0.0000
FORCE          1    2587       030358.42  0.0000-1.00000  0.0000
FORCE          1    2588       030368.79  0.0000-1.00000  0.0000
FORCE          1    2589       026366.34  0.0000-1.00000  0.0000
FORCE          1    2590       033914.90  0.0000-1.00000  0.0000
FORCE          1    2591       039727.38  0.0000-1.00000  0.0000
FORCE          1    2592       026835.20  0.0000-1.00000  0.0000
FORCE          1    2593       022630.69  0.0000-1.00000  0.0000
FORCE          1    2594       022903.77  0.0000-1.00000  0.0000
FORCE          1    2595       033293.70  0.0000-1.00000  0.0000
FORCE          1    2596       083288.85  0.0000-1.00000  0.0000
FORCE          1    2597       072812.08  0.0000-1.00000  0.0000
FORCE          1    2598       046203.30  0.0000-1.00000  0.0000
FORCE          1    2599       053638.74  0.0000-1.00000  0.0000
FORCE          1    2600       040724.18  0.0000-1.00000  0.0000
FORCE          1    2601       070981.34  0.0000-1.00000  0.0000
FORCE          1    2602       045479.30  0.0000-1.00000  0.0000
FORCE          1    2603       031042.54  0.0000-1.00000  0.0000
FORCE          1    2604       042592.05  0.0000-1.00000  0.0000
FORCE          1    2605       031148.82  0.0000-1.00000  0.0000
FORCE          1    2606       031159.84  0.0000-1.00000  0.0000
FORCE          1    2607       033319.09  0.0000-1.00000  0.0000
FORCE          1    2608       048344.36  0.0000-1.00000  0.0000
FORCE          1    2609       026132.71  0.0000-1.00000  0.0000
FORCE          1    2610       024730.36  0.0000-1.00000  0.0000
FORCE          1    2611       029044.56  0.0000-1.00000  0.0000
FORCE          1    2612       027628.64  0.0000-1.00000  0.0000
FORCE          1    2613       064107.54  0.0000-1.00000  0.0000
FORCE          1    2614       058472.54  0.0000-1.00000  0.0000
FORCE          1    2615       039825.88  0.0000-1.00000  0.0000
FORCE          1    2616       044715.63  0.0000-1.00000  0.0000
FORCE          1    2617       046232.65  0.0000-1.00000  0.0000
FORCE          1    2618       01.5614+5  0.0000-1.00000  0.0000
FORCE          1    2619       01.5169+5  0.0000-1.00000  0.0000
FORCE          1    2620       01.6493+5  0.0000-1.00000  0.0000
FORCE          1    2621       01.6831+5  0.0000-1.00000  0.0000
FORCE          1    2622       01.6288+5  0.0000-1.00000  0.0000
FORCE          1    2623       01.8105+5  0.0000-1.00000  0.0000
FORCE          1    2624       01.8732+5  0.0000-1.00000  0.0000
FORCE          1    2625       01.7402+5  0.0000-1.00000  0.0000
FORCE          1    2626       01.8750+5  0.0000-1.00000  0.0000
FORCE          1    2627       095816.23  0.0000-1.00000  0.0000
FORCE          1    2628       069744.89  0.0000-1.00000  0.0000
FORCE          1    2629       01.1369+5  0.0000-1.00000  0.0000
FORCE          1    2630       098206.78  0.0000-1.00000  0.0000
FORCE          1    2631       075364.60  0.0000-1.00000  0.0000
FORCE          1    2632       01.5072+5  0.0000-1.00000  0.0000
FORCE          1    2633       01.4952+5  0.0000-1.00000  0.0000
FORCE          1    2634       01.3337+5  0.0000-1.00000  0.0000
FORCE          1    2635       01.1874+5  0.0000-1.00000  0.0000
FORCE          1    2636       01.3303+5  0.0000-1.00000  0.0000
FORCE          1    2637       01.0958+5  0.0000-1.00000  0.0000
FORCE          1    2638       01.4264+5  0.0000-1.00000  0.0000
FORCE          1    2639       080688.23  0.0000-1.00000  0.0000
FORCE          1    2640       063533.70  0.0000-1.00000  0.0000
FORCE          1    2641       079203.95  0.0000-1.00000  0.0000
FORCE          1    2642       060066.31  0.0000-1.00000  0.0000
FORCE          1    2643       051244.69  0.0000-1.00000  0.0000
FORCE          1    2644       074591.23  0.0000-1.00000  0.0000
FORCE          1    2645       045578.38  0.0000-1.00000  0.0000
FORCE          1    2646       042835.74  0.0000-1.00000  0.0000
FORCE          1    2647       034299.41  0.0000-1.00000  0.0000
FORCE          1    2648       045011.21  0.0000-1.00000  0.0000
FORCE          1    2649       020913.39  0.0000-1.00000  0.0000
FORCE          1    2650       019536.72  0.0000-1.00000  0.0000
FORCE          1    2651       032680.28  0.0000-1.00000  0.0000
FORCE          1    2652       048015.53  0.0000-1.00000  0.0000
FORCE          1    2653       047707.37  0.0000-1.00000  0.0000
FORCE          1    2654       023389.26  0.0000-1.00000  0.0000
FORCE          1    2655       018626.86  0.0000-1.00000  0.0000
FORCE          1    2656       034847.98  0.0000-1.00000  0.0000
FORCE          1    2657       015170.05  0.0000-1.00000  0.0000
FORCE          1    2658       029916.53  0.0000-1.00000  0.0000
FORCE          1    2659       023613.21  0.0000-1.00000  0.0000
FORCE          1    2660       032907.93  0.0000-1.00000  0.0000
FORCE          1    2661       024115.21  0.0000-1.00000  0.0000
FORCE          1    2662       014984.78  0.0000-1.00000  0.0000
FORCE          1    2663       015731.75  0.0000-1.00000  0.0000
FORCE          1    2664       020487.33  0.0000-1.00000  0.0000
FORCE          1    2665       022105.33  0.0000-1.00000  0.0000
FORCE          1    2666       031116.62  0.0000-1.00000  0.0000
FORCE          1    2667       018539.01  0.0000-1.00000  0.0000
FORCE          1    2668       027673.79  0.0000-1.00000  0.0000
FORCE          1    2669       044390.69  0.0000-1.00000  0.0000
FORCE          1    2670       073519.38  0.0000-1.00000  0.0000
FORCE          1    2671       092541.29  0.0000-1.00000  0.0000
FORCE          1    2672       01.2126+5  0.0000-1.00000  0.0000
FORCE          1    2673       045885.18  0.0000-1.00000  0.0000
FORCE          1    2674       041533.30  0.0000-1.00000  0.0000
FORCE          1    2675       068597.28  0.0000-1.00000  0.0000
FORCE          1    2676       01.0418+5  0.0000-1.00000  0.0000
FORCE          1    2677       01.6685+5  0.0000-1.00000  0.0000
FORCE          1    2678       01.6853+5  0.0000-1.00000  0.0000
FORCE          1    2679       01.7028+5  0.0000-1.00000  0.0000
FORCE          1    2680       01.3873+5  0.0000-1.00000  0.0000
FORCE          1    2681       01.3095+5  0.0000-1.00000  0.0000
FORCE          1    2682       01.6925+5  0.0000-1.00000  0.0000
FORCE          1    2683       01.5840+5  0.0000-1.00000  0.0000
FORCE          1    2684       01.5536+5  0.0000-1.00000  0.0000
FORCE          1    2685       01.2844+5  0.0000-1.00000  0.0000
FORCE          1    2686       01.3310+5  0.0000-1.00000  0.0000
FORCE          1    2687       01.5693+5  0.0000-1.00000  0.0000
FORCE          1    2688       01.4086+5  0.0000-1.00000  0.0000
FORCE          1    2689       01.1892+5  0.0000-1.00000  0.0000
FORCE          1    2690       01.4739+5  0.0000-1.00000  0.0000
FORCE          1    2691       069286.92  0.0000-1.00000  0.0000
FORCE          1    2692       080259.23  0.0000-1.00000  0.0000
FORCE          1    2693       092810.40  0.0000-1.00000  0.0000
FORCE          1    2694       048898.74  0.0000-1.00000  0.0000
FORCE          1    2695       046700.51  0.0000-1.00000  0.0000
FORCE          1    2696       031441.65  0.0000-1.00000  0.0000
FORCE          1    2697       032837.86  0.0000-1.00000  0.0000
FORCE          1    2698       044718.45  0.0000-1.00000  0.0000
FORCE          1    2699       026845.87  0.0000-1.00000  0.0000
FORCE          1    2700       033099.49  0.0000-1.00000  0.0000
FORCE          1    2701       037596.01  0.0000-1.00000  0.0000
FORCE          1    2702       043933.43  0.0000-1.00000  0.0000
FORCE          1    2703       067451.87  0.0000-1.00000  0.0000
FORCE          1    2704       01.0859+5  0.0000-1.00000  0.0000
FORCE          1    2705       01.2171+5  0.0000-1.00000  0.0000
FORCE          1    2706       093173.58  0.0000-1.00000  0.0000
FORCE          1    2707       058592.36  0.0000-1.00000  0.0000
FORCE          1    2708       078912.39  0.0000-1.00000  0.0000
FORCE          1    2709       071249.43  0.0000-1.00000  0.0000
FORCE          1    2710       045714.31  0.0000-1.00000  0.0000
FORCE          1    2711       043514.86  0.0000-1.00000  0.0000
FORCE          1    2712       039507.53  0.0000-1.00000  0.0000
FORCE          1    2713       033072.49  0.0000-1.00000  0.0000
FORCE          1    2714       053185.34  0.0000-1.00000  0.0000
FORCE          1    2715       043869.86  0.0000-1.00000  0.0000
FORCE          1    2716       030141.58  0.0000-1.00000  0.0000
FORCE          1    2717       042110.06  0.0000-1.00000  0.0000
FORCE          1    2718       028858.71  0.0000-1.00000  0.0000
FORCE          1    2719       033619.26  0.0000-1.00000  0.0000
FORCE          1    2720       036290.13  0.0000-1.00000  0.0000
FORCE          1    2721       041448.37  0.0000-1.00000  0.0000
FORCE          1    2722       053505.82  0.0000-1.00000  0.0000
FORCE          1    2723       01.3315+5  0.0000-1.00000  0.0000
FORCE          1    2724       01.3902+5  0.0000-1.00000  0.0000
FORCE          1    2725       01.0766+5  0.0000-1.00000  0.0000
FORCE          1    2726       082146.59  0.0000-1.00000  0.0000
FORCE          1    2727       01.0937+5  0.0000-1.00000  0.0000
FORCE          1    2728       01.3158+5  0.0000-1.00000  0.0000
FORCE          1    2729       01.4092+5  0.0000-1.00000  0.0000
FORCE          1    2730       01.1334+5  0.0000-1.00000  0.0000
FORCE          1    2731       01.0129+5  0.0000-1.00000  0.0000
FORCE          1    2732       064951.92  0.0000-1.00000  0.0000
FORCE          1    2733       068362.35  0.0000-1.00000  0.0000
FORCE          1    2734       054200.30  0.0000-1.00000  0.0000
FORCE          1    2735       063586.89  0.0000-1.00000  0.0000
FORCE          1    2736       045437.93  0.0000-1.00000  0.0000
FORCE          1    2737       025444.29  0.0000-1.00000  0.0000
FORCE          1    2738       028197.00  0.0000-1.00000  0.0000
FORCE          1    2739       070367.29  0.0000-1.00000  0.0000
FORCE          1    2740       098474.88  0.0000-1.00000  0.0000
FORCE          1    2741       075334.32  0.0000-1.00000  0.0000
FORCE          1    2742       045964.07  0.0000-1.00000  0.0000
FORCE          1    2743       041133.68  0.0000-1.00000  0.0000
FORCE          1    2744       031561.01  0.0000-1.00000  0.0000
FORCE          1    2745       039416.56  0.0000-1.00000  0.0000
FORCE          1    2746       043666.09  0.0000-1.00000  0.0000
FORCE          1    2747       061247.06  0.0000-1.00000  0.0000
FORCE          1    2748       035543.90  0.0000-1.00000  0.0000
FORCE          1    2749       01.2056+5  0.0000-1.00000  0.0000
FORCE          1    2750       01.3766+5  0.0000-1.00000  0.0000
FORCE          1    2751       01.3254+5  0.0000-1.00000  0.0000
FORCE          1    2752       094185.04  0.0000-1.00000  0.0000
FORCE          1    2753       075327.82  0.0000-1.00000  0.0000
FORCE          1    2754       059965.91  0.0000-1.00000  0.0000
FORCE          1    2755       090799.77  0.0000-1.00000  0.0000
FORCE          1    2756       024965.25  0.0000-1.00000  0.0000
FORCE          1    2757       041015.34  0.0000-1.00000  0.0000
FORCE          1    2758       043493.34  0.0000-1.00000  0.0000
FORCE          1    2759       035306.51  0.0000-1.00000  0.0000
FORCE          1    2760       042222.54  0.0000-1.00000  0.0000
FORCE          1    2761       028629.18  0.0000-1.00000  0.0000
FORCE          1    2762       086410.33  0.0000-1.00000  0.0000
FORCE          1    2763       01.1051+5  0.0000-1.00000  0.0000
FORCE          1    2764       042067.81  0.0000-1.00000  0.0000
FORCE          1    2765       042812.47  0.0000-1.00000  0.0000
FORCE          1    2766       060277.67  0.0000-1.00000  0.0000
FORCE          1    2767       035863.49  0.0000-1.00000  0.0000
FORCE          1    2768       038872.61  0.0000-1.00000  0.0000
FORCE          1    2769       053308.15  0.0000-1.00000  0.0000
FORCE          1    2770       037831.15  0.0000-1.00000  0.0000
FORCE          1    2771       059996.36  0.0000-1.00000  0.0000
FORCE          1    2772       069731.90  0.0000-1.00000  0.0000
FORCE          1    2773       051053.07  0.0000-1.00000  0.0000
FORCE          1    2774       062195.13  0.0000-1.00000  0.0000
FORCE          1    2775       088748.98  0.0000-1.00000  0.0000
FORCE          1    2776       01.5726+5  0.0000-1.00000  0.0000
FORCE          1    2777       088633.53  0.0000-1.00000  0.0000
FORCE          1    2778       01.3782+5  0.0000-1.00000  0.0000
FORCE          1    2779       01.3595+5  0.0000-1.00000  0.0000
FORCE          1    2780       065248.17  0.0000-1.00000  0.0000
FORCE          1    2781       070044.97  0.0000-1.00000  0.0000
FORCE          1    2782       069485.79  0.0000-1.00000  0.0000
FORCE          1    2783       035684.09  0.0000-1.00000  0.0000
FORCE          1    2784       034602.67  0.0000-1.00000  0.0000
FORCE          1    2785       039539.33  0.0000-1.00000  0.0000
FORCE          1    2786       035229.52  0.0000-1.00000  0.0000
FORCE          1    2787       061497.12  0.0000-1.00000  0.0000
FORCE          1    2788       068747.81  0.0000-1.00000  0.0000
FORCE          1    2789       054475.44  0.0000-1.00000  0.0000
FORCE          1    2790       056667.45  0.0000-1.00000  0.0000
FORCE          1    2791       047049.73  0.0000-1.00000  0.0000
FORCE          1    2792       045384.61  0.0000-1.00000  0.0000
FORCE          1    2793       035198.84  0.0000-1.00000  0.0000
FORCE          1    2794       028115.82  0.0000-1.00000  0.0000
FORCE          1    2795       037791.49  0.0000-1.00000  0.0000
FORCE          1    2796       030997.19  0.0000-1.00000  0.0000
FORCE          1    2797       051500.06  0.0000-1.00000  0.0000
FORCE          1    2798       023138.29  0.0000-1.00000  0.0000
FORCE          1    2799       01.4327+5  0.0000-1.00000  0.0000
FORCE          1    2800       01.3358+5  0.0000-1.00000  0.0000
FORCE          1    2801       01.2545+5  0.0000-1.00000  0.0000
FORCE          1    2802       01.2371+5  0.0000-1.00000  0.0000
FORCE          1    2803       077867.70  0.0000-1.00000  0.0000
FORCE          1    2804       01.3870+5  0.0000-1.00000  0.0000
FORCE          1    2805       01.0990+5  0.0000-1.00000  0.0000
FORCE          1    2806       01.4855+5  0.0000-1.00000  0.0000
FORCE          1    2807       01.1184+5  0.0000-1.00000  0.0000
FORCE          1    2808       077223.73  0.0000-1.00000  0.0000
FORCE          1    2809       01.0793+5  0.0000-1.00000  0.0000
FORCE          1    2810       075802.72  0.0000-1.00000  0.0000
FORCE          1    2811       078815.78  0.0000-1.00000  0.0000
FORCE          1    2812       063754.00  0.0000-1.00000  0.0000
FORCE          1    2813       070082.25  0.0000-1.00000  0.0000
FORCE          1    2814       054790.32  0.0000-1.00000  0.0000
FORCE          1    2815       063616.24  0.0000-1.00000  0.0000
FORCE          1    2816       054999.01  0.0000-1.00000  0.0000
FORCE          1    2817       040795.08  0.0000-1.00000  0.0000
FORCE          1    2818       040797.78  0.0000-1.00000  0.0000
FORCE          1    2819       030709.82  0.0000-1.00000  0.0000
FORCE          1    2820       038962.99  0.0000-1.00000  0.0000
FORCE          1    2821       039480.01  0.0000-1.00000  0.0000
FORCE          1    2822       01.3267+5  0.0000-1.00000  0.0000
FORCE          1    2823       01.5377+5  0.0000-1.00000  0.0000
FORCE          1    2824       01.1970+5  0.0000-1.00000  0.0000
FORCE          1    2825       082031.56  0.0000-1.00000  0.0000
FORCE          1    2826       096392.02  0.0000-1.00000  0.0000
FORCE          1    2827       077951.01  0.0000-1.00000  0.0000
FORCE          1    2828       090815.84  0.0000-1.00000  0.0000
FORCE          1    2829       01.0551+5  0.0000-1.00000  0.0000
FORCE          1    2830       058619.00  0.0000-1.00000  0.0000
FORCE          1    2831       049882.20  0.0000-1.00000  0.0000
FORCE          1    2832       043490.06  0.0000-1.00000  0.0000
FORCE          1    2833       080010.97  0.0000-1.00000  0.0000
FORCE          1    2834       061147.83  0.0000-1.00000  0.0000
FORCE          1    2835       046989.17  0.0000-1.00000  0.0000
FORCE          1    2836       040011.11  0.0000-1.00000  0.0000
FORCE          1    2837       045256.19  0.0000-1.00000  0.0000
FORCE          1    2838       050835.76  0.0000-1.00000  0.0000
FORCE          1    2839       056217.73  0.0000-1.00000  0.0000
FORCE          1    2840       039994.70  0.0000-1.00000  0.0000
FORCE          1    2841       052552.34  0.0000-1.00000  0.0000
FORCE          1    2842       061884.15  0.0000-1.00000  0.0000
FORCE          1    2843       01.8980+5  0.0000-1.00000  0.0000
FORCE          1    2844       01.8294+5  0.0000-1.00000  0.0000
FORCE          1    2845       01.8712+5  0.0000-1.00000  0.0000
FORCE          1    2846       01.8820+5  0.0000-1.00000  0.0000
FORCE          1    2847       01.8744+5  0.0000-1.00000  0.0000
FORCE          1    2848       01.8437+5  0.0000-1.00000  0.0000
FORCE          1    2849       01.8343+5  0.0000-1.00000  0.0000
FORCE          1    2850       02.0168+5  0.0000-1.00000  0.0000
FORCE          1    2851       01.7323+5  0.0000-1.00000  0.0000
FORCE          1    2852       01.7343+5  0.0000-1.00000  0.0000
FORCE          1    2853       01.7278+5  0.0000-1.00000  0.0000
FORCE          1    2854       01.7132+5  0.0000-1.00000  0.0000
FORCE          1    2855       01.7534+5  0.0000-1.00000  0.0000
FORCE          1    2856       01.7882+5  0.0000-1.00000  0.0000
FORCE          1    2857       01.7814+5  0.0000-1.00000  0.0000
FORCE          1    2858       01.7724+5  0.0000-1.00000  0.0000
FORCE          1    2859       01.8876+5  0.0000-1.00000  0.0000
FORCE          1    2860       01.9525+5  0.0000-1.00000  0.0000
FORCE          1    2861       01.8561+5  0.0000-1.00000  0.0000
FORCE          1    2862       01.8375+5  0.0000-1.00000  0.0000
FORCE          1    2863       01.8019+5  0.0000-1.00000  0.0000
FORCE          1    2864       01.7912+5  0.0000-1.00000  0.0000
FORCE          1    2865       01.7689+5  0.0000-1.00000  0.0000
FORCE          1    2866       01.8234+5  0.0000-1.00000  0.0000
FORCE          1    2867       01.7220+5  0.0000-1.00000  0.0000
FORCE          1    2868       01.7139+5  0.0000-1.00000  0.0000
FORCE          1    2869       01.7218+5  0.0000-1.00000  0.0000
FORCE          1    2870       01.7312+5  0.0000-1.00000  0.0000
FORCE          1    2871       01.7432+5  0.0000-1.00000  0.0000
FORCE          1    2872       01.7503+5  0.0000-1.00000  0.0000
FORCE          1    2873       01.7381+5  0.0000-1.00000  0.0000
FORCE          1    2874       01.7527+5  0.0000-1.00000  0.0000
FORCE          1    2875       01.7265+5  0.0000-1.00000  0.0000
FORCE          1    2876       01.7642+5  0.0000-1.00000  0.0000
FORCE          1    2877       01.7784+5  0.0000-1.00000  0.0000
FORCE          1    2878       01.7454+5  0.0000-1.00000  0.0000
FORCE          1    2879       01.7800+5  0.0000-1.00000  0.0000
FORCE          1    2880       01.8027+5  0.0000-1.00000  0.0000
FORCE          1    2881       01.8199+5  0.0000-1.00000  0.0000
FORCE          1    2882       01.8181+5  0.0000-1.00000  0.0000
FORCE          1    2883       01.8144+5  0.0000-1.00000  0.0000
FORCE          1    2884       01.8228+5  0.0000-1.00000  0.0000
FORCE          1    2885       01.8319+5  0.0000-1.00000  0.0000
FORCE          1    2886       01.7115+5  0.0000-1.00000  0.0000
FORCE          1    2887       01.6941+5  0.0000-1.00000  0.0000
FORCE          1    2888       01.7024+5  0.0000-1.00000  0.0000
FORCE          1    2889       01.7099+5  0.0000-1.00000  0.0000
FORCE          1    2890       01.6715+5  0.0000-1.00000  0.0000
FORCE          1    2891       01.8539+5  0.0000-1.00000  0.0000
FORCE          1    2892       01.7384+5  0.0000-1.00000  0.0000
FORCE          1    2893       01.8507+5  0.0000-1.00000  0.0000
FORCE          1    2894       01.7072+5  0.0000-1.00000  0.0000
FORCE          1    2895       01.6721+5  0.0000-1.00000  0.0000
FORCE          1    2896       01.6375+5  0.0000-1.00000  0.0000
FORCE          1    2897       01.5018+5  0.0000-1.00000  0.0000
FORCE          1    2898       01.5812+5  0.0000-1.00000  0.0000
FORCE          1    2899       01.7317+5  0.0000-1.00000  0.0000
FORCE          1    2900       01.5385+5  0.0000-1.00000  0.0000
FORCE          1    2901       01.6342+5  0.0000-1.00000  0.0000
FORCE          1    2902       01.6447+5  0.0000-1.00000  0.0000
FORCE          1    2903       01.4526+5  0.0000-1.00000  0.0000
FORCE          1    2904       01.5464+5  0.0000-1.00000  0.0000
FORCE          1    2905       01.5513+5  0.0000-1.00000  0.0000
FORCE          1    2906       01.1893+5  0.0000-1.00000  0.0000
FORCE          1    2907       01.7466+5  0.0000-1.00000  0.0000
FORCE          1    2908       01.4606+5  0.0000-1.00000  0.0000
FORCE          1    2909       01.7827+5  0.0000-1.00000  0.0000
FORCE          1    2910       01.7782+5  0.0000-1.00000  0.0000
FORCE          1    2911       01.5649+5  0.0000-1.00000  0.0000
FORCE          1    2912       01.6889+5  0.0000-1.00000  0.0000
FORCE          1    2913       01.6785+5  0.0000-1.00000  0.0000
FORCE          1    2914       01.6582+5  0.0000-1.00000  0.0000
FORCE          1    2915       01.6184+5  0.0000-1.00000  0.0000
FORCE          1    2916       01.7120+5  0.0000-1.00000  0.0000
FORCE          1    2917       01.8535+5  0.0000-1.00000  0.0000
FORCE          1    2918       01.5651+5  0.0000-1.00000  0.0000
FORCE          1    2919       01.5946+5  0.0000-1.00000  0.0000
FORCE          1    2920       01.7078+5  0.0000-1.00000  0.0000
FORCE          1    2921       01.6240+5  0.0000-1.00000  0.0000
FORCE          1    2922       01.4408+5  0.0000-1.00000  0.0000
FORCE          1    2923       01.3922+5  0.0000-1.00000  0.0000
FORCE          1    2924       01.3776+5  0.0000-1.00000  0.0000
FORCE          1    2925       01.5390+5  0.0000-1.00000  0.0000
FORCE          1    2926       01.6949+5  0.0000-1.00000  0.0000
FORCE          1    2927       01.3985+5  0.0000-1.00000  0.0000
FORCE          1    2928       01.5525+5  0.0000-1.00000  0.0000
FORCE          1    2929       01.7134+5  0.0000-1.00000  0.0000
FORCE          1    2930       01.5093+5  0.0000-1.00000  0.0000
FORCE          1    2931       01.4213+5  0.0000-1.00000  0.0000
FORCE          1    2932       01.7460+5  0.0000-1.00000  0.0000
FORCE          1    2933       01.8207+5  0.0000-1.00000  0.0000
FORCE          1    2934       01.8436+5  0.0000-1.00000  0.0000
FORCE          1    2935       01.4764+5  0.0000-1.00000  0.0000
FORCE          1    2936       01.0570+5  0.0000-1.00000  0.0000
FORCE          1    2937       01.4253+5  0.0000-1.00000  0.0000
FORCE          1    2938       01.8677+5  0.0000-1.00000  0.0000
FORCE          1    2939       02.0488+5  0.0000-1.00000  0.0000
FORCE          1    2940       02.0470+5  0.0000-1.00000  0.0000
FORCE          1    2941       050033.60  0.0000-1.00000  0.0000
FORCE          1    2942       050683.29  0.0000-1.00000  0.0000
FORCE          1    2943       059777.18  0.0000-1.00000  0.0000
FORCE          1    2944       046866.44  0.0000-1.00000  0.0000
FORCE          1    2945       042066.73  0.0000-1.00000  0.0000
FORCE          1    2946       039278.68  0.0000-1.00000  0.0000
FORCE          1    2947       043674.61  0.0000-1.00000  0.0000
FORCE          1    2948       039862.38  0.0000-1.00000  0.0000
FORCE          1    2949       039329.19  0.0000-1.00000  0.0000
FORCE          1    2950       041431.22  0.0000-1.00000  0.0000
FORCE          1    2951       033425.23  0.0000-1.00000  0.0000
FORCE          1    2952       026735.11  0.0000-1.00000  0.0000
FORCE          1    2953       036279.55  0.0000-1.00000  0.0000
FORCE          1    2954       065547.67  0.0000-1.00000  0.0000
FORCE          1    2955       052259.58  0.0000-1.00000  0.0000
FORCE          1    2956       058064.69  0.0000-1.00000  0.0000
FORCE          1    2957       083403.02  0.0000-1.00000  0.0000
FORCE          1    2958       069205.69  0.0000-1.00000  0.0000
FORCE          1    2959       065193.42  0.0000-1.00000  0.0000
FORCE          1    2960       072975.43  0.0000-1.00000  0.0000
FORCE          1    2961       058201.56  0.0000-1.00000  0.0000
FORCE          1    2962       038371.87  0.0000-1.00000  0.0000
FORCE          1    2963       029529.64  0.0000-1.00000  0.0000
FORCE          1    2964       040114.38  0.0000-1.00000  0.0000
FORCE          1    2965       030201.37  0.0000-1.00000  0.0000
FORCE          1    2966       037830.80  0.0000-1.00000  0.0000
FORCE          1    2967       063142.62  0.0000-1.00000  0.0000
FORCE          1    2968       075635.59  0.0000-1.00000  0.0000
FORCE          1    2969       086584.57  0.0000-1.00000  0.0000
FORCE          1    2970       038928.58  0.0000-1.00000  0.0000
FORCE          1    2971       030658.06  0.0000-1.00000  0.0000
FORCE          1    2972       040993.06  0.0000-1.00000  0.0000
FORCE          1    2973       048696.75  0.0000-1.00000  0.0000
FORCE          1    2974       026285.12  0.0000-1.00000  0.0000
FORCE          1    2975       033068.00  0.0000-1.00000  0.0000
FORCE          1    2976       026528.87  0.0000-1.00000  0.0000
FORCE          1    2977       032886.34  0.0000-1.00000  0.0000
FORCE          1    2978       047715.35  0.0000-1.00000  0.0000
FORCE          1    2979       055610.25  0.0000-1.00000  0.0000
FORCE          1    2980       055476.52  0.0000-1.00000  0.0000
FORCE          1    2981       047936.63  0.0000-1.00000  0.0000
FORCE          1    2982       055909.96  0.0000-1.00000  0.0000
FORCE          1    2983       037935.20  0.0000-1.00000  0.0000
FORCE          1    2984       067556.38  0.0000-1.00000  0.0000
FORCE          1    2985       085025.31  0.0000-1.00000  0.0000
FORCE          1    2986       047359.74  0.0000-1.00000  0.0000
FORCE          1    2987       033298.88  0.0000-1.00000  0.0000
FORCE          1    2988       045212.29  0.0000-1.00000  0.0000
FORCE          1    2989       045419.58  0.0000-1.00000  0.0000
FORCE          1    2990       049166.47  0.0000-1.00000  0.0000
FORCE          1    2991       055243.63  0.0000-1.00000  0.0000
FORCE          1    2992       088223.27  0.0000-1.00000  0.0000
FORCE          1    2993       01.1047+5  0.0000-1.00000  0.0000
FORCE          1    2994       054786.65  0.0000-1.00000  0.0000
FORCE          1    2995       048960.48  0.0000-1.00000  0.0000
FORCE          1    2996       071934.12  0.0000-1.00000  0.0000
FORCE          1    2997       070550.08  0.0000-1.00000  0.0000
FORCE          1    2998       064204.95  0.0000-1.00000  0.0000
FORCE          1    2999       043807.47  0.0000-1.00000  0.0000
FORCE          1    3000       039359.97  0.0000-1.00000  0.0000
FORCE          1    3001       030480.84  0.0000-1.00000  0.0000
FORCE          1    3002       01.7396+5  0.0000-1.00000  0.0000
FORCE          1    3003       01.7222+5  0.0000-1.00000  0.0000
FORCE          1    3004       01.7565+5  0.0000-1.00000  0.0000
FORCE          1    3005       01.7834+5  0.0000-1.00000  0.0000
FORCE          1    3006       01.7430+5  0.0000-1.00000  0.0000
FORCE          1    3007       01.7547+5  0.0000-1.00000  0.0000
FORCE          1    3008       01.7138+5  0.0000-1.00000  0.0000
FORCE          1    3009       01.7782+5  0.0000-1.00000  0.0000
FORCE          1    3010       01.8083+5  0.0000-1.00000  0.0000
FORCE          1    3011       01.7496+5  0.0000-1.00000  0.0000
FORCE          1    3012       01.7793+5  0.0000-1.00000  0.0000
FORCE          1    3013       01.7946+5  0.0000-1.00000  0.0000
FORCE          1    3014       01.8002+5  0.0000-1.00000  0.0000
FORCE          1    3015       01.8086+5  0.0000-1.00000  0.0000
FORCE          1    3016       01.8293+5  0.0000-1.00000  0.0000
FORCE          1    3017       01.8173+5  0.0000-1.00000  0.0000
FORCE          1    3018       01.8081+5  0.0000-1.00000  0.0000
FORCE          1    3019       01.8222+5  0.0000-1.00000  0.0000
FORCE          1    3020       01.9451+5  0.0000-1.00000  0.0000
FORCE          1    3021       01.8493+5  0.0000-1.00000  0.0000
FORCE          1    3022       01.8311+5  0.0000-1.00000  0.0000
FORCE          1    3023       01.8159+5  0.0000-1.00000  0.0000
FORCE          1    3024       062427.23  0.0000-1.00000  0.0000
FORCE          1    3025       049258.72  0.0000-1.00000  0.0000
FORCE          1    3026       059754.24  0.0000-1.00000  0.0000
FORCE          1    3027       091941.33  0.0000-1.00000  0.0000
FORCE          1    3028       082737.02  0.0000-1.00000  0.0000
FORCE          1    3029       074583.46  0.0000-1.00000  0.0000
FORCE          1    3030       048804.76  0.0000-1.00000  0.0000
FORCE          1    3031       01.0450+5  0.0000-1.00000  0.0000
FORCE          1    3032       080712.70  0.0000-1.00000  0.0000
FORCE          1    3033       01.0014+5  0.0000-1.00000  0.0000
FORCE          1    3034       064347.29  0.0000-1.00000  0.0000
FORCE          1    3035       098084.48  0.0000-1.00000  0.0000
FORCE          1    3036       01.3143+5  0.0000-1.00000  0.0000
FORCE          1    3037       048911.73  0.0000-1.00000  0.0000
FORCE          1    3038       045328.54  0.0000-1.00000  0.0000
FORCE          1    3039       082301.87  0.0000-1.00000  0.0000
FORCE          1    3040       01.2208+5  0.0000-1.00000  0.0000
FORCE          1    3041       062295.39  0.0000-1.00000  0.0000
FORCE          1    3042       085303.90  0.0000-1.00000  0.0000
FORCE          1    3043       073224.31  0.0000-1.00000  0.0000
FORCE          1    3044       065171.95  0.0000-1.00000  0.0000
FORCE          1    3045       097667.99  0.0000-1.00000  0.0000
FORCE          1    3046       01.2771+5  0.0000-1.00000  0.0000
FORCE          1    3047       01.2765+5  0.0000-1.00000  0.0000
FORCE          1    3048       01.4631+5  0.0000-1.00000  0.0000
FORCE          1    3049       01.4221+5  0.0000-1.00000  0.0000
FORCE          1    3050       01.6752+5  0.0000-1.00000  0.0000
FORCE          1    3051       02.0013+5  0.0000-1.00000  0.0000
FORCE          1    3052       02.0159+5  0.0000-1.00000  0.0000
FORCE          1    3053       01.8255+5  0.0000-1.00000  0.0000
FORCE          1    3054       01.8343+5  0.0000-1.00000  0.0000
FORCE          1    3055       01.6748+5  0.0000-1.00000  0.0000
FORCE          1    3056       01.7124+5  0.0000-1.00000  0.0000
FORCE          1    3057       01.6624+5  0.0000-1.00000  0.0000
FORCE          1    3058       01.6828+5  0.0000-1.00000  0.0000
FORCE          1    3059       01.5793+5  0.0000-1.00000  0.0000
FORCE          1    3060       01.7156+5  0.0000-1.00000  0.0000
FORCE          1    3061       01.7151+5  0.0000-1.00000  0.0000
FORCE          1    3062       01.6947+5  0.0000-1.00000  0.0000
FORCE          1    3063       01.6580+5  0.0000-1.00000  0.0000
FORCE          1    3064       01.7315+5  0.0000-1.00000  0.0000
FORCE          1    3065       01.6944+5  0.0000-1.00000  0.0000
FORCE          1    3066       01.7531+5  0.0000-1.00000  0.0000
FORCE          1    3067       01.7406+5  0.0000-1.00000  0.0000
FORCE          1    3068       01.7933+5  0.0000-1.00000  0.0000
FORCE          1    3069       02.0406+5  0.0000-1.00000  0.0000
FORCE          1    3070       02.2491+5  0.0000-1.00000  0.0000
FORCE          1    3071       01.9281+5  0.0000-1.00000  0.0000
FORCE          1    3072       01.8492+5  0.0000-1.00000  0.0000
FORCE          1    3073       01.8748+5  0.0000-1.00000  0.0000
FORCE          1    3074       01.2930+5  0.0000-1.00000  0.0000
FORCE          1    3075       01.5583+5  0.0000-1.00000  0.0000
FORCE          1    3076       01.3863+5  0.0000-1.00000  0.0000
FORCE          1    3077       01.4480+5  0.0000-1.00000  0.0000
FORCE          1    3078       01.6539+5  0.0000-1.00000  0.0000
FORCE          1    3079       01.1679+5  0.0000-1.00000  0.0000
FORCE          1    3080       01.3999+5  0.0000-1.00000  0.0000
FORCE          1    3081       01.2209+5  0.0000-1.00000  0.0000
FORCE          1    3082       01.7922+5  0.0000-1.00000  0.0000
FORCE          1    3083       01.7569+5  0.0000-1.00000  0.0000
FORCE          1    3084       01.4743+5  0.0000-1.00000  0.0000
FORCE          1    3085       01.3394+5  0.0000-1.00000  0.0000
FORCE          1    3086       01.7899+5  0.0000-1.00000  0.0000
FORCE          1    3087       01.6706+5  0.0000-1.00000  0.0000
FORCE          1    3088       01.3612+5  0.0000-1.00000  0.0000
FORCE          1    3089       01.6582+5  0.0000-1.00000  0.0000
FORCE          1    3090       01.6688+5  0.0000-1.00000  0.0000
FORCE          1    3091       01.3658+5  0.0000-1.00000  0.0000
FORCE          1    3092       01.5344+5  0.0000-1.00000  0.0000
FORCE          1    3093       01.1996+5  0.0000-1.00000  0.0000
FORCE          1    3094       01.5927+5  0.0000-1.00000  0.0000
FORCE          1    3095       01.5491+5  0.0000-1.00000  0.0000
FORCE          1    3096       01.6935+5  0.0000-1.00000  0.0000
FORCE          1    3097       01.7223+5  0.0000-1.00000  0.0000
FORCE          1    3098       01.6422+5  0.0000-1.00000  0.0000
FORCE          1    3099       01.5880+5  0.0000-1.00000  0.0000
FORCE          1    3100       01.6068+5  0.0000-1.00000  0.0000
FORCE          1    3101       01.2130+5  0.0000-1.00000  0.0000
FORCE          1    3102       01.3424+5  0.0000-1.00000  0.0000
FORCE          1    3103       01.4078+5  0.0000-1.00000  0.0000
FORCE          1    3104       01.5233+5  0.0000-1.00000  0.0000
FORCE          1    3105       01.6372+5  0.0000-1.00000  0.0000
FORCE          1    3106       062376.48  0.0000-1.00000  0.0000
FORCE          1    3107       060802.18  0.0000-1.00000  0.0000
FORCE          1    3108       01.2811+5  0.0000-1.00000  0.0000
FORCE          1    3109       01.6494+5  0.0000-1.00000  0.0000
FORCE          1    3110       01.1170+5  0.0000-1.00000  0.0000
FORCE          1    3111       01.6819+5  0.0000-1.00000  0.0000
FORCE          1    3112       01.6898+5  0.0000-1.00000  0.0000
FORCE          1    3113       01.6806+5  0.0000-1.00000  0.0000
FORCE          1    3114       01.8174+5  0.0000-1.00000  0.0000
FORCE          1    3115       01.7806+5  0.0000-1.00000  0.0000
FORCE          1    3116       01.5391+5  0.0000-1.00000  0.0000
FORCE          1    3117       01.6678+5  0.0000-1.00000  0.0000
FORCE          1    3118       01.6640+5  0.0000-1.00000  0.0000
FORCE          1    3119       01.6029+5  0.0000-1.00000  0.0000
FORCE          1    3120       01.7591+5  0.0000-1.00000  0.0000
FORCE          1    3121       01.5284+5  0.0000-1.00000  0.0000
FORCE          1    3122       01.0375+5  0.0000-1.00000  0.0000
FORCE          1    3123       085761.51  0.0000-1.00000  0.0000
FORCE          1    3124       01.0751+5  0.0000-1.00000  0.0000
FORCE          1    3125       01.2137+5  0.0000-1.00000  0.0000
FORCE          1    3126       01.2361+5  0.0000-1.00000  0.0000
FORCE          1    3127       01.8006+5  0.0000-1.00000  0.0000
FORCE          1    3128       01.8994+5  0.0000-1.00000  0.0000
FORCE          1    3129       01.6671+5  0.0000-1.00000  0.0000
FORCE          1    3130       01.5911+5  0.0000-1.00000  0.0000
FORCE          1    3131       01.3600+5  0.0000-1.00000  0.0000
FORCE          1    3132       01.6558+5  0.0000-1.00000  0.0000
FORCE          1    3133       01.1730+5  0.0000-1.00000  0.0000
FORCE          1    3134       01.4895+5  0.0000-1.00000  0.0000
FORCE          1    3135       01.5618+5  0.0000-1.00000  0.0000
FORCE          1    3136       01.4559+5  0.0000-1.00000  0.0000
FORCE          1    3137       02.1612+5  0.0000-1.00000  0.0000
FORCE          1    3138       02.4140+5  0.0000-1.00000  0.0000
FORCE          1    3139       01.8306+5  0.0000-1.00000  0.0000
FORCE          1    3140       02.0215+5  0.0000-1.00000  0.0000
FORCE          1    3141       02.2151+5  0.0000-1.00000  0.0000
FORCE          1    3142       01.5359+5  0.0000-1.00000  0.0000
FORCE          1    3143       01.8355+5  0.0000-1.00000  0.0000
FORCE          1    3144       01.9948+5  0.0000-1.00000  0.0000
FORCE          1    3145       01.8630+5  0.0000-1.00000  0.0000
FORCE          1    3146       01.8837+5  0.0000-1.00000  0.0000
$*  Constraint: Fixed(1)
SPC            2       1  123456  0.0000
SPC            2       2  123456  0.0000
SPC            2       3  123456  0.0000
SPC            2       4  123456  0.0000
SPC            2      13  123456  0.0000
SPC            2      14  123456  0.0000
SPC            2      15  123456  0.0000
SPC            2      16  123456  0.0000
SPC            2      20  123456  0.0000
SPC            2      21  123456  0.0000
SPC            2      22  123456  0.0000
SPC            2      23  123456  0.0000
SPC            2      24  123456  0.0000
SPC            2      25  123456  0.0000
SPC            2      26  123456  0.0000
SPC            2      27  123456  0.0000
SPC            2      28  123456  0.0000
SPC            2      29  123456  0.0000
SPC            2      30  123456  0.0000
SPC            2      31  123456  0.0000
SPC            2      32  123456  0.0000
SPC            2      33  123456  0.0000
SPC            2      34  123456  0.0000
SPC            2      35  123456  0.0000
SPC            2      36  123456  0.0000
SPC            2      37  123456  0.0000
SPC            2      38  123456  0.0000
SPC            2      39  123456  0.0000
SPC            2      40  123456  0.0000
SPC            2      41  123456  0.0000
SPC            2      42  123456  0.0000
SPC            2      43  123456  0.0000
SPC            2      57  123456  0.0000
SPC            2      89  123456  0.0000
SPC            2     162  123456  0.0000
SPC            2     194  123456  0.0000
SPC            2     209  123456  0.0000
SPC            2     210  123456  0.0000
SPC            2     211  123456  0.0000
SPC            2     212  123456  0.0000
SPC            2     213  123456  0.0000
SPC            2     214  123456  0.0000
SPC            2     215  123456  0.0000
SPC            2     216  123456  0.0000
SPC            2     217  123456  0.0000
SPC            2     218  123456  0.0000
SPC            2     219  123456  0.0000
SPC            2     220  123456  0.0000
SPC            2     221  123456  0.0000
SPC            2     222  123456  0.0000
SPC            2     223  123456  0.0000
SPC            2     224  123456  0.0000
SPC            2     225  123456  0.0000
SPC            2     226  123456  0.0000
SPC            2     227  123456  0.0000
SPC            2     228  123456  0.0000
SPC            2     229  123456  0.0000
SPC            2     230  123456  0.0000
SPC            2     231  123456  0.0000
SPC            2     232  123456  0.0000
SPC            2     233  123456  0.0000
SPC            2     234  123456  0.0000
SPC            2     423  123456  0.0000
SPC            2     424  123456  0.0000
SPC            2     425  123456  0.0000
SPC            2     426  123456  0.0000
SPC            2     427  123456  0.0000
SPC            2     428  123456  0.0000
SPC            2     429  123456  0.0000
SPC            2     430  123456  0.0000
SPC            2     431  123456  0.0000
SPC            2     432  123456  0.0000
SPC            2     433  123456  0.0000
SPC            2     434  123456  0.0000
SPC            2    1397  123456  0.0000
SPC            2    1398  123456  0.0000
SPC            2    1399  123456  0.0000
SPC            2    1400  123456  0.0000
SPC            2    1401  123456  0.0000
SPC            2    1402  123456  0.0000
SPC            2    1403  123456  0.0000
SPC            2    1404  123456  0.0000
SPC            2    1405  123456  0.0000
SPC            2    1406  123456  0.0000
SPC            2    1407  123456  0.0000
SPC            2    1408  123456  0.0000
SPC            2    1409  123456  0.0000
ENDDATA b19c2486
