$*$$$$$$$$$$$$$$$$$$$$$$$$$$$$$$$$$$$$$$$$$$$$$$$$$$$$$$$$$$$$$$$$$
$*
$*                    Simcenter v2206.0.0.8101 Translator
$*                    for Simcenter Nastran version 2206.0
$*
$*             FEM FILE: D:\Latex_docs\MaM\HWs\HW_CAE_STR1\solution\1\HW_CAE_STR1_1\HW_CAE_STR1_1_fem3.fem
$*             SIM FILE: D:\Latex_docs\MaM\HWs\HW_CAE_STR1\solution\1\HW_CAE_STR1_1\HW_CAE_STR1_1_sim3.sim
$*        ANALYSIS TYPE: Structural
$*        SOLUTION NAME: Solution 1
$*        SOLUTION TYPE: SOL 101 Linear Statics
$*
$*    SOLVER INPUT FILE: hw_cae_str1_1_sim3-solution_1.dat
$*        CREATION DATE: 18-Apr-2023
$*        CREATION TIME: 11:32:12
$*             HOSTNAME: DESKTOP-6AFHIMM
$*      NASTRAN LICENSE: Desktop Bundle
$*
$*                UNITS: mm (milli-newton)
$*                      ... LENGTH : mm
$*                      ... TIME   : sec
$*                      ... MASS   : kilogram (kg)
$*                      ... TEMPERATURE : deg Celsius
$*                      ... FORCE  : milli-newton
$*                      ... THERMAL ENERGY : mN-mm (micro-joule)
$*
$* IMPORTANT NOTE:
$*     This banner was generated by Simcenter and altering this 
$*     information may compromise the pre and post processing of results
$*
$*$$$$$$$$$$$$$$$$$$$$$$$$$$$$$$$$$$$$$$$$$$$$$$$$$$$$$$$$$$$$$$$$$
$*
$*$$$$$$$$$$$$$$$$$$$$$$$$$$$$$$$$$$$
$*
$* FILE MANAGEMENT
$*
$*$$$$$$$$$$$$$$$$$$$$$$$$$$$$$$$$$$$
$*
$*
$*$$$$$$$$$$$$$$$$$$$$$$$$$$$$$$$$$$$
$*
$* EXECUTIVE CONTROL
$*
$*$$$$$$$$$$$$$$$$$$$$$$$$$$$$$$$$$$$
$*
ID,NASTRAN,hw_cae_str1_1_sim3-solution_1
SOL 101
CEND
$*
$*$$$$$$$$$$$$$$$$$$$$$$$$$$$$$$$$$$$
$*
$* CASE CONTROL
$*
$*$$$$$$$$$$$$$$$$$$$$$$$$$$$$$$$$$$$
$*
ECHO = NONE
OUTPUT
DISPLACEMENT(PLOT,REAL) = ALL
SPCFORCES(PLOT,REAL) = ALL
STRESS(PLOT,REAL,VONMISES,CENTER) = ALL
$*  Step: Subcase - Statics 1
SUBCASE 1
  LABEL = Subcase - Statics 1
  LOAD = 1
  SPC = 2
$*
$*$$$$$$$$$$$$$$$$$$$$$$$$$$$$$$$$$$$
$*
$* BULK DATA
$*
$*$$$$$$$$$$$$$$$$$$$$$$$$$$$$$$$$$$$
$*
BEGIN BULK
$*
$* PARAM CARDS
$*
PARAM      K6ROT100.0000
PARAM     OIBULK     YES
PARAM    OMACHPR     YES
PARAM       POST      -2
PARAM    POSTEXT     YES
PARAM    UNITSYS   MN-MM
$*
$* GRID CARDS
$*
GRID*                  1               0-2.500000000E+004.0000000294E+01+
*       6.5658233374E+01               0
GRID*                  2               0-2.500000000E+003.6105953493E+01+
*       6.5166260621E+01               0
GRID*                  3               0-2.500000000E+003.2456614745E+01+
*       6.3721393971E+01               0
GRID*                  4               0-2.500000000E+002.9281200892E+01+
*       6.1414353488E+01               0
GRID*                  5               0-2.500000000E+002.6779350052E+01+
*       5.8390072593E+01               0
GRID*                  6               0-2.500000000E+002.5108156030E+01+
*       5.4838664910E+01               0
GRID*                  7               0-2.500000000E+002.4372677968E+01+
*       5.0983176029E+01               0
GRID*                  8               0-2.500000000E+002.4619162353E+01+
*       4.7065950146E+01               0
GRID*                  9               0-2.500000000E+002.5832010179E+01+
*       4.3333058665E+01               0
GRID*                 10               0-2.500000000E+002.7935151237E+01+
*       4.0019071195E+01               0
GRID*                 11               0-2.500000000E+003.0796338246E+01+
*       3.7332260673E+01               0
GRID*                 12               0-2.500000000E+003.4235818589E+01+
*       3.5441344010E+01               0
GRID*                 13               0-2.500000000E+003.8037521536E+01+
*       3.4465269254E+01               0
GRID*                 14               0-2.500000000E+004.1962479808E+01+
*       3.4465270060E+01               0
GRID*                 15               0-2.500000000E+004.5764182739E+01+
*       3.5441344483E+01               0
GRID*                 16               0-2.500000000E+004.9203662368E+01+
*       3.7332262321E+01               0
GRID*                 17               0-2.500000000E+005.2064849739E+01+
*       4.0019071692E+01               0
GRID*                 18               0-2.500000000E+005.4167990168E+01+
*       4.3333059752E+01               0
GRID*                 19               0-2.500000000E+005.5380838604E+01+
*       4.7065950379E+01               0
GRID*                 20               0-2.500000000E+005.5627324016E+01+
*       5.0983176662E+01               0
GRID*                 21               0-2.500000000E+005.4891845107E+01+
*       5.4838666629E+01               0
GRID*                 22               0-2.500000000E+005.3220649269E+01+
*       5.8390073273E+01               0
GRID*                 23               0-2.500000000E+005.0718799381E+01+
*       6.1414353102E+01               0
GRID*                 24               0-2.500000000E+004.7543385678E+01+
*       6.3721395133E+01               0
GRID*                 25               0-2.500000000E+004.3894045931E+01+
*       6.5166260029E+01               0
GRID*                 26               0-2.500000000E+004.2997415902E+00+
*       6.5662641908E+01               0
GRID*                 27               0-2.500000000E+008.6594383747E+00+
*       6.5630696631E+01               0
GRID*                 28               0-2.500000000E+001.2950771914E+01+
*       6.5881947470E+01               0
GRID*                 29               0-2.500000000E+001.7135180052E+01+
*       6.5952322501E+01               0
GRID*                 30               0-2.500000000E+002.1357892382E+01+
*       6.5785869818E+01               0
GRID*                 31               0-2.500000000E+002.5931871235E+01+
*       6.5049007809E+01               0
GRID*                 32               0-2.500000000E+002.9246679050E+01+
*       6.5963028181E+01               0
GRID*                 33               0-2.500000000E+005.1378070539E+01+
*       6.6236633930E+01               0
GRID*                 34               0-2.500000000E+005.5328436928E+01+
*       6.6025786071E+01               0
GRID*                 35               0-2.500000000E+005.9451500859E+01+
*       6.5973903618E+01               0
GRID*                 36               0-2.500000000E+006.3547402323E+01+
*       6.5923192302E+01               0
GRID*                 37               0-2.500000000E+006.7635496102E+01+
*       6.5868152117E+01               0
GRID*                 38               0-2.500000000E+007.1739353880E+01+
*       6.5817504234E+01               0
GRID*                 39               0-2.500000000E+007.5862413483E+01+
*       6.5773634680E+01               0
GRID*                 40               0-2.500000000E+007.5929934363E+01+
*       6.1544964963E+01               0
GRID*                 41               0-2.500000000E+007.5991205516E+01+
*       5.7313609122E+01               0
GRID*                 42               0-2.500000000E+007.6037510244E+01+
*       5.3075032375E+01               0
GRID*                 43               0-2.500000000E+007.6057343339E+01+
*       4.8822047067E+01               0
GRID*                 44               0-2.500000000E+007.6050037810E+01+
*       4.4550404281E+01               0
GRID*                 45               0-2.500000000E+007.6031453017E+01+
*       4.0264240283E+01               0
GRID*                 46               0-2.500000000E+007.6018326751E+01+
*       3.5977467444E+01               0
GRID*                 47               0-2.500000000E+007.6019090414E+01+
*       3.1714403810E+01               0
GRID*                 48               0-2.500000000E+007.6010413868E+01+
*       2.7481821518E+01               0
GRID*                 49               0-2.500000000E+007.5975429941E+01+
*       2.3261062108E+01               0
GRID*                 50               0-2.500000000E+007.5915353605E+01+
*       1.9024905947E+01               0
GRID*                 51               0-2.500000000E+007.5850433388E+01+
*       1.4754045861E+01               0
GRID*                 52               0-2.500000000E+007.5807619910E+01+
*       1.0450936751E+01               0
GRID*                 53               0-2.500000000E+007.5788755201E+01+
*       6.1337638442E+00               0
GRID*                 54               0-2.500000000E+007.5785677764E+01+
*       1.8149984544E+00               0
GRID*                 55               0-2.500000000E+007.1563393730E+01+
*       1.8714341183E+00               0
GRID*                 56               0-2.500000000E+006.7323617721E+01+
*       1.9378790931E+00               0
GRID*                 57               0-2.500000000E+006.3057224348E+01+
*       2.0067282895E+00               0
GRID*                 58               0-2.500000000E+005.8762766455E+01+
*       2.0553677169E+00               0
GRID*                 59               0-2.500000000E+005.4458150423E+01+
*       2.0524444012E+00               0
GRID*                 60               0-2.500000000E+005.0164542462E+01+
*       2.0140867508E+00               0
GRID*                 61               0-2.500000000E+004.5886909094E+01+
*       1.9631650512E+00               0
GRID*                 62               0-2.500000000E+004.1624698712E+01+
*       1.9103579021E+00               0
GRID*                 63               0-2.500000000E+003.7379872687E+01+
*       1.8564151270E+00               0
GRID*                 64               0-2.500000000E+003.3159778580E+01+
*       1.7981604237E+00               0
GRID*                 65               0-2.500000000E+002.8971719959E+01+
*       1.7379014039E+00               0
GRID*                 66               0-2.500000000E+002.4815904918E+01+
*       1.6853440851E+00               0
GRID*                 67               0-2.500000000E+002.0683461033E+01+
*       1.6518194472E+00               0
GRID*                 68               0-2.500000000E+001.6560570132E+01+
*       1.6429474159E+00               0
GRID*                 69               0-2.500000000E+001.2434875607E+01+
*       1.6566484303E+00               0
GRID*                 70               0-2.500000000E+008.2995814712E+00+
*       1.6862205492E+00               0
GRID*                 71               0-2.500000000E+004.1539564857E+00+
*       1.7244108954E+00               0
GRID*                 72               0-2.500000000E+004.0982757358E+00+
*       5.9411795571E+00               0
GRID*                 73               0-2.500000000E+004.0424518751E+00+
*       1.0138880497E+01               0
GRID*                 74               0-2.500000000E+003.9953194224E+00+
*       1.4308638823E+01               0
GRID*                 75               0-2.500000000E+003.9740953069E+00+
*       1.8447202445E+01               0
GRID*                 76               0-2.500000000E+003.9984600453E+00+
*       2.2562206635E+01               0
GRID*                 77               0-2.500000000E+004.0788418483E+00+
*       2.6675815941E+01               0
GRID*                 78               0-2.500000000E+004.2042091691E+00+
*       3.0822269394E+01               0
GRID*                 79               0-2.500000000E+004.3406331110E+00+
*       3.5037433748E+01               0
GRID*                 80               0-2.500000000E+004.4454752923E+00+
*       3.9345123838E+01               0
GRID*                 81               0-2.500000000E+004.4857384811E+00+
*       4.3743904393E+01               0
GRID*                 82               0-2.500000000E+004.4614964427E+00+
*       4.8204799564E+01               0
GRID*                 83               0-2.500000000E+004.3831170266E+00+
*       5.2681073701E+01               0
GRID*                 84               0-2.500000000E+004.1039309783E+00+
*       5.6998280234E+01               0
GRID*                 85               0-2.500000000E+004.3468164645E+00+
*       6.1277739295E+01               0
GRID*                 86               0-2.500000000E+009.0016571240E+00+
*       6.0966129107E+01               0
GRID*                 87               0-2.500000000E+001.3381220840E+01+
*       6.1960152449E+01               0
GRID*                 88               0-2.500000000E+001.7387948174E+01+
*       6.2118707501E+01               0
GRID*                 89               0-2.500000000E+002.1325088256E+01+
*       6.2019280044E+01               0
GRID*                 90               0-2.500000000E+002.4868348623E+01+
*       6.1803665956E+01               0
GRID*                 91               0-2.500000000E+005.5841833814E+01+
*       6.1945141685E+01               0
GRID*                 92               0-2.500000000E+005.9998597467E+01+
*       6.1955019215E+01               0
GRID*                 93               0-2.500000000E+006.3960725622E+01+
*       6.1856188400E+01               0
GRID*                 94               0-2.500000000E+006.7909474472E+01+
*       6.1739809857E+01               0
GRID*                 95               0-2.500000000E+007.1900597281E+01+
*       6.1635464302E+01               0
GRID*                 96               0-2.500000000E+007.2039390401E+01+
*       5.7445099385E+01               0
GRID*                 97               0-2.500000000E+007.2145706693E+01+
*       5.3240443800E+01               0
GRID*                 98               0-2.500000000E+007.2187921644E+01+
*       4.9003413150E+01               0
GRID*                 99               0-2.500000000E+007.2159580360E+01+
*       4.4721119692E+01               0
GRID*                100               0-2.500000000E+007.2103256080E+01+
*       4.0400161649E+01               0
GRID*                101               0-2.500000000E+007.2063011128E+01+
*       3.6069162985E+01               0
GRID*                102               0-2.500000000E+007.2078140022E+01+
*       3.1801831177E+01               0
GRID*                103               0-2.500000000E+007.2070030291E+01+
*       2.7618588331E+01               0
GRID*                104               0-2.500000000E+007.1994718928E+01+
*       2.3468368613E+01               0
GRID*                105               0-2.500000000E+007.1851672110E+01+
*       1.9283050203E+01               0
GRID*                106               0-2.500000000E+007.1689426328E+01+
*       1.5008350807E+01               0
GRID*                107               0-2.500000000E+007.1594491812E+01+
*       1.0648783480E+01               0
GRID*                108               0-2.500000000E+007.1560924166E+01+
*       6.2602625313E+00               0
GRID*                109               0-2.500000000E+006.7294602194E+01+
*       6.4098720042E+00               0
GRID*                110               0-2.500000000E+006.2962465722E+01+
*       6.5774861487E+00               0
GRID*                111               0-2.500000000E+005.8549559979E+01+
*       6.7077184996E+00               0
GRID*                112               0-2.500000000E+005.4115176318E+01+
*       6.6722810979E+00               0
GRID*                113               0-2.500000000E+004.9726212081E+01+
*       6.5598299571E+00               0
GRID*                114               0-2.500000000E+004.5378653818E+01+
*       6.4390060967E+00               0
GRID*                115               0-2.500000000E+004.1061619429E+01+
*       6.3270870059E+00               0
GRID*                116               0-2.500000000E+003.6777251112E+01+
*       6.2166946165E+00               0
GRID*                117               0-2.500000000E+003.2547343573E+01+
*       6.0910677009E+00               0
GRID*                118               0-2.500000000E+002.8391729525E+01+
*       5.9552999648E+00               0
GRID*                119               0-2.500000000E+002.4308513593E+01+
*       5.8363025176E+00               0
GRID*                120               0-2.500000000E+002.0273374079E+01+
*       5.7629898376E+00               0
GRID*                121               0-2.500000000E+001.6253603247E+01+
*       5.7470513016E+00               0
GRID*                122               0-2.500000000E+001.2223429133E+01+
*       5.7817810353E+00               0
GRID*                123               0-2.500000000E+008.1709262545E+00+
*       5.8514811901E+00               0
GRID*                124               0-2.500000000E+008.0491230607E+00+
*       9.9821340608E+00               0
GRID*                125               0-2.500000000E+007.9432599104E+00+
*       1.4054690637E+01               0
GRID*                126               0-2.500000000E+007.8875597189E+00+
*       1.8059412242E+01               0
GRID*                127               0-2.500000000E+007.9242089356E+00+
*       2.2005978302E+01               0
GRID*                128               0-2.500000000E+008.0830150534E+00+
*       2.5933851839E+01               0
GRID*                129               0-2.500000000E+008.3534340163E+00+
*       2.9913440835E+01               0
GRID*                130               0-2.500000000E+008.6697328472E+00+
*       3.4029219857E+01               0
GRID*                131               0-2.500000000E+008.9354998372E+00+
*       3.8354347954E+01               0
GRID*                132               0-2.500000000E+009.0454701783E+00+
*       4.2909895847E+01               0
GRID*                133               0-2.500000000E+008.9893712371E+00+
*       4.7623785431E+01               0
GRID*                134               0-2.500000000E+009.0431949649E+00+
*       5.2549368553E+01               0
GRID*                135               0-2.500000000E+007.7927184561E+00+
*       5.6820930231E+01               0
GRID*                136               0-2.500000000E+001.3452987254E+01+
*       5.1361579322E+01               0
GRID*                137               0-2.500000000E+001.7465211534E+01+
*       5.0827566750E+01               0
GRID*                138               0-2.500000000E+002.1136574801E+01+
*       5.0782493446E+01               0
GRID*                139               0-2.500000000E+004.8423313518E+01+
*       6.7027944791E+01               0
GRID*                140               0-2.500000000E+004.6464557534E+01+
*       3.2009512115E+01               0
GRID*                141               0-2.500000000E+004.6718544089E+01+
*       2.8107984937E+01               0
GRID*                142               0-2.500000000E+004.7059112102E+01+
*       2.4089640500E+01               0
GRID*                143               0-2.500000000E+004.7653190355E+01+
*       1.9958211856E+01               0
GRID*                144               0-2.500000000E+004.8467915631E+01+
*       1.5646022627E+01               0
GRID*                145               0-2.500000000E+004.9168590067E+01+
*       1.1129775425E+01               0
GRID*                146               0-2.500000000E+004.4758129093E+01+
*       1.0916136882E+01               0
GRID*                147               0-2.500000000E+004.0379270766E+01+
*       1.0748715069E+01               0
GRID*                148               0-2.500000000E+003.6032657799E+01+
*       1.0590434723E+01               0
GRID*                149               0-2.500000000E+003.1782534594E+01+
*       1.0378374379E+01               0
GRID*                150               0-2.500000000E+002.7677193344E+01+
*       1.0128936612E+01               0
GRID*                151               0-2.500000000E+002.3704605696E+01+
*       9.9104694092E+00               0
GRID*                152               0-2.500000000E+001.9807122492E+01+
*       9.7857963397E+00               0
GRID*                153               0-2.500000000E+001.5920598635E+01+
*       9.7703485971E+00               0
GRID*                154               0-2.500000000E+001.2003573189E+01+
*       9.8443486432E+00               0
GRID*                155               0-2.500000000E+001.1813634363E+01+
*       1.3822420489E+01               0
GRID*                156               0-2.500000000E+001.1690736411E+01+
*       1.7683461236E+01               0
GRID*                157               0-2.500000000E+001.1707549229E+01+
*       2.1427636615E+01               0
GRID*                158               0-2.500000000E+001.1934484514E+01+
*       2.5102715867E+01               0
GRID*                159               0-2.500000000E+001.2388550008E+01+
*       2.8819964919E+01               0
GRID*                160               0-2.500000000E+001.2969897104E+01+
*       3.2730687710E+01               0
GRID*                161               0-2.500000000E+001.3530984634E+01+
*       3.6999983064E+01               0
GRID*                162               0-2.500000000E+001.3799081803E+01+
*       4.1768220413E+01               0
GRID*                163               0-2.500000000E+001.3448603009E+01+
*       4.6781817317E+01               0
GRID*                164               0-2.500000000E+001.7776024080E+01+
*       4.6193725301E+01               0
GRID*                165               0-2.500000000E+002.1524199265E+01+
*       4.6487216419E+01               0
GRID*                166               0-2.500000000E+002.3026280807E+01+
*       4.1855869371E+01               0
GRID*                167               0-2.500000000E+002.6021024107E+01+
*       3.7881594100E+01               0
GRID*                168               0-2.500000000E+002.9483212592E+01+
*       3.4916365454E+01               0
GRID*                169               0-2.500000000E+003.3453875361E+01+
*       3.2692187577E+01               0
GRID*                170               0-2.500000000E+003.7799839277E+01+
*       3.1544095409E+01               0
GRID*                171               0-2.500000000E+004.2134290225E+01+
*       3.1378682150E+01               0
GRID*                172               0-2.500000000E+004.2298646744E+01+
*       2.7821882945E+01               0
GRID*                173               0-2.500000000E+004.2634110780E+01+
*       2.3879877589E+01               0
GRID*                174               0-2.500000000E+004.3267107734E+01+
*       1.9681165063E+01               0
GRID*                175               0-2.500000000E+004.4025973251E+01+
*       1.5351026175E+01               0
GRID*                176               0-2.500000000E+003.9567108486E+01+
*       1.5167395978E+01               0
GRID*                177               0-2.500000000E+003.5083815691E+01+
*       1.5009887953E+01               0
GRID*                178               0-2.500000000E+003.0783295597E+01+
*       1.4662826432E+01               0
GRID*                179               0-2.500000000E+002.6771240344E+01+
*       1.4213085740E+01               0
GRID*                180               0-2.500000000E+002.2988411755E+01+
*       1.3834054010E+01               0
GRID*                181               0-2.500000000E+001.9300104905E+01+
*       1.3651207808E+01               0
GRID*                182               0-2.500000000E+001.5590274580E+01+
*       1.3662261637E+01               0
GRID*                183               0-2.500000000E+001.5339541805E+01+
*       1.7384038104E+01               0
GRID*                184               0-2.500000000E+001.5260275845E+01+
*       2.0892425226E+01               0
GRID*                185               0-2.500000000E+001.5499530792E+01+
*       2.4218643427E+01               0
GRID*                186               0-2.500000000E+001.6182034669E+01+
*       2.7517276579E+01               0
GRID*                187               0-2.500000000E+001.7132026985E+01+
*       3.1024416827E+01               0
GRID*                188               0-2.500000000E+001.8215426579E+01+
*       3.4976232026E+01               0
GRID*                189               0-2.500000000E+001.9372596801E+01+
*       3.9995080571E+01               0
GRID*                190               0-2.500000000E+002.4072935078E+01+
*       3.5211570034E+01               0
GRID*                191               0-2.500000000E+002.8034175659E+01+
*       3.2121576044E+01               0
GRID*                192               0-2.500000000E+003.2574073338E+01+
*       2.9353195964E+01               0
GRID*                193               0-2.500000000E+003.7618904542E+01+
*       2.8078246843E+01               0
GRID*                194               0-2.500000000E+003.7772035853E+01+
*       2.4023743161E+01               0
GRID*                195               0-2.500000000E+003.8660570628E+01+
*       1.9584426089E+01               0
GRID*                196               0-2.500000000E+003.3792214800E+01+
*       1.9612837854E+01               0
GRID*                197               0-2.500000000E+002.9395235285E+01+
*       1.8949918415E+01               0
GRID*                198               0-2.500000000E+002.5605745878E+01+
*       1.8109032527E+01               0
GRID*                199               0-2.500000000E+002.2177308076E+01+
*       1.7473464667E+01               0
GRID*                200               0-2.500000000E+001.8814008268E+01+
*       1.7264997921E+01               0
GRID*                201               0-2.500000000E+001.8488755615E+01+
*       2.0533508277E+01               0
GRID*                202               0-2.500000000E+001.8556166865E+01+
*       2.3389790763E+01               0
GRID*                203               0-2.500000000E+001.9535630165E+01+
*       2.6033469393E+01               0
GRID*                204               0-2.500000000E+002.0918873290E+01+
*       2.8890438155E+01               0
GRID*                205               0-2.500000000E+002.2462958413E+01+
*       3.1990103197E+01               0
GRID*                206               0-2.500000000E+002.6396928613E+01+
*       2.9108842934E+01               0
GRID*                207               0-2.500000000E+003.1563889015E+01+
*       2.5046070513E+01               0
GRID*                208               0-2.500000000E+002.4268537991E+01+
*       2.6478276404E+01               0
GRID*                209               0-2.500000000E+002.2247506785E+01+
*       2.4331094440E+01               0
GRID*                210               0-2.500000000E+002.0729946276E+01+
*       2.2794312986E+01               0
GRID*                211               0-2.500000000E+002.1356100801E+01+
*       2.0585761188E+01               0
GRID*                212               0-2.500000000E+002.4110118150E+01+
*       2.1592282205E+01               0
GRID*                213               0-2.500000000E+002.7304205343E+01+
*       2.3114187061E+01               0
GRID*                214               0-2.500000000E+006.8358735916E+01+
*       4.4949107678E+01               0
GRID*                215               0-2.500000000E+006.4698737812E+01+
*       4.5276659095E+01               0
GRID*                216               0-2.500000000E+006.1243779704E+01+
*       4.5751383556E+01               0
GRID*                217               0-2.500000000E+005.8107165283E+01+
*       4.6393305958E+01               0
GRID*                218               0-2.500000000E+006.8171267922E+01+
*       5.7610299316E+01               0
GRID*                219               0-2.500000000E+006.4401170379E+01+
*       5.7811109826E+01               0
GRID*                220               0-2.500000000E+006.1251597949E+01+
*       5.4054310992E+01               0
GRID*                221               0-2.500000000E+006.0714742568E+01+
*       5.8034814059E+01               0
GRID*                222               0-2.500000000E+005.7055170992E+01+
*       5.8252976440E+01               0
GRID*                223               0-2.500000000E+005.7986528281E+01+
*       5.4434068847E+01               0
GRID*                224               0-2.500000000E+006.8367408882E+01+
*       5.3455741691E+01               0
GRID*                225               0-2.500000000E+006.8440733917E+01+
*       4.9246160037E+01               0
GRID*                226               0-2.500000000E+006.4846251044E+01+
*       4.9565754820E+01               0
GRID*                227               0-2.500000000E+006.4737948422E+01+
*       5.3731635253E+01               0
GRID*                228               0-2.500000000E+005.8377620368E+01+
*       5.0466581329E+01               0
GRID*                229               0-2.500000000E+006.8219980549E+01+
*       4.0568532810E+01               0
GRID*                230               0-2.500000000E+006.8108291766E+01+
*       3.6129682202E+01               0
GRID*                231               0-2.500000000E+006.8194823109E+01+
*       3.1840361885E+01               0
GRID*                232               0-2.500000000E+006.8218378894E+01+
*       2.7750583386E+01               0
GRID*                233               0-2.500000000E+006.8098962175E+01+
*       2.3733509070E+01               0
GRID*                234               0-2.500000000E+006.7825638728E+01+
*       1.9655484468E+01               0
GRID*                235               0-2.500000000E+006.7475250988E+01+
*       1.5382999727E+01               0
GRID*                236               0-2.500000000E+006.7321688275E+01+
*       1.0914050594E+01               0
GRID*                237               0-2.500000000E+006.2923136968E+01+
*       1.1249890183E+01               0
GRID*                238               0-2.500000000E+005.8303667981E+01+
*       1.1600662468E+01               0
GRID*                239               0-2.500000000E+005.3652401208E+01+
*       1.1401303313E+01               0
GRID*                240               0-2.500000000E+005.2964033457E+01+
*       1.6172210871E+01               0
GRID*                241               0-2.500000000E+005.1776986488E+01+
*       2.0451277200E+01               0
GRID*                242               0-2.500000000E+005.1162337389E+01+
*       2.4437367576E+01               0
GRID*                243               0-2.500000000E+005.1011222331E+01+
*       2.8544151794E+01               0
GRID*                244               0-2.500000000E+005.1433243172E+01+
*       3.3557572564E+01               0
GRID*                245               0-2.500000000E+005.5115347779E+01+
*       3.7846491720E+01               0
GRID*                246               0-2.500000000E+005.7094642052E+01+
*       4.2217401482E+01               0
GRID*                247               0-2.500000000E+006.0566734749E+01+
*       4.1235580337E+01               0
GRID*                248               0-2.500000000E+006.4373974148E+01+
*       4.0807284561E+01               0
GRID*                249               0-2.500000000E+006.4030436954E+01+
*       3.6084957852E+01               0
GRID*                250               0-2.500000000E+006.4398873418E+01+
*       3.1736191953E+01               0
GRID*                251               0-2.500000000E+006.4516518663E+01+
*       2.7843295758E+01               0
GRID*                252               0-2.500000000E+006.4362162005E+01+
*       2.4075848007E+01               0
GRID*                253               0-2.500000000E+006.3896216288E+01+
*       2.0234138528E+01               0
GRID*                254               0-2.500000000E+006.3085023691E+01+
*       1.5998756724E+01               0
GRID*                255               0-2.500000000E+005.8019698867E+01+
*       1.7251106132E+01               0
GRID*                256               0-2.500000000E+005.5439178487E+01+
*       2.1241628316E+01               0
GRID*                257               0-2.500000000E+005.4835106209E+01+
*       2.4698651207E+01               0
GRID*                258               0-2.500000000E+005.4883542604E+01+
*       2.8253611101E+01               0
GRID*                259               0-2.500000000E+005.5780330317E+01+
*       3.1991229824E+01               0
GRID*                260               0-2.500000000E+005.9324091282E+01+
*       3.5678828983E+01               0
GRID*                261               0-2.500000000E+005.7907431068E+01+
*       2.4907631562E+01               0
GRID*                262               0-2.500000000E+006.0918265341E+01+
*       2.4498229119E+01               0
GRID*                263               0-2.500000000E+005.7872735579E+01+
*       2.2529219518E+01               0
GRID*                264               0-2.500000000E+006.0312933712E+01+
*       2.1167202609E+01               0
GRID*                265               0-2.500000000E+006.1070079266E+01+
*       2.7848698077E+01               0
GRID*                266               0-2.500000000E+005.7995531124E+01+
*       2.7784274922E+01               0
GRID*                267               0-2.500000000E+006.0841338247E+01+
*       3.1295366096E+01               0
GRID*                268               0-2.500000000E+005.8132342844E+01+
*       3.0278038356E+01               0
GRID*                269               0-2.500000000E+001.7691548289E+01+
*       5.8508793317E+01               0
GRID*                270               0-2.500000000E+001.7629704295E+01+
*       5.4838582425E+01               0
GRID*                271               0-2.500000000E+001.4093076764E+01+
*       5.8658148873E+01               0
GRID*                272               0-2.500000000E+001.3998842550E+01+
*       5.5260660866E+01               0
GRID*                273               0-2.500000000E+001.1177959387E+01+
*       5.8745317729E+01               0
GRID*                274               0-2.500000000E+002.1371105149E+01+
*       5.4720087999E+01               0
GRID*                275               0-2.500000000E+002.1696037248E+01+
*       5.8400209163E+01               0
GRID*                276               0-2.500000000E+006.1475368797E+01+
*       4.9979746797E+01               0
GRID*                277               0-2.500000000E+001.0858482775E+01+
*       5.6058579639E+01               0
GRID*                278               05.8717571826E+016.8000000000E+01+
*       -2.500000000E+00               0
GRID*                279               05.9438821505E+016.4840267374E+01+
*       -2.500000000E+00               0
GRID*                280               06.1459513873E+016.2306433819E+01+
*       -2.500000000E+00               0
GRID*                281               06.4379489659E+016.0900179159E+01+
*       -2.500000000E+00               0
GRID*                282               06.7620511192E+016.0900182174E+01+
*       -2.500000000E+00               0
GRID*                283               07.0540487347E+016.2306430221E+01+
*       -2.500000000E+00               0
GRID*                284               07.2561184218E+016.4840265102E+01+
*       -2.500000000E+00               0
GRID*                285               07.3282427004E+016.7999998038E+01+
*       -2.500000000E+00               0
GRID*                286               07.2561185795E+017.1159732151E+01+
*       -2.500000000E+00               0
GRID*                287               07.0540489223E+017.3693565824E+01+
*       -2.500000000E+00               0
GRID*                288               06.7620513159E+017.5099818301E+01+
*       -2.500000000E+00               0
GRID*                289               06.4379491745E+017.5099817370E+01+
*       -2.500000000E+00               0
GRID*                290               06.1459516141E+017.3693566340E+01+
*       -2.500000000E+00               0
GRID*                291               05.9438821634E+017.1159733310E+01+
*       -2.500000000E+00               0
GRID*                292               03.1217571879E+018.0000000123E+00+
*       -2.500000000E+00               0
GRID*                293               03.1938821426E+014.8402663421E+00+
*       -2.500000000E+00               0
GRID*                294               03.3959516174E+012.3064347193E+00+
*       -2.500000000E+00               0
GRID*                295               04.3040486406E+012.3064349036E+00+
*       -2.500000000E+00               0
GRID*                296               04.5061182950E+014.8402674269E+00+
*       -2.500000000E+00               0
GRID*                297               04.5782427153E+018.0000004346E+00+
*       -2.500000000E+00               0
GRID*                298               04.5061182643E+011.1159733131E+01+
*       -2.500000000E+00               0
GRID*                299               04.3040486282E+011.3693565723E+01+
*       -2.500000000E+00               0
GRID*                300               04.0120512628E+011.5099818913E+01+
*       -2.500000000E+00               0
GRID*                301               03.6879489708E+011.5099818490E+01+
*       -2.500000000E+00               0
GRID*                302               03.3959515757E+011.3693565589E+01+
*       -2.500000000E+00               0
GRID*                303               03.1938821406E+011.1159733426E+01+
*       -2.500000000E+00               0
GRID*                304               03.1217572126E+016.8000000000E+01+
*       -2.500000000E+00               0
GRID*                305               03.1938821601E+016.4840267970E+01+
*       -2.500000000E+00               0
GRID*                306               03.3959514247E+016.2306433477E+01+
*       -2.500000000E+00               0
GRID*                307               03.6879490333E+016.0900182657E+01+
*       -2.500000000E+00               0
GRID*                308               04.0120509848E+016.0900182977E+01+
*       -2.500000000E+00               0
GRID*                309               04.3040486397E+016.2306431885E+01+
*       -2.500000000E+00               0
GRID*                310               04.5061181145E+016.4840266557E+01+
*       -2.500000000E+00               0
GRID*                311               04.5782427290E+016.7999998740E+01+
*       -2.500000000E+00               0
GRID*                312               04.5061182109E+017.1159731961E+01+
*       -2.500000000E+00               0
GRID*                313               04.3040487235E+017.3693565134E+01+
*       -2.500000000E+00               0
GRID*                314               04.0120512143E+017.5099817119E+01+
*       -2.500000000E+00               0
GRID*                315               03.6879490494E+017.5099818000E+01+
*       -2.500000000E+00               0
GRID*                316               03.3959515379E+017.3693565114E+01+
*       -2.500000000E+00               0
GRID*                317               03.1938821730E+017.1159732818E+01+
*       -2.500000000E+00               0
GRID*                318               03.7175733582E+006.7999999826E+01+
*       -2.500000000E+00               0
GRID*                319               04.4388198222E+006.4840267354E+01+
*       -2.500000000E+00               0
GRID*                320               06.4595145082E+006.2306432632E+01+
*       -2.500000000E+00               0
GRID*                321               09.3794905751E+006.0900182556E+01+
*       -2.500000000E+00               0
GRID*                322               01.2620510509E+016.0900182380E+01+
*       -2.500000000E+00               0
GRID*                323               01.5540486833E+016.2306432112E+01+
*       -2.500000000E+00               0
GRID*                324               01.7561181285E+016.4840266262E+01+
*       -2.500000000E+00               0
GRID*                325               01.8282429732E+016.7999998650E+01+
*       -2.500000000E+00               0
GRID*                326               01.7561183094E+017.1159733154E+01+
*       -2.500000000E+00               0
GRID*                327               01.5540487038E+017.3693565160E+01+
*       -2.500000000E+00               0
GRID*                328               01.2620512681E+017.5099817754E+01+
*       -2.500000000E+00               0
GRID*                329               09.3794905700E+007.5099818055E+01+
*       -2.500000000E+00               0
GRID*                330               06.4595157046E+007.3693565923E+01+
*       -2.500000000E+00               0
GRID*                331               04.4388195648E+007.1159733593E+01+
*       -2.500000000E+00               0
GRID*                332               05.6435141784E+016.7999999990E+01+
*       -2.500000000E+00               0
GRID*                333               05.7382447552E+016.3849938091E+01+
*       -2.500000000E+00               0
GRID*                334               06.0036441568E+016.0521980254E+01+
*       -2.500000000E+00               0
GRID*                335               06.3871582123E+015.8674983641E+01+
*       -2.500000000E+00               0
GRID*                336               06.8128418515E+015.8674987453E+01+
*       -2.500000000E+00               0
GRID*                337               07.1963557442E+016.0521974450E+01+
*       -2.500000000E+00               0
GRID*                338               07.1963560092E+017.5478020582E+01+
*       -2.500000000E+00               0
GRID*                339               06.8128420658E+017.7325013660E+01+
*       -2.500000000E+00               0
GRID*                340               06.3871584079E+017.7325012266E+01+
*       -2.500000000E+00               0
GRID*                341               06.0036445173E+017.5478021161E+01+
*       -2.500000000E+00               0
GRID*                342               05.7382447865E+017.2150063276E+01+
*       -2.500000000E+00               0
GRID*                343               02.8935141982E+018.0000000255E+00+
*       -2.500000000E+00               0
GRID*                344               02.9882447704E+013.8499361129E+00+
*       -2.500000000E+00               0
GRID*                345               04.7117557630E+013.8499383858E+00+
*       -2.500000000E+00               0
GRID*                346               04.8064856086E+018.0000005643E+00+
*       -2.500000000E+00               0
GRID*                347               04.7117557252E+011.2150062209E+01+
*       -2.500000000E+00               0
GRID*                348               04.4463557102E+011.5478019754E+01+
*       -2.500000000E+00               0
GRID*                349               04.0628420817E+011.7325013824E+01+
*       -2.500000000E+00               0
GRID*                350               03.6371581374E+011.7325013310E+01+
*       -2.500000000E+00               0
GRID*                351               03.2536444551E+011.5478019588E+01+
*       -2.500000000E+00               0
GRID*                352               02.9882447643E+011.2150063436E+01+
*       -2.500000000E+00               0
GRID*                353               02.8935142399E+016.7999999983E+01+
*       -2.500000000E+00               0
GRID*                354               02.9882447925E+016.3849938990E+01+
*       -2.500000000E+00               0
GRID*                355               03.2536442886E+016.0521979275E+01+
*       -2.500000000E+00               0
GRID*                356               03.6371583311E+015.8674987974E+01+
*       -2.500000000E+00               0
GRID*                357               04.0628416403E+015.8674988313E+01+
*       -2.500000000E+00               0
GRID*                358               04.4463556850E+016.0521976870E+01+
*       -2.500000000E+00               0
GRID*                359               04.7117555474E+016.3849937946E+01+
*       -2.500000000E+00               0
GRID*                360               04.8064856571E+016.7999998328E+01+
*       -2.500000000E+00               0
GRID*                361               04.7117556650E+017.2150060621E+01+
*       -2.500000000E+00               0
GRID*                362               04.4463558201E+017.5478019453E+01+
*       -2.500000000E+00               0
GRID*                363               04.0628420142E+017.7325011833E+01+
*       -2.500000000E+00               0
GRID*                364               03.6371582798E+017.7325012908E+01+
*       -2.500000000E+00               0
GRID*                365               03.2536444123E+017.5478019111E+01+
*       -2.500000000E+00               0
GRID*                366               02.9882448184E+017.2150062558E+01+
*       -2.500000000E+00               0
GRID*                367               01.4351438704E+006.7999999636E+01+
*       -2.500000000E+00               0
GRID*                368               02.3824453641E+006.3849938615E+01+
*       -2.500000000E+00               0
GRID*                369               05.0364436389E+006.0521977852E+01+
*       -2.500000000E+00               0
GRID*                370               08.8715835807E+005.8674987734E+01+
*       -2.500000000E+00               0
GRID*                371               01.3128417242E+015.8674987479E+01+
*       -2.500000000E+00               0
GRID*                372               01.6963557563E+016.0521977172E+01+
*       -2.500000000E+00               0
GRID*                373               01.9617555329E+016.3849936892E+01+
*       -2.500000000E+00               0
GRID*                374               02.0564859452E+016.7999997864E+01+
*       -2.500000000E+00               0
GRID*                375               01.9617557459E+017.2150062818E+01+
*       -2.500000000E+00               0
GRID*                376               01.6963557782E+017.5478019643E+01+
*       -2.500000000E+00               0
GRID*                377               01.3128420837E+017.7325012707E+01+
*       -2.500000000E+00               0
GRID*                378               08.8715828406E+007.7325013097E+01+
*       -2.500000000E+00               0
GRID*                379               05.0364450790E+007.5478020540E+01+
*       -2.500000000E+00               0
GRID*                380               02.3824451600E+007.2150063122E+01+
*       -2.500000000E+00               0
GRID*                381               09.0207934268E-018.3950551731E+00+
*       -2.500000000E+00               0
GRID*                382               03.8217725337E+008.4062226546E+00+
*       -2.500000000E+00               0
GRID*                383               07.3311189129E+017.5666603128E+01+
*       -2.500000000E+00               0
GRID*                384               07.3358153942E+015.9795582030E+01+
*       -2.500000000E+00               0
GRID*                385               04.5032579491E+012.1983584145E+00+
*       -2.500000000E+00               0
GRID*                386               03.0610974866E+012.0282838839E+00+
*       -2.500000000E+00               0
GRID*                387               05.1447248631E+018.7577323833E+00+
*       -2.500000000E+00               0
GRID*                388               05.5099192063E+018.9174145489E+00+
*       -2.500000000E+00               0
GRID*                389               05.8412014980E+018.6720781040E+00+
*       -2.500000000E+00               0
GRID*                390               06.9925886310E+011.8757250248E+00+
*       -2.500000000E+00               0
GRID*                391               07.2808217601E+011.6995456000E+00+
*       -2.500000000E+00               0
GRID*                392               07.3031565918E+016.3110673493E+00+
*       -2.500000000E+00               0
GRID*                393               07.2596534832E+014.0234771074E+00+
*       -2.500000000E+00               0
GRID*                394               06.7667806586E+011.4209041177E+00+
*       -2.500000000E+00               0
GRID*                395               05.8689997990E+013.0655134544E+00+
*       -2.500000000E+00               0
GRID*                396               05.8480428123E+015.7814165352E+00+
*       -2.500000000E+00               0
GRID*                397               05.1787058063E+014.5368370030E+00+
*       -2.500000000E+00               0
GRID*                398               05.5274792948E+015.5319177798E+00+
*       -2.500000000E+00               0
GRID*                399               05.5744754298E+012.6746079332E+00+
*       -2.500000000E+00               0
GRID*                400               04.0093313982E+015.4609863011E+01+
*       -2.500000000E+00               0
GRID*                401               04.0444942860E+015.0702691821E+01+
*       -2.500000000E+00               0
GRID*                402               04.0889737619E+014.6835599485E+01+
*       -2.500000000E+00               0
GRID*                403               04.1140916616E+014.2948407746E+01+
*       -2.500000000E+00               0
GRID*                404               04.1265276190E+013.9087852444E+01+
*       -2.500000000E+00               0
GRID*                405               04.1317740028E+013.5259779267E+01+
*       -2.500000000E+00               0
GRID*                406               04.1315456126E+013.1461149212E+01+
*       -2.500000000E+00               0
GRID*                407               04.1266436511E+012.7694634205E+01+
*       -2.500000000E+00               0
GRID*                408               04.1217027036E+012.3965958095E+01+
*       -2.500000000E+00               0
GRID*                409               04.1161356426E+012.0359263572E+01+
*       -2.500000000E+00               0
GRID*                410               02.4477999410E+016.9476162380E+01+
*       -2.500000000E+00               0
GRID*                411               01.4058082551E+017.8487410515E+01+
*       -2.500000000E+00               0
GRID*                412               07.4617308704E-017.6077908813E+01+
*       -2.500000000E+00               0
GRID*                413               01.1047063785E+017.8436075749E+01+
*       -2.500000000E+00               0
GRID*                414               02.4215520155E+017.4675792613E+01+
*       -2.500000000E+00               0
GRID*                415               02.3741677095E+017.7157027501E+01+
*       -2.500000000E+00               0
GRID*                416               02.6636962921E+017.3256770145E+01+
*       -2.500000000E+00               0
GRID*                417               02.7519911239E+017.6526821148E+01+
*       -2.500000000E+00               0
GRID*                418               02.1904155688E+017.3313291152E+01+
*       -2.500000000E+00               0
GRID*                419               01.9184263305E+017.6906141807E+01+
*       -2.500000000E+00               0
GRID*                420               01.8011739781E+018.5678357837E+00+
*       -2.500000000E+00               0
GRID*                421               02.0357447272E+018.9876168844E+00+
*       -2.500000000E+00               0
GRID*                422               02.3012693695E+018.8446262303E+00+
*       -2.500000000E+00               0
GRID*                423               02.6241661698E+018.7528097721E+00+
*       -2.500000000E+00               0
GRID*                424               01.7130537489E+004.1533756306E+00+
*       -2.500000000E+00               0
GRID*                425               04.5765538909E+005.3089848765E+00+
*       -2.500000000E+00               0
GRID*                426               04.4818464482E+002.6745491358E+00+
*       -2.500000000E+00               0
GRID*                427               06.4582546408E+003.1935516630E+00+
*       -2.500000000E+00               0
GRID*                428               01.4713995767E+011.9958514864E+00+
*       -2.500000000E+00               0
GRID*                429               02.2716685606E+012.6561837532E+00+
*       -2.500000000E+00               0
GRID*                430               02.2153973990E+015.5610124038E+00+
*       -2.500000000E+00               0
GRID*                431               02.6257494975E+015.2505004460E+00+
*       -2.500000000E+00               0
GRID*                432               02.6823280087E+012.4688631845E+00+
*       -2.500000000E+00               0
GRID*                433               01.8683167181E+012.2558759112E+00+
*       -2.500000000E+00               0
GRID*                434               01.8354665614E+014.4482823607E+00+
*       -2.500000000E+00               0
GRID*                435               01.8132181711E+016.4553209854E+00+
*       -2.500000000E+00               0
GRID*                436               02.0355034756E+016.9061174133E+00+
*       -2.500000000E+00               0
GRID*                437               01.2249558839E+011.4742936156E+00+
*       -2.500000000E+00               0
GRID*                438               01.0012829090E+015.4285848040E+01+
*       -2.500000000E+00               0
GRID*                439               01.0544178573E+015.0367904512E+01+
*       -2.500000000E+00               0
GRID*                440               01.0925134309E+014.6418950670E+01+
*       -2.500000000E+00               0
GRID*                441               01.1138980680E+014.2393968337E+01+
*       -2.500000000E+00               0
GRID*                442               01.1210714009E+013.8346779703E+01+
*       -2.500000000E+00               0
GRID*                443               01.1175186526E+013.4325890139E+01+
*       -2.500000000E+00               0
GRID*                444               01.1058490144E+013.0369789091E+01+
*       -2.500000000E+00               0
GRID*                445               01.0911985987E+012.6482708289E+01+
*       -2.500000000E+00               0
GRID*                446               01.0805091170E+012.2560607375E+01+
*       -2.500000000E+00               0
GRID*                447               01.0558596848E+011.8594615731E+01+
*       -2.500000000E+00               0
GRID*                448               09.9414330408E+001.5198344946E+01+
*       -2.500000000E+00               0
GRID*                449               07.7099974209E+003.8213967757E+01+
*       -2.500000000E+00               0
GRID*                450               04.2755875051E+003.8095456977E+01+
*       -2.500000000E+00               0
GRID*                451               08.7977050719E-013.7991412506E+01+
*       -2.500000000E+00               0
GRID*                452               07.2498180012E+005.0164091448E+01+
*       -2.500000000E+00               0
GRID*                453               04.0165431818E+005.0164958356E+01+
*       -2.500000000E+00               0
GRID*                454               07.7417976710E-015.0318846426E+01+
*       -2.500000000E+00               0
GRID*                455               08.1299192663E-015.4337180082E+01+
*       -2.500000000E+00               0
GRID*                456               03.9814996296E+005.3923274708E+01+
*       -2.500000000E+00               0
GRID*                457               07.0081685425E+005.3805247137E+01+
*       -2.500000000E+00               0
GRID*                458               04.2035749446E+005.7350785332E+01+
*       -2.500000000E+00               0
GRID*                459               06.8113928792E+005.6732553357E+01+
*       -2.500000000E+00               0
GRID*                460               01.1127683645E+005.8453289266E+01+
*       -2.500000000E+00               0
GRID*                461               07.4885006390E+004.6273397177E+01+
*       -2.500000000E+00               0
GRID*                462               04.1356266778E+004.6223193867E+01+
*       -2.500000000E+00               0
GRID*                463               08.1574682035E-014.6250845004E+01+
*       -2.500000000E+00               0
GRID*                464               07.6466280708E+004.2268231555E+01+
*       -2.500000000E+00               0
GRID*                465               04.2319981867E+004.2183539603E+01+
*       -2.500000000E+00               0
GRID*                466               08.5878433162E-014.2135250645E+01+
*       -2.500000000E+00               0
GRID*                467               07.7018504156E+003.4164395519E+01+
*       -2.500000000E+00               0
GRID*                468               07.6365123126E+003.0141937637E+01+
*       -2.500000000E+00               0
GRID*                469               07.5466255858E+002.6145569374E+01+
*       -2.500000000E+00               0
GRID*                470               07.4578681920E+002.2152223306E+01+
*       -2.500000000E+00               0
GRID*                471               07.3392754220E+001.8200438707E+01+
*       -2.500000000E+00               0
GRID*                472               07.2828370476E+001.4519468149E+01+
*       -2.500000000E+00               0
GRID*                473               04.5322400509E+001.2623322471E+01+
*       -2.500000000E+00               0
GRID*                474               09.6381195966E-011.2671768355E+01+
*       -2.500000000E+00               0
GRID*                475               08.6599753991E-011.7095303955E+01+
*       -2.500000000E+00               0
GRID*                476               08.3940506641E-012.1351334492E+01+
*       -2.500000000E+00               0
GRID*                477               08.4852544134E-012.5529794291E+01+
*       -2.500000000E+00               0
GRID*                478               08.6797899743E-012.9688015774E+01+
*       -2.500000000E+00               0
GRID*                479               08.8200330563E-013.3840386089E+01+
*       -2.500000000E+00               0
GRID*                480               04.2781020140E+003.4002554738E+01+
*       -2.500000000E+00               0
GRID*                481               04.1812127471E+001.7497428748E+01+
*       -2.500000000E+00               0
GRID*                482               04.1967265574E+002.5828064459E+01+
*       -2.500000000E+00               0
GRID*                483               04.2450481117E+002.9917866876E+01+
*       -2.500000000E+00               0
GRID*                484               04.1610381239E+002.1724300536E+01+
*       -2.500000000E+00               0
GRID*                485               01.6830162290E+011.3222611418E+01+
*       -2.500000000E+00               0
GRID*                486               01.9642489556E+011.4445926003E+01+
*       -2.500000000E+00               0
GRID*                487               02.2818848083E+011.5688958107E+01+
*       -2.500000000E+00               0
GRID*                488               02.6344286691E+011.7284856115E+01+
*       -2.500000000E+00               0
GRID*                489               02.9808611382E+011.9415017943E+01+
*       -2.500000000E+00               0
GRID*                490               03.3188423808E+012.0752437412E+01+
*       -2.500000000E+00               0
GRID*                491               03.6877147571E+012.0661822131E+01+
*       -2.500000000E+00               0
GRID*                492               03.0984037744E+011.7052053545E+01+
*       -2.500000000E+00               0
GRID*                493               02.3267815593E+011.2321311885E+01+
*       -2.500000000E+00               0
GRID*                494               02.0191000570E+011.1630153514E+01+
*       -2.500000000E+00               0
GRID*                495               01.7621945693E+011.0887083409E+01+
*       -2.500000000E+00               0
GRID*                496               02.7317950519E+011.3521183808E+01+
*       -2.500000000E+00               0
GRID*                497               03.3661552022E+011.8329239712E+01+
*       -2.500000000E+00               0
GRID*                498               02.9089578037E+015.9215367857E+01+
*       -2.500000000E+00               0
GRID*                499               02.5972858980E+015.7979881492E+01+
*       -2.500000000E+00               0
GRID*                500               02.2854262457E+015.6663642399E+01+
*       -2.500000000E+00               0
GRID*                501               01.9752943203E+015.5322251163E+01+
*       -2.500000000E+00               0
GRID*                502               01.6608779621E+015.4483853797E+01+
*       -2.500000000E+00               0
GRID*                503               01.3410076233E+015.4467458231E+01+
*       -2.500000000E+00               0
GRID*                504               01.8501854539E+015.8264731689E+01+
*       -2.500000000E+00               0
GRID*                505               02.4689329485E+016.1324592954E+01+
*       -2.500000000E+00               0
GRID*                506               02.3832445327E+016.4970383568E+01+
*       -2.500000000E+00               0
GRID*                507               02.7636803435E+016.2409028613E+01+
*       -2.500000000E+00               0
GRID*                508               02.6951976425E+016.5207439370E+01+
*       -2.500000000E+00               0
GRID*                509               02.1436560534E+015.9987260553E+01+
*       -2.500000000E+00               0
GRID*                510               01.5869958734E+015.7264733922E+01+
*       -2.500000000E+00               0
GRID*                511               03.2913596237E+015.7068039068E+01+
*       -2.500000000E+00               0
GRID*                512               03.5596270353E+015.4611183402E+01+
*       -2.500000000E+00               0
GRID*                513               03.6476482913E+015.0339983920E+01+
*       -2.500000000E+00               0
GRID*                514               03.6976646365E+014.6505639843E+01+
*       -2.500000000E+00               0
GRID*                515               03.7245737020E+014.2733868976E+01+
*       -2.500000000E+00               0
GRID*                516               03.7375071305E+013.8968944135E+01+
*       -2.500000000E+00               0
GRID*                517               03.7413724414E+013.5219626836E+01+
*       -2.500000000E+00               0
GRID*                518               03.7373965378E+013.1500655031E+01+
*       -2.500000000E+00               0
GRID*                519               03.7232830672E+012.7815610274E+01+
*       -2.500000000E+00               0
GRID*                520               03.6977427050E+012.4157192651E+01+
*       -2.500000000E+00               0
GRID*                521               03.2536740521E+012.4096313010E+01+
*       -2.500000000E+00               0
GRID*                522               02.8774049223E+012.2146921020E+01+
*       -2.500000000E+00               0
GRID*                523               02.5413927254E+012.0435611996E+01+
*       -2.500000000E+00               0
GRID*                524               02.2115316671E+011.8861095388E+01+
*       -2.500000000E+00               0
GRID*                525               01.8913340701E+011.7377473448E+01+
*       -2.500000000E+00               0
GRID*                526               01.6024286574E+011.5721689876E+01+
*       -2.500000000E+00               0
GRID*                527               01.4109279678E+011.3976209179E+01+
*       -2.500000000E+00               0
GRID*                528               01.2404519307E+011.4986750298E+01+
*       -2.500000000E+00               0
GRID*                529               01.4278597244E+012.6897158124E+01+
*       -2.500000000E+00               0
GRID*                530               01.4535252226E+013.0597523893E+01+
*       -2.500000000E+00               0
GRID*                531               01.4730980070E+013.4482036609E+01+
*       -2.500000000E+00               0
GRID*                532               01.4809782720E+013.8488524438E+01+
*       -2.500000000E+00               0
GRID*                533               01.4758345638E+014.2559424847E+01+
*       -2.500000000E+00               0
GRID*                534               01.4516680806E+014.6648490590E+01+
*       -2.500000000E+00               0
GRID*                535               01.3989684839E+015.0622486460E+01+
*       -2.500000000E+00               0
GRID*                536               01.7489885134E+015.1007130846E+01+
*       -2.500000000E+00               0
GRID*                537               02.1052265124E+015.1886936602E+01+
*       -2.500000000E+00               0
GRID*                538               02.4240760450E+015.3432695427E+01+
*       -2.500000000E+00               0
GRID*                539               02.7273582254E+015.4789850519E+01+
*       -2.500000000E+00               0
GRID*                540               03.0249302016E+015.6000862076E+01+
*       -2.500000000E+00               0
GRID*                541               03.3498723209E+014.2514571205E+01+
*       -2.500000000E+00               0
GRID*                542               02.9885862835E+014.2383410526E+01+
*       -2.500000000E+00               0
GRID*                543               02.6297720027E+014.2459536081E+01+
*       -2.500000000E+00               0
GRID*                544               02.2501192634E+014.2823542020E+01+
*       -2.500000000E+00               0
GRID*                545               01.8540314988E+014.2734202795E+01+
*       -2.500000000E+00               0
GRID*                546               02.5803402786E+015.0424319574E+01+
*       -2.500000000E+00               0
GRID*                547               02.7491614923E+014.8451221087E+01+
*       -2.500000000E+00               0
GRID*                548               02.6662753265E+014.5979764555E+01+
*       -2.500000000E+00               0
GRID*                549               02.2895816433E+014.7621653294E+01+
*       -2.500000000E+00               0
GRID*                550               01.8355807126E+014.7002689003E+01+
*       -2.500000000E+00               0
GRID*                551               02.9898277001E+014.5846118095E+01+
*       -2.500000000E+00               0
GRID*                552               03.3302006426E+014.6113204120E+01+
*       -2.500000000E+00               0
GRID*                553               02.8655720198E+015.1778048373E+01+
*       -2.500000000E+00               0
GRID*                554               02.9766265166E+014.8925280304E+01+
*       -2.500000000E+00               0
GRID*                555               03.2843926725E+014.9590363992E+01+
*       -2.500000000E+00               0
GRID*                556               03.1813387371E+015.2978740737E+01+
*       -2.500000000E+00               0
GRID*                557               03.3582091191E+013.8837516391E+01+
*       -2.500000000E+00               0
GRID*                558               02.9870229760E+013.8729202792E+01+
*       -2.500000000E+00               0
GRID*                559               02.6156737654E+013.8667111027E+01+
*       -2.500000000E+00               0
GRID*                560               02.2352731415E+013.8654770960E+01+
*       -2.500000000E+00               0
GRID*                561               01.8528508364E+013.8601607535E+01+
*       -2.500000000E+00               0
GRID*                562               03.3599761672E+013.5146513477E+01+
*       -2.500000000E+00               0
GRID*                563               02.9873350551E+013.5039167251E+01+
*       -2.500000000E+00               0
GRID*                564               02.6127181963E+013.4829160028E+01+
*       -2.500000000E+00               0
GRID*                565               02.2250133596E+013.4555839172E+01+
*       -2.500000000E+00               0
GRID*                566               01.8407739882E+013.4564916233E+01+
*       -2.500000000E+00               0
GRID*                567               02.4450802228E+012.3421273513E+01+
*       -2.500000000E+00               0
GRID*                568               02.3532473188E+012.6525087143E+01+
*       -2.500000000E+00               0
GRID*                569               02.2120927738E+013.0148915525E+01+
*       -2.500000000E+00               0
GRID*                570               02.6818242626E+012.7633735121E+01+
*       -2.500000000E+00               0
GRID*                571               03.0050781750E+012.8185064586E+01+
*       -2.500000000E+00               0
GRID*                572               03.3346312267E+012.7886310512E+01+
*       -2.500000000E+00               0
GRID*                573               02.7562615894E+012.4715202257E+01+
*       -2.500000000E+00               0
GRID*                574               03.0184660949E+012.5591039196E+01+
*       -2.500000000E+00               0
GRID*                575               02.6254777698E+013.1044818883E+01+
*       -2.500000000E+00               0
GRID*                576               02.9929090320E+013.1451720610E+01+
*       -2.500000000E+00               0
GRID*                577               03.3558237303E+013.1493944365E+01+
*       -2.500000000E+00               0
GRID*                578               02.1355206421E+012.1971821811E+01+
*       -2.500000000E+00               0
GRID*                579               01.8062445210E+012.0562477536E+01+
*       -2.500000000E+00               0
GRID*                580               01.8115706980E+013.0679982903E+01+
*       -2.500000000E+00               0
GRID*                581               01.7503922854E+012.7366425182E+01+
*       -2.500000000E+00               0
GRID*                582               01.7663635329E+012.4073409589E+01+
*       -2.500000000E+00               0
GRID*                583               01.4270199219E+012.3102981685E+01+
*       -2.500000000E+00               0
GRID*                584               02.0744774651E+012.5028070724E+01+
*       -2.500000000E+00               0
GRID*                585               02.0240742830E+012.7655018454E+01+
*       -2.500000000E+00               0
GRID*                586               01.4256493914E+011.8579201064E+01+
*       -2.500000000E+00               0
GRID*                587               05.2499954292E+016.9468343818E+01+
*       -2.500000000E+00               0
GRID*                588               06.2839441937E+017.8470688661E+01+
*       -2.500000000E+00               0
GRID*                589               06.5864182675E+017.8428644113E+01+
*       -2.500000000E+00               0
GRID*                590               05.3140480784E+017.7161099836E+01+
*       -2.500000000E+00               0
GRID*                591               05.2709820227E+017.4672929964E+01+
*       -2.500000000E+00               0
GRID*                592               05.0308989477E+017.3253805000E+01+
*       -2.500000000E+00               0
GRID*                593               04.9378452722E+017.6519018877E+01+
*       -2.500000000E+00               0
GRID*                594               05.5052966796E+017.3308951406E+01+
*       -2.500000000E+00               0
GRID*                595               05.7724602810E+017.6901802583E+01+
*       -2.500000000E+00               0
GRID*                596               06.7390887944E+011.4968917902E+01+
*       -2.500000000E+00               0
GRID*                597               06.7751256041E+011.7942210422E+01+
*       -2.500000000E+00               0
GRID*                598               06.7869753022E+012.1608887548E+01+
*       -2.500000000E+00               0
GRID*                599               06.7882484963E+012.5438671207E+01+
*       -2.500000000E+00               0
GRID*                600               06.7776686032E+012.9306476806E+01+
*       -2.500000000E+00               0
GRID*                601               06.7520880542E+013.3194591720E+01+
*       -2.500000000E+00               0
GRID*                602               06.7061693269E+013.7031383393E+01+
*       -2.500000000E+00               0
GRID*                603               06.6222466419E+014.0210149615E+01+
*       -2.500000000E+00               0
GRID*                604               06.6029853979E+014.3454495957E+01+
*       -2.500000000E+00               0
GRID*                605               06.6009217833E+014.6957219452E+01+
*       -2.500000000E+00               0
GRID*                606               06.6102726109E+015.0716930412E+01+
*       -2.500000000E+00               0
GRID*                607               06.6537952583E+015.4737435673E+01+
*       -2.500000000E+00               0
GRID*                608               07.1412830160E+012.5346473760E+01+
*       -2.500000000E+00               0
GRID*                609               07.1398834213E+012.1251632850E+01+
*       -2.500000000E+00               0
GRID*                610               07.1284766140E+011.6912110021E+01+
*       -2.500000000E+00               0
GRID*                611               06.9935045390E+011.3875421075E+01+
*       -2.500000000E+00               0
GRID*                612               07.2496743061E+011.4047099519E+01+
*       -2.500000000E+00               0
GRID*                613               07.1815798111E+011.1849254387E+01+
*       -2.500000000E+00               0
GRID*                614               07.2537143764E+015.4989727395E+01+
*       -2.500000000E+00               0
GRID*                615               06.9851818676E+015.5038532270E+01+
*       -2.500000000E+00               0
GRID*                616               07.1350708907E+012.9430173851E+01+
*       -2.500000000E+00               0
GRID*                617               07.1191540888E+013.3614339002E+01+
*       -2.500000000E+00               0
GRID*                618               07.2186810415E+015.0723480301E+01+
*       -2.500000000E+00               0
GRID*                619               06.9257536561E+015.0810123012E+01+
*       -2.500000000E+00               0
GRID*                620               07.0842115242E+013.8282570125E+01+
*       -2.500000000E+00               0
GRID*                621               07.2013366522E+014.6658347686E+01+
*       -2.500000000E+00               0
GRID*                622               06.9046093736E+014.6923794798E+01+
*       -2.500000000E+00               0
GRID*                623               06.8928645056E+014.3372077147E+01+
*       -2.500000000E+00               0
GRID*                624               07.1774671689E+014.2660716432E+01+
*       -2.500000000E+00               0
GRID*                625               06.8789631993E+014.0479176862E+01+
*       -2.500000000E+00               0
GRID*                626               05.6685884478E+015.8755208269E+01+
*       -2.500000000E+00               0
GRID*                627               05.3555200116E+015.7706723434E+01+
*       -2.500000000E+00               0
GRID*                628               05.0275493997E+015.6547853923E+01+
*       -2.500000000E+00               0
GRID*                629               04.7002353967E+015.5259330601E+01+
*       -2.500000000E+00               0
GRID*                630               04.3658945478E+015.4471270237E+01+
*       -2.500000000E+00               0
GRID*                631               05.2640784915E+016.0830790581E+01+
*       -2.500000000E+00               0
GRID*                632               05.2441076551E+016.4607936183E+01+
*       -2.500000000E+00               0
GRID*                633               05.5644861060E+016.1211900877E+01+
*       -2.500000000E+00               0
GRID*                634               04.9027184661E+015.9823934981E+01+
*       -2.500000000E+00               0
GRID*                635               04.5922188135E+015.8187412132E+01+
*       -2.500000000E+00               0
GRID*                636               04.3253219474E+015.7215945805E+01+
*       -2.500000000E+00               0
GRID*                637               06.0097263983E+015.7108289809E+01+
*       -2.500000000E+00               0
GRID*                638               06.2446600965E+015.4683485229E+01+
*       -2.500000000E+00               0
GRID*                639               06.2702941097E+015.0418794052E+01+
*       -2.500000000E+00               0
GRID*                640               06.2832583657E+014.6765424193E+01+
*       -2.500000000E+00               0
GRID*                641               06.2946013884E+014.3288861958E+01+
*       -2.500000000E+00               0
GRID*                642               06.3173929111E+013.9884323286E+01+
*       -2.500000000E+00               0
GRID*                643               06.3630306200E+013.6446964106E+01+
*       -2.500000000E+00               0
GRID*                644               06.4031945112E+013.2821934033E+01+
*       -2.500000000E+00               0
GRID*                645               06.4333324302E+012.9176270907E+01+
*       -2.500000000E+00               0
GRID*                646               06.4455296676E+012.5522047340E+01+
*       -2.500000000E+00               0
GRID*                647               06.4434277464E+012.1840755793E+01+
*       -2.500000000E+00               0
GRID*                648               06.4388257782E+011.8214145999E+01+
*       -2.500000000E+00               0
GRID*                649               06.4606067668E+011.5101558719E+01+
*       -2.500000000E+00               0
GRID*                650               06.1802414870E+011.4254636847E+01+
*       -2.500000000E+00               0
GRID*                651               05.9153884376E+011.2167128673E+01+
*       -2.500000000E+00               0
GRID*                652               05.5224812382E+011.2845716065E+01+
*       -2.500000000E+00               0
GRID*                653               05.0533551821E+011.4170322703E+01+
*       -2.500000000E+00               0
GRID*                654               04.6424586824E+011.8720824214E+01+
*       -2.500000000E+00               0
GRID*                655               04.5500650212E+012.3526879642E+01+
*       -2.500000000E+00               0
GRID*                656               04.5284640981E+012.7498263941E+01+
*       -2.500000000E+00               0
GRID*                657               04.5281394301E+013.1368805620E+01+
*       -2.500000000E+00               0
GRID*                658               04.5255386707E+013.5262969574E+01+
*       -2.500000000E+00               0
GRID*                659               04.5213111844E+013.9174393674E+01+
*       -2.500000000E+00               0
GRID*                660               04.5157505376E+014.3140216542E+01+
*       -2.500000000E+00               0
GRID*                661               04.5000585949E+014.7198287036E+01+
*       -2.500000000E+00               0
GRID*                662               04.4304559117E+015.1052174945E+01+
*       -2.500000000E+00               0
GRID*                663               04.8123621238E+015.1906498947E+01+
*       -2.500000000E+00               0
GRID*                664               05.1462948974E+015.3449782935E+01+
*       -2.500000000E+00               0
GRID*                665               05.4560392492E+015.4724349613E+01+
*       -2.500000000E+00               0
GRID*                666               05.7522977613E+015.5895038708E+01+
*       -2.500000000E+00               0
GRID*                667               05.9654869453E+014.6422326824E+01+
*       -2.500000000E+00               0
GRID*                668               05.6559916883E+014.6166421776E+01+
*       -2.500000000E+00               0
GRID*                669               05.3490608396E+014.6293562876E+01+
*       -2.500000000E+00               0
GRID*                670               04.9769532999E+014.7850030082E+01+
*       -2.500000000E+00               0
GRID*                671               05.5668758260E+015.1846608482E+01+
*       -2.500000000E+00               0
GRID*                672               05.6563906996E+014.9097377543E+01+
*       -2.500000000E+00               0
GRID*                673               05.2833027939E+015.0597357447E+01+
*       -2.500000000E+00               0
GRID*                674               05.4394662798E+014.8676681236E+01+
*       -2.500000000E+00               0
GRID*                675               05.9425268661E+014.9712512693E+01+
*       -2.500000000E+00               0
GRID*                676               05.8736221566E+015.2992304975E+01+
*       -2.500000000E+00               0
GRID*                677               05.9753767734E+014.3040682136E+01+
*       -2.500000000E+00               0
GRID*                678               05.6480932948E+014.2859922045E+01+
*       -2.500000000E+00               0
GRID*                679               05.3057612392E+014.2898216328E+01+
*       -2.500000000E+00               0
GRID*                680               04.9268152865E+014.3255917159E+01+
*       -2.500000000E+00               0
GRID*                681               05.9925987086E+013.9574471206E+01+
*       -2.500000000E+00               0
GRID*                682               05.6537059013E+013.9322320080E+01+
*       -2.500000000E+00               0
GRID*                683               05.2961751066E+013.9180730303E+01+
*       -2.500000000E+00               0
GRID*                684               04.9158703463E+013.9213957871E+01+
*       -2.500000000E+00               0
GRID*                685               06.0241916910E+013.6043232666E+01+
*       -2.500000000E+00               0
GRID*                686               05.6773025740E+013.5671877748E+01+
*       -2.500000000E+00               0
GRID*                687               05.3086392016E+013.5282566371E+01+
*       -2.500000000E+00               0
GRID*                688               04.9188872946E+013.5252790070E+01+
*       -2.500000000E+00               0
GRID*                689               04.9237565298E+012.3812306786E+01+
*       -2.500000000E+00               0
GRID*                690               05.2202362423E+012.4013518164E+01+
*       -2.500000000E+00               0
GRID*                691               05.4868438839E+012.3418409072E+01+
*       -2.500000000E+00               0
GRID*                692               05.7777027256E+012.2724101093E+01+
*       -2.500000000E+00               0
GRID*                693               06.1024772167E+012.2080400041E+01+
*       -2.500000000E+00               0
GRID*                694               05.7158566880E+011.9458861884E+01+
*       -2.500000000E+00               0
GRID*                695               05.5930066772E+011.6458722144E+01+
*       -2.500000000E+00               0
GRID*                696               05.0127561603E+012.0489198890E+01+
*       -2.500000000E+00               0
GRID*                697               05.2177112210E+012.1700148157E+01+
*       -2.500000000E+00               0
GRID*                698               05.4255005695E+012.0652594629E+01+
*       -2.500000000E+00               0
GRID*                699               05.2688498258E+011.8011545557E+01+
*       -2.500000000E+00               0
GRID*                700               06.0716363918E+011.7986902273E+01+
*       -2.500000000E+00               0
GRID*                701               05.8779496237E+011.5543533063E+01+
*       -2.500000000E+00               0
GRID*                702               04.9056900601E+012.7411481404E+01+
*       -2.500000000E+00               0
GRID*                703               04.9240816669E+013.1255052474E+01+
*       -2.500000000E+00               0
GRID*                704               05.3428978127E+013.0981728352E+01+
*       -2.500000000E+00               0
GRID*                705               05.7212718794E+013.2055869552E+01+
*       -2.500000000E+00               0
GRID*                706               06.0631931346E+013.2494972638E+01+
*       -2.500000000E+00               0
GRID*                707               06.1036417066E+012.9083794363E+01+
*       -2.500000000E+00               0
GRID*                708               06.1145512585E+012.5663260845E+01+
*       -2.500000000E+00               0
GRID*                709               05.8024434077E+012.5938977188E+01+
*       -2.500000000E+00               0
GRID*                710               05.5171772891E+012.6325938271E+01+
*       -2.500000000E+00               0
GRID*                711               05.2419639492E+012.7142044420E+01+
*       -2.500000000E+00               0
GRID*                712               05.7965711503E+012.9017314950E+01+
*       -2.500000000E+00               0
GRID*                713               05.5401006414E+012.8907003903E+01+
*       -2.500000000E+00               0
GRID*                714               0-2.500000000E+000.0000000000E+00+
*       1.7647058824E+00               0
GRID*                715               0-2.500000000E+000.0000000000E+00+
*       6.0294117647E+00               0
GRID*                716               0-2.500000000E+000.0000000000E+00+
*       1.0294117647E+01               0
GRID*                717               0-2.500000000E+000.0000000000E+00+
*       1.4558823529E+01               0
GRID*                718               0-2.500000000E+000.0000000000E+00+
*       1.8823529412E+01               0
GRID*                719               0-2.500000000E+000.0000000000E+00+
*       2.3088235294E+01               0
GRID*                720               0-2.500000000E+000.0000000000E+00+
*       2.7352941176E+01               0
GRID*                721               0-2.500000000E+000.0000000000E+00+
*       3.1617647059E+01               0
GRID*                722               0-2.500000000E+000.0000000000E+00+
*       3.5882352941E+01               0
GRID*                723               0-2.500000000E+000.0000000000E+00+
*       4.0147058824E+01               0
GRID*                724               0-2.500000000E+000.0000000000E+00+
*       4.4411764706E+01               0
GRID*                725               0-2.500000000E+000.0000000000E+00+
*       4.8676470588E+01               0
GRID*                726               0-2.500000000E+000.0000000000E+00+
*       5.2941176471E+01               0
GRID*                727               0-2.500000000E+000.0000000000E+00+
*       5.7205882353E+01               0
GRID*                728               0-2.500000000E+000.0000000000E+00+
*       6.1470588235E+01               0
GRID*                729               0-2.500000000E+000.0000000000E+00+
*       6.5735294118E+01               0
GRID*                730               0-2.500000000E+007.5789473684E+01+
*       -2.500000000E+00               0
GRID*                731               0-2.500000000E+007.1578947368E+01+
*       -2.500000000E+00               0
GRID*                732               0-2.500000000E+006.7368421053E+01+
*       -2.500000000E+00               0
GRID*                733               0-2.500000000E+006.3157894737E+01+
*       -2.500000000E+00               0
GRID*                734               0-2.500000000E+005.8947368421E+01+
*       -2.500000000E+00               0
GRID*                735               0-2.500000000E+005.4736842105E+01+
*       -2.500000000E+00               0
GRID*                736               0-2.500000000E+005.0526315789E+01+
*       -2.500000000E+00               0
GRID*                737               0-2.500000000E+004.6315789474E+01+
*       -2.500000000E+00               0
GRID*                738               0-2.500000000E+004.2105263158E+01+
*       -2.500000000E+00               0
GRID*                739               0-2.500000000E+003.7894736842E+01+
*       -2.500000000E+00               0
GRID*                740               0-2.500000000E+003.3684210526E+01+
*       -2.500000000E+00               0
GRID*                741               0-2.500000000E+002.9473684211E+01+
*       -2.500000000E+00               0
GRID*                742               0-2.500000000E+002.5263157895E+01+
*       -2.500000000E+00               0
GRID*                743               0-2.500000000E+002.1052631579E+01+
*       -2.500000000E+00               0
GRID*                744               0-2.500000000E+001.6842105263E+01+
*       -2.500000000E+00               0
GRID*                745               0-2.500000000E+001.2631578947E+01+
*       -2.500000000E+00               0
GRID*                746               0-2.500000000E+008.4210526316E+00+
*       -2.500000000E+00               0
GRID*                747               0-2.500000000E+004.2105263158E+00+
*       -2.500000000E+00               0
GRID*                748               0-2.500000000E+003.6891385068E+01+
*       6.2107258259E+01               0
GRID*                749               0-2.500000000E+003.3978090596E+01+
*       6.0953810485E+01               0
GRID*                750               0-2.500000000E+003.1443163864E+01+
*       5.9112104731E+01               0
GRID*                751               0-2.500000000E+002.9445931628E+01+
*       5.6697815289E+01               0
GRID*                752               0-2.500000000E+002.8111807853E+01+
*       5.3862706546E+01               0
GRID*                753               0-2.500000000E+002.7524677817E+01+
*       5.0784880855E+01               0
GRID*                754               0-2.500000000E+002.7721447684E+01+
*       4.7657739976E+01               0
GRID*                755               0-2.500000000E+002.8689667996E+01+
*       4.4677760253E+01               0
GRID*                756               0-2.500000000E+003.0368599921E+01+
*       4.2032212977E+01               0
GRID*                757               0-2.500000000E+003.2652705050E+01+
*       3.9887313953E+01               0
GRID*                758               0-2.500000000E+003.5398443667E+01+
*       3.8377794155E+01               0
GRID*                759               0-2.500000000E+003.8433337820E+01+
*       3.7598595226E+01               0
GRID*                760               0-2.500000000E+004.1566662994E+01+
*       3.7598595914E+01               0
GRID*                761               0-2.500000000E+004.4601557254E+01+
*       3.8377794557E+01               0
GRID*                762               0-2.500000000E+004.7347295532E+01+
*       3.9887315431E+01               0
GRID*                763               0-2.500000000E+004.9631401044E+01+
*       4.2032213642E+01               0
GRID*                764               0-2.500000000E+005.1310332477E+01+
*       4.4677761287E+01               0
GRID*                765               0-2.500000000E+005.2278553412E+01+
*       4.7657740908E+01               0
GRID*                766               0-2.500000000E+005.2475324061E+01+
*       5.0784881639E+01               0
GRID*                767               0-2.500000000E+005.1888193562E+01+
*       5.3862707213E+01               0
GRID*                768               0-2.500000000E+005.0554068229E+01+
*       5.6697815328E+01               0
GRID*                769               0-2.500000000E+004.8556836036E+01+
*       5.9112104768E+01               0
GRID*                770               0-2.500000000E+004.6021909973E+01+
*       6.0953811375E+01               0
GRID*                771               0-2.500000000E+004.3108614885E+01+
*       6.2107257678E+01               0
GRID*                772               0-2.500000000E+004.2105263158E+00+
*       7.0000000000E+01               0
GRID*                773               0-2.500000000E+008.4210526316E+00+
*       7.0000000000E+01               0
GRID*                774               0-2.500000000E+001.2631578947E+01+
*       7.0000000000E+01               0
GRID*                775               0-2.500000000E+001.6842105263E+01+
*       7.0000000000E+01               0
GRID*                776               0-2.500000000E+002.1052631579E+01+
*       7.0000000000E+01               0
GRID*                777               0-2.500000000E+002.5263157895E+01+
*       7.0000000000E+01               0
GRID*                778               0-2.500000000E+002.9473684211E+01+
*       7.0000000000E+01               0
GRID*                779               0-2.500000000E+003.3684210526E+01+
*       7.0000000000E+01               0
GRID*                780               0-2.500000000E+003.7894736842E+01+
*       7.0000000000E+01               0
GRID*                781               0-2.500000000E+004.2105263158E+01+
*       7.0000000000E+01               0
GRID*                782               0-2.500000000E+004.6315789474E+01+
*       7.0000000000E+01               0
GRID*                783               0-2.500000000E+005.0526315789E+01+
*       7.0000000000E+01               0
GRID*                784               0-2.500000000E+005.4736842105E+01+
*       7.0000000000E+01               0
GRID*                785               0-2.500000000E+005.8947368421E+01+
*       7.0000000000E+01               0
GRID*                786               0-2.500000000E+006.3157894737E+01+
*       7.0000000000E+01               0
GRID*                787               0-2.500000000E+006.7368421053E+01+
*       7.0000000000E+01               0
GRID*                788               0-2.500000000E+007.1578947368E+01+
*       7.0000000000E+01               0
GRID*                789               0-2.500000000E+007.5789473684E+01+
*       7.0000000000E+01               0
GRID*                790               0-2.500000000E+008.0000000000E+01+
*       6.5735294118E+01               0
GRID*                791               0-2.500000000E+008.0000000000E+01+
*       6.1470588235E+01               0
GRID*                792               0-2.500000000E+008.0000000000E+01+
*       5.7205882353E+01               0
GRID*                793               0-2.500000000E+008.0000000000E+01+
*       5.2941176471E+01               0
GRID*                794               0-2.500000000E+008.0000000000E+01+
*       4.8676470588E+01               0
GRID*                795               0-2.500000000E+008.0000000000E+01+
*       4.4411764706E+01               0
GRID*                796               0-2.500000000E+008.0000000000E+01+
*       4.0147058824E+01               0
GRID*                797               0-2.500000000E+008.0000000000E+01+
*       3.5882352941E+01               0
GRID*                798               0-2.500000000E+008.0000000000E+01+
*       3.1617647059E+01               0
GRID*                799               0-2.500000000E+008.0000000000E+01+
*       2.7352941176E+01               0
GRID*                800               0-2.500000000E+008.0000000000E+01+
*       2.3088235294E+01               0
GRID*                801               0-2.500000000E+008.0000000000E+01+
*       1.8823529412E+01               0
GRID*                802               0-2.500000000E+008.0000000000E+01+
*       1.4558823529E+01               0
GRID*                803               0-2.500000000E+008.0000000000E+01+
*       1.0294117647E+01               0
GRID*                804               0-2.500000000E+008.0000000000E+01+
*       6.0294117647E+00               0
GRID*                805               0-2.500000000E+008.0000000000E+01+
*       1.7647058824E+00               0
GRID*                806               0-2.500000000E+004.2105263158E+00+
*       -2.500000000E+00               0
GRID*                807               0-2.500000000E+008.4210526316E+00+
*       -2.500000000E+00               0
GRID*                808               0-2.500000000E+001.2631578947E+01+
*       -2.500000000E+00               0
GRID*                809               0-2.500000000E+001.6842105263E+01+
*       -2.500000000E+00               0
GRID*                810               0-2.500000000E+002.1052631579E+01+
*       -2.500000000E+00               0
GRID*                811               0-2.500000000E+002.5263157895E+01+
*       -2.500000000E+00               0
GRID*                812               0-2.500000000E+002.9473684211E+01+
*       -2.500000000E+00               0
GRID*                813               0-2.500000000E+003.3684210526E+01+
*       -2.500000000E+00               0
GRID*                814               0-2.500000000E+003.7894736842E+01+
*       -2.500000000E+00               0
GRID*                815               0-2.500000000E+004.2105263158E+01+
*       -2.500000000E+00               0
GRID*                816               0-2.500000000E+004.6315789474E+01+
*       -2.500000000E+00               0
GRID*                817               0-2.500000000E+005.0526315789E+01+
*       -2.500000000E+00               0
GRID*                818               0-2.500000000E+005.4736842105E+01+
*       -2.500000000E+00               0
GRID*                819               0-2.500000000E+005.8947368421E+01+
*       -2.500000000E+00               0
GRID*                820               0-2.500000000E+006.3157894737E+01+
*       -2.500000000E+00               0
GRID*                821               0-2.500000000E+006.7368421053E+01+
*       -2.500000000E+00               0
GRID*                822               0-2.500000000E+007.1578947368E+01+
*       -2.500000000E+00               0
GRID*                823               0-2.500000000E+007.5789473684E+01+
*       -2.500000000E+00               0
GRID*                824               06.4951944179E+005.8305972181E+00+
*       -2.500000000E+00               0
GRID*                825               07.8825878354E+004.0908890057E+00+
*       -2.500000000E+00               0
GRID*                826               09.8873984273E+003.1253751782E+00+
*       -2.500000000E+00               0
GRID*                827               01.2112603677E+013.1253752231E+00+
*       -2.500000000E+00               0
GRID*                828               01.4117414242E+014.0908891195E+00+
*       -2.500000000E+00               0
GRID*                829               01.5504807393E+015.8305975391E+00+
*       -2.500000000E+00               0
GRID*                830               01.6000001907E+018.0000001393E+00+
*       -2.500000000E+00               0
GRID*                831               01.5504808094E+011.0169403046E+01+
*       -2.500000000E+00               0
GRID*                832               01.4117414129E+011.1909110752E+01+
*       -2.500000000E+00               0
GRID*                833               01.2112603627E+011.2874624800E+01+
*       -2.500000000E+00               0
GRID*                834               09.8873983719E+001.2874624820E+01+
*       -2.500000000E+00               0
GRID*                835               07.8825878311E+001.1909110831E+01+
*       -2.500000000E+00               0
GRID*                836               06.4951940988E+001.0169402911E+01+
*       -2.500000000E+00               0
GRID*                837               06.4951944159E+006.5830597276E+01+
*       -2.500000000E+00               0
GRID*                838               07.8825866722E+006.4090888082E+01+
*       -2.500000000E+00               0
GRID*                839               09.8873981630E+006.3125376191E+01+
*       -2.500000000E+00               0
GRID*                840               01.2112603181E+016.3125376063E+01+
*       -2.500000000E+00               0
GRID*                841               01.4117414783E+016.4090887721E+01+
*       -2.500000000E+00               0
GRID*                842               01.5504807099E+016.5830596813E+01+
*       -2.500000000E+00               0
GRID*                843               01.6000001907E+016.7999999418E+01+
*       -2.500000000E+00               0
GRID*                844               01.5504808575E+017.0169402281E+01+
*       -2.500000000E+00               0
GRID*                845               01.4117415057E+017.1909110026E+01+
*       -2.500000000E+00               0
GRID*                846               01.2112603961E+017.2874623939E+01+
*       -2.500000000E+00               0
GRID*                847               09.8873988585E+007.2874624148E+01+
*       -2.500000000E+00               0
GRID*                848               07.8825875611E+007.1909110630E+01+
*       -2.500000000E+00               0
GRID*                849               06.4951940968E+007.0169402853E+01+
*       -2.500000000E+00               0
GRID*                850               07.0694444444E+010.0000000000E+00+
*       -2.500000000E+00               0
GRID*                851               06.6388888889E+010.0000000000E+00+
*       -2.500000000E+00               0
GRID*                852               06.2083333333E+010.0000000000E+00+
*       -2.500000000E+00               0
GRID*                853               05.7777777778E+010.0000000000E+00+
*       -2.500000000E+00               0
GRID*                854               05.3472222222E+010.0000000000E+00+
*       -2.500000000E+00               0
GRID*                855               04.9166666667E+010.0000000000E+00+
*       -2.500000000E+00               0
GRID*                856               04.4861111111E+010.0000000000E+00+
*       -2.500000000E+00               0
GRID*                857               04.0555555556E+010.0000000000E+00+
*       -2.500000000E+00               0
GRID*                858               03.6250000000E+010.0000000000E+00+
*       -2.500000000E+00               0
GRID*                859               03.1944444444E+010.0000000000E+00+
*       -2.500000000E+00               0
GRID*                860               02.7638888889E+010.0000000000E+00+
*       -2.500000000E+00               0
GRID*                861               02.3333333333E+010.0000000000E+00+
*       -2.500000000E+00               0
GRID*                862               01.9027777778E+010.0000000000E+00+
*       -2.500000000E+00               0
GRID*                863               01.4722222222E+010.0000000000E+00+
*       -2.500000000E+00               0
GRID*                864               01.0416666667E+010.0000000000E+00+
*       -2.500000000E+00               0
GRID*                865               06.1111111111E+000.0000000000E+00+
*       -2.500000000E+00               0
GRID*                866               01.8055555556E+000.0000000000E+00+
*       -2.500000000E+00               0
GRID*                867               01.8055555556E+008.0000000000E+01+
*       -2.500000000E+00               0
GRID*                868               06.1111111111E+008.0000000000E+01+
*       -2.500000000E+00               0
GRID*                869               01.0416666667E+018.0000000000E+01+
*       -2.500000000E+00               0
GRID*                870               01.4722222222E+018.0000000000E+01+
*       -2.500000000E+00               0
GRID*                871               01.9027777778E+018.0000000000E+01+
*       -2.500000000E+00               0
GRID*                872               02.3333333333E+018.0000000000E+01+
*       -2.500000000E+00               0
GRID*                873               02.7638888889E+018.0000000000E+01+
*       -2.500000000E+00               0
GRID*                874               03.1944444444E+018.0000000000E+01+
*       -2.500000000E+00               0
GRID*                875               03.6250000000E+018.0000000000E+01+
*       -2.500000000E+00               0
GRID*                876               04.0555555556E+018.0000000000E+01+
*       -2.500000000E+00               0
GRID*                877               04.4861111111E+018.0000000000E+01+
*       -2.500000000E+00               0
GRID*                878               04.9166666667E+018.0000000000E+01+
*       -2.500000000E+00               0
GRID*                879               05.3472222222E+018.0000000000E+01+
*       -2.500000000E+00               0
GRID*                880               05.7777777778E+018.0000000000E+01+
*       -2.500000000E+00               0
GRID*                881               06.2083333333E+018.0000000000E+01+
*       -2.500000000E+00               0
GRID*                882               06.6388888889E+018.0000000000E+01+
*       -2.500000000E+00               0
GRID*                883               07.0694444444E+018.0000000000E+01+
*       -2.500000000E+00               0
GRID*                884               03.3995195214E+015.8305977092E+00+
*       -2.500000000E+00               0
GRID*                885               03.5382588577E+014.0908893979E+00+
*       -2.500000000E+00               0
GRID*                886               03.7387398816E+013.1253750940E+00+
*       -2.500000000E+00               0
GRID*                887               03.9612604063E+013.1253753549E+00+
*       -2.500000000E+00               0
GRID*                888               04.1617414359E+014.0908896771E+00+
*       -2.500000000E+00               0
GRID*                889               04.3004808260E+015.8305976210E+00+
*       -2.500000000E+00               0
GRID*                890               04.3500000000E+018.0000003040E+00+
*       -2.500000000E+00               0
GRID*                891               04.3004808018E+011.0169402900E+01+
*       -2.500000000E+00               0
GRID*                892               04.1617414217E+011.1909110934E+01+
*       -2.500000000E+00               0
GRID*                893               03.9612603866E+011.2874625144E+01+
*       -2.500000000E+00               0
GRID*                894               03.7387398625E+011.2874624862E+01+
*       -2.500000000E+00               0
GRID*                895               03.5382588256E+011.1909110876E+01+
*       -2.500000000E+00               0
GRID*                896               03.3995195236E+011.0169402279E+01+
*       -2.500000000E+00               0
GRID*                897               03.3995195373E+016.5830598116E+01+
*       -2.500000000E+00               0
GRID*                898               03.5382586843E+016.4090888365E+01+
*       -2.500000000E+00               0
GRID*                899               03.7387397957E+016.3125376234E+01+
*       -2.500000000E+00               0
GRID*                900               03.9612602731E+016.3125376391E+01+
*       -2.500000000E+00               0
GRID*                901               04.1617414618E+016.4090887554E+01+
*       -2.500000000E+00               0
GRID*                902               04.3004806631E+016.5830596403E+01+
*       -2.500000000E+00               0
GRID*                903               04.3500000000E+016.7999999135E+01+
*       -2.500000000E+00               0
GRID*                904               04.3004807381E+017.0169402039E+01+
*       -2.500000000E+00               0
GRID*                905               04.1617415017E+017.1909110168E+01+
*       -2.500000000E+00               0
GRID*                906               03.9612603617E+017.2874623587E+01+
*       -2.500000000E+00               0
GRID*                907               03.7387398758E+017.2874624129E+01+
*       -2.500000000E+00               0
GRID*                908               03.5382587796E+017.1909110435E+01+
*       -2.500000000E+00               0
GRID*                909               03.3995195373E+017.0169401884E+01+
*       -2.500000000E+00               0
GRID*                910               06.1495195221E+015.8305976964E+00+
*       -2.500000000E+00               0
GRID*                911               06.2882588597E+014.0908893771E+00+
*       -2.500000000E+00               0
GRID*                912               06.4887398901E+013.1253751392E+00+
*       -2.500000000E+00               0
GRID*                913               06.7112604162E+013.1253753128E+00+
*       -2.500000000E+00               0
GRID*                914               06.9117414827E+014.0908891521E+00+
*       -2.500000000E+00               0
GRID*                915               07.0504808914E+015.8305963974E+00+
*       -2.500000000E+00               0
GRID*                916               07.1000000000E+018.0000002728E+00+
*       -2.500000000E+00               0
GRID*                917               07.0504808517E+011.0169403991E+01+
*       -2.500000000E+00               0
GRID*                918               06.9117414697E+011.1909111471E+01+
*       -2.500000000E+00               0
GRID*                919               06.7112603965E+011.2874625187E+01+
*       -2.500000000E+00               0
GRID*                920               06.4887398710E+011.2874624817E+01+
*       -2.500000000E+00               0
GRID*                921               06.2882588276E+011.1909110897E+01+
*       -2.500000000E+00               0
GRID*                922               06.1495195242E+011.0169402291E+01+
*       -2.500000000E+00               0
GRID*                923               06.1495195500E+016.5830597852E+01+
*       -2.500000000E+00               0
GRID*                924               06.2882587373E+016.4090888124E+01+
*       -2.500000000E+00               0
GRID*                925               06.4887397816E+016.3125373635E+01+
*       -2.500000000E+00               0
GRID*                926               06.7112603328E+016.3125375586E+01+
*       -2.500000000E+00               0
GRID*                927               06.9117415893E+016.4090886661E+01+
*       -2.500000000E+00               0
GRID*                928               07.0504808673E+016.5830594769E+01+
*       -2.500000000E+00               0
GRID*                929               07.1000000000E+016.7999998653E+01+
*       -2.500000000E+00               0
GRID*                930               07.0504809842E+017.0169402803E+01+
*       -2.500000000E+00               0
GRID*                931               06.9117417047E+017.1909110459E+01+
*       -2.500000000E+00               0
GRID*                932               06.7112605151E+017.2874624211E+01+
*       -2.500000000E+00               0
GRID*                933               06.4887400007E+017.2874623440E+01+
*       -2.500000000E+00               0
GRID*                934               06.2882588229E+017.1909110847E+01+
*       -2.500000000E+00               0
GRID*                935               06.1495195500E+017.0169402148E+01+
*       -2.500000000E+00               0
GRID*                936               07.5000000000E+017.5789473684E+01+
*       -2.500000000E+00               0
GRID*                937               07.5000000000E+017.1578947368E+01+
*       -2.500000000E+00               0
GRID*                938               07.5000000000E+016.7368421053E+01+
*       -2.500000000E+00               0
GRID*                939               07.5000000000E+016.3157894737E+01+
*       -2.500000000E+00               0
GRID*                940               07.5000000000E+015.8947368421E+01+
*       -2.500000000E+00               0
GRID*                941               07.5000000000E+015.4736842105E+01+
*       -2.500000000E+00               0
GRID*                942               07.5000000000E+015.0526315789E+01+
*       -2.500000000E+00               0
GRID*                943               07.5000000000E+014.6315789474E+01+
*       -2.500000000E+00               0
GRID*                944               07.5000000000E+014.2105263158E+01+
*       -2.500000000E+00               0
GRID*                945               07.5000000000E+013.7894736842E+01+
*       -2.500000000E+00               0
GRID*                946               07.5000000000E+013.3684210526E+01+
*       -2.500000000E+00               0
GRID*                947               07.5000000000E+012.9473684211E+01+
*       -2.500000000E+00               0
GRID*                948               07.5000000000E+012.5263157895E+01+
*       -2.500000000E+00               0
GRID*                949               07.5000000000E+012.1052631579E+01+
*       -2.500000000E+00               0
GRID*                950               07.5000000000E+011.6842105263E+01+
*       -2.500000000E+00               0
GRID*                951               07.5000000000E+011.2631578947E+01+
*       -2.500000000E+00               0
GRID*                952               07.5000000000E+018.4210526316E+00+
*       -2.500000000E+00               0
GRID*                953               07.5000000000E+014.2105263158E+00+
*       -2.500000000E+00               0
GRID*                954               0-2.500000000E+000.0000000000E+00+
*       -2.500000000E+00               0
GRID*                955               0-2.500000000E+000.0000000000E+00+
*       7.0000000000E+01               0
GRID*                956               0-2.500000000E+008.0000000000E+01+
*       -2.500000000E+00               0
GRID*                957               0-2.500000000E+004.0000000000E+01+
*       6.2500000000E+01               0
GRID*                958               0-2.500000000E+008.0000000000E+01+
*       7.0000000000E+01               0
GRID*                959               0-2.500000000E+000.0000000000E+00+
*       -2.500000000E+00               0
GRID*                960               0-2.500000000E+008.0000000000E+01+
*       -2.500000000E+00               0
GRID*                961               06.0000009537E+008.0000000000E+00+
*       -2.500000000E+00               0
GRID*                962               06.0000009537E+006.8000000000E+01+
*       -2.500000000E+00               0
GRID*                963               07.5000000000E+010.0000000000E+00+
*       -2.500000000E+00               0
GRID*                964               07.5000000000E+018.0000000000E+01+
*       -2.500000000E+00               0
GRID*                965               03.3500000000E+018.0000000000E+00+
*       -2.500000000E+00               0
GRID*                966               03.3500000000E+016.8000000000E+01+
*       -2.500000000E+00               0
GRID*                967               06.1000000000E+018.0000000000E+00+
*       -2.500000000E+00               0
GRID*                968               06.1000000000E+016.8000000000E+01+
*       -2.500000000E+00               0
$*
$* ELEMENT CARDS
$*
$*  Mesh Collector: Thin Shell(1)
$*  Mesh: 2d_mesh(1)
CQUAD4         1       1       1     957     748       2                +
+                      05.0000005.0000005.0000005.000000
CQUAD4         2       1       2     748     749       3                +
+                      05.0000005.0000005.0000005.000000
CQUAD4         3       1       3     749     750       4                +
+                      05.0000005.0000005.0000005.000000
CQUAD4         4       1       4     750     751       5                +
+                      05.0000005.0000005.0000005.000000
CQUAD4         5       1       5     751     752       6                +
+                      05.0000005.0000005.0000005.000000
CQUAD4         6       1       6     752     753       7                +
+                      05.0000005.0000005.0000005.000000
CQUAD4         7       1       7     753     754       8                +
+                      05.0000005.0000005.0000005.000000
CQUAD4         8       1       8     754     755       9                +
+                      05.0000005.0000005.0000005.000000
CQUAD4         9       1       9     755     756      10                +
+                      05.0000005.0000005.0000005.000000
CQUAD4        10       1      10     756     757      11                +
+                      05.0000005.0000005.0000005.000000
CQUAD4        11       1      11     757     758      12                +
+                      05.0000005.0000005.0000005.000000
CQUAD4        12       1      12     758     759      13                +
+                      05.0000005.0000005.0000005.000000
CQUAD4        13       1      13     759     760      14                +
+                      05.0000005.0000005.0000005.000000
CQUAD4        14       1      14     760     761      15                +
+                      05.0000005.0000005.0000005.000000
CQUAD4        15       1      15     761     762      16                +
+                      05.0000005.0000005.0000005.000000
CQUAD4        16       1      16     762     763      17                +
+                      05.0000005.0000005.0000005.000000
CQUAD4        17       1      17     763     764      18                +
+                      05.0000005.0000005.0000005.000000
CQUAD4        18       1      18     764     765      19                +
+                      05.0000005.0000005.0000005.000000
CQUAD4        19       1      19     765     766      20                +
+                      05.0000005.0000005.0000005.000000
CQUAD4        20       1      20     766     767      21                +
+                      05.0000005.0000005.0000005.000000
CQUAD4        21       1      21     767     768      22                +
+                      05.0000005.0000005.0000005.000000
CQUAD4        22       1      22     768     769      23                +
+                      05.0000005.0000005.0000005.000000
CQUAD4        23       1      23     769     770      24                +
+                      05.0000005.0000005.0000005.000000
CQUAD4        24       1      24     770     771      25                +
+                      05.0000005.0000005.0000005.000000
CQUAD4        25       1      25     771     957       1                +
+                      05.0000005.0000005.0000005.000000
CQUAD4        26       1      26     729     955     772                +
+                      05.0000005.0000005.0000005.000000
CQUAD4        27       1      26     772     773      27                +
+                      05.0000005.0000005.0000005.000000
CQUAD4        28       1      27     773     774      28                +
+                      05.0000005.0000005.0000005.000000
CQUAD4        29       1      28     774     775      29                +
+                      05.0000005.0000005.0000005.000000
CQUAD4        30       1      29     775     776      30                +
+                      05.0000005.0000005.0000005.000000
CQUAD4        31       1      30     776     777      31                +
+                      05.0000005.0000005.0000005.000000
CQUAD4        32       1      31     777     778      32                +
+                      05.0000005.0000005.0000005.000000
CQUAD4        33       1      33     783     784      34                +
+                      05.0000005.0000005.0000005.000000
CQUAD4        34       1      34     784     785      35                +
+                      05.0000005.0000005.0000005.000000
CQUAD4        35       1      35     785     786      36                +
+                      05.0000005.0000005.0000005.000000
CQUAD4        36       1      36     786     787      37                +
+                      05.0000005.0000005.0000005.000000
CQUAD4        37       1      37     787     788      38                +
+                      05.0000005.0000005.0000005.000000
CQUAD4        38       1      38     788     789      39                +
+                      05.0000005.0000005.0000005.000000
CQUAD4        39       1      39     789     958     790                +
+                      05.0000005.0000005.0000005.000000
CQUAD4        40       1      39     790     791      40                +
+                      05.0000005.0000005.0000005.000000
CQUAD4        41       1      40     791     792      41                +
+                      05.0000005.0000005.0000005.000000
CQUAD4        42       1      41     792     793      42                +
+                      05.0000005.0000005.0000005.000000
CQUAD4        43       1      42     793     794      43                +
+                      05.0000005.0000005.0000005.000000
CQUAD4        44       1      43     794     795      44                +
+                      05.0000005.0000005.0000005.000000
CQUAD4        45       1      44     795     796      45                +
+                      05.0000005.0000005.0000005.000000
CQUAD4        46       1      45     796     797      46                +
+                      05.0000005.0000005.0000005.000000
CQUAD4        47       1      46     797     798      47                +
+                      05.0000005.0000005.0000005.000000
CQUAD4        48       1      47     798     799      48                +
+                      05.0000005.0000005.0000005.000000
CQUAD4        49       1      48     799     800      49                +
+                      05.0000005.0000005.0000005.000000
CQUAD4        50       1      49     800     801      50                +
+                      05.0000005.0000005.0000005.000000
CQUAD4        51       1      50     801     802      51                +
+                      05.0000005.0000005.0000005.000000
CQUAD4        52       1      51     802     803      52                +
+                      05.0000005.0000005.0000005.000000
CQUAD4        53       1      52     803     804      53                +
+                      05.0000005.0000005.0000005.000000
CQUAD4        54       1      53     804     805      54                +
+                      05.0000005.0000005.0000005.000000
CQUAD4        55       1      54     805     956     730                +
+                      05.0000005.0000005.0000005.000000
CQUAD4        56       1      54     730     731      55                +
+                      05.0000005.0000005.0000005.000000
CQUAD4        57       1      55     731     732      56                +
+                      05.0000005.0000005.0000005.000000
CQUAD4        58       1      56     732     733      57                +
+                      05.0000005.0000005.0000005.000000
CQUAD4        59       1      57     733     734      58                +
+                      05.0000005.0000005.0000005.000000
CQUAD4        60       1      58     734     735      59                +
+                      05.0000005.0000005.0000005.000000
CQUAD4        61       1      59     735     736      60                +
+                      05.0000005.0000005.0000005.000000
CQUAD4        62       1      60     736     737      61                +
+                      05.0000005.0000005.0000005.000000
CQUAD4        63       1      61     737     738      62                +
+                      05.0000005.0000005.0000005.000000
CQUAD4        64       1      62     738     739      63                +
+                      05.0000005.0000005.0000005.000000
CQUAD4        65       1      63     739     740      64                +
+                      05.0000005.0000005.0000005.000000
CQUAD4        66       1      64     740     741      65                +
+                      05.0000005.0000005.0000005.000000
CQUAD4        67       1      65     741     742      66                +
+                      05.0000005.0000005.0000005.000000
CQUAD4        68       1      66     742     743      67                +
+                      05.0000005.0000005.0000005.000000
CQUAD4        69       1      67     743     744      68                +
+                      05.0000005.0000005.0000005.000000
CQUAD4        70       1      68     744     745      69                +
+                      05.0000005.0000005.0000005.000000
CQUAD4        71       1      69     745     746      70                +
+                      05.0000005.0000005.0000005.000000
CQUAD4        72       1      70     746     747      71                +
+                      05.0000005.0000005.0000005.000000
CQUAD4        73       1      71     747     954     714                +
+                      05.0000005.0000005.0000005.000000
CQUAD4        74       1      71     714     715      72                +
+                      05.0000005.0000005.0000005.000000
CQUAD4        75       1      72     715     716      73                +
+                      05.0000005.0000005.0000005.000000
CQUAD4        76       1      73     716     717      74                +
+                      05.0000005.0000005.0000005.000000
CQUAD4        77       1      74     717     718      75                +
+                      05.0000005.0000005.0000005.000000
CQUAD4        78       1      75     718     719      76                +
+                      05.0000005.0000005.0000005.000000
CQUAD4        79       1      76     719     720      77                +
+                      05.0000005.0000005.0000005.000000
CQUAD4        80       1      77     720     721      78                +
+                      05.0000005.0000005.0000005.000000
CQUAD4        81       1      78     721     722      79                +
+                      05.0000005.0000005.0000005.000000
CQUAD4        82       1      79     722     723      80                +
+                      05.0000005.0000005.0000005.000000
CQUAD4        83       1      80     723     724      81                +
+                      05.0000005.0000005.0000005.000000
CQUAD4        84       1      81     724     725      82                +
+                      05.0000005.0000005.0000005.000000
CQUAD4        85       1      82     725     726      83                +
+                      05.0000005.0000005.0000005.000000
CQUAD4        86       1      83     726     727      84                +
+                      05.0000005.0000005.0000005.000000
CQUAD4        87       1      84     727     728      85                +
+                      05.0000005.0000005.0000005.000000
CQUAD4        88       1      85     728     729      26                +
+                      05.0000005.0000005.0000005.000000
CQUAD4        89       1      86      85      26      27                +
+                      05.0000005.0000005.0000005.000000
CQUAD4        90       1      86      27      28      87                +
+                      05.0000005.0000005.0000005.000000
CQUAD4        91       1      87      28      29      88                +
+                      05.0000005.0000005.0000005.000000
CQUAD4        92       1      88      29      30      89                +
+                      05.0000005.0000005.0000005.000000
CQUAD4        93       1      89      30      31      90                +
+                      05.0000005.0000005.0000005.000000
CQUAD4        94       1      91      34      35      92                +
+                      05.0000005.0000005.0000005.000000
CQUAD4        95       1      92      35      36      93                +
+                      05.0000005.0000005.0000005.000000
CQUAD4        96       1      93      36      37      94                +
+                      05.0000005.0000005.0000005.000000
CQUAD4        97       1      94      37      38      95                +
+                      05.0000005.0000005.0000005.000000
CQUAD4        98       1      95      38      39      40                +
+                      05.0000005.0000005.0000005.000000
CQUAD4        99       1      95      40      41      96                +
+                      05.0000005.0000005.0000005.000000
CQUAD4       100       1      96      41      42      97                +
+                      05.0000005.0000005.0000005.000000
CQUAD4       101       1      97      42      43      98                +
+                      05.0000005.0000005.0000005.000000
CQUAD4       102       1      98      43      44      99                +
+                      05.0000005.0000005.0000005.000000
CQUAD4       103       1      99      44      45     100                +
+                      05.0000005.0000005.0000005.000000
CQUAD4       104       1     100      45      46     101                +
+                      05.0000005.0000005.0000005.000000
CQUAD4       105       1     101      46      47     102                +
+                      05.0000005.0000005.0000005.000000
CQUAD4       106       1     102      47      48     103                +
+                      05.0000005.0000005.0000005.000000
CQUAD4       107       1     103      48      49     104                +
+                      05.0000005.0000005.0000005.000000
CQUAD4       108       1     104      49      50     105                +
+                      05.0000005.0000005.0000005.000000
CQUAD4       109       1     105      50      51     106                +
+                      05.0000005.0000005.0000005.000000
CQUAD4       110       1     106      51      52     107                +
+                      05.0000005.0000005.0000005.000000
CQUAD4       111       1     107      52      53     108                +
+                      05.0000005.0000005.0000005.000000
CQUAD4       112       1     108      53      54      55                +
+                      05.0000005.0000005.0000005.000000
CQUAD4       113       1     108      55      56     109                +
+                      05.0000005.0000005.0000005.000000
CQUAD4       114       1     109      56      57     110                +
+                      05.0000005.0000005.0000005.000000
CQUAD4       115       1     110      57      58     111                +
+                      05.0000005.0000005.0000005.000000
CQUAD4       116       1     111      58      59     112                +
+                      05.0000005.0000005.0000005.000000
CQUAD4       117       1     112      59      60     113                +
+                      05.0000005.0000005.0000005.000000
CQUAD4       118       1     113      60      61     114                +
+                      05.0000005.0000005.0000005.000000
CQUAD4       119       1     114      61      62     115                +
+                      05.0000005.0000005.0000005.000000
CQUAD4       120       1     115      62      63     116                +
+                      05.0000005.0000005.0000005.000000
CQUAD4       121       1     116      63      64     117                +
+                      05.0000005.0000005.0000005.000000
CQUAD4       122       1     117      64      65     118                +
+                      05.0000005.0000005.0000005.000000
CQUAD4       123       1     118      65      66     119                +
+                      05.0000005.0000005.0000005.000000
CQUAD4       124       1     119      66      67     120                +
+                      05.0000005.0000005.0000005.000000
CQUAD4       125       1     120      67      68     121                +
+                      05.0000005.0000005.0000005.000000
CQUAD4       126       1     121      68      69     122                +
+                      05.0000005.0000005.0000005.000000
CQUAD4       127       1     122      69      70     123                +
+                      05.0000005.0000005.0000005.000000
CQUAD4       128       1     123      70      71      72                +
+                      05.0000005.0000005.0000005.000000
CQUAD4       129       1     123      72      73     124                +
+                      05.0000005.0000005.0000005.000000
CQUAD4       130       1     124      73      74     125                +
+                      05.0000005.0000005.0000005.000000
CQUAD4       131       1     125      74      75     126                +
+                      05.0000005.0000005.0000005.000000
CQUAD4       132       1     126      75      76     127                +
+                      05.0000005.0000005.0000005.000000
CQUAD4       133       1     127      76      77     128                +
+                      05.0000005.0000005.0000005.000000
CQUAD4       134       1     128      77      78     129                +
+                      05.0000005.0000005.0000005.000000
CQUAD4       135       1     129      78      79     130                +
+                      05.0000005.0000005.0000005.000000
CQUAD4       136       1     130      79      80     131                +
+                      05.0000005.0000005.0000005.000000
CQUAD4       137       1     131      80      81     132                +
+                      05.0000005.0000005.0000005.000000
CQUAD4       138       1     132      81      82     133                +
+                      05.0000005.0000005.0000005.000000
CQUAD4       139       1     133      82      83     134                +
+                      05.0000005.0000005.0000005.000000
CQUAD4       140       1     134      83      84     135                +
+                      05.0000005.0000005.0000005.000000
CQUAD4       141       1     135      84      85      86                +
+                      05.0000005.0000005.0000005.000000
CQUAD4       142       1     146     145     113     114                +
+                      05.0000005.0000005.0000005.000000
CQUAD4       143       1     146     114     115     147                +
+                      05.0000005.0000005.0000005.000000
CQUAD4       144       1     147     115     116     148                +
+                      05.0000005.0000005.0000005.000000
CQUAD4       145       1     148     116     117     149                +
+                      05.0000005.0000005.0000005.000000
CQUAD4       146       1     149     117     118     150                +
+                      05.0000005.0000005.0000005.000000
CQUAD4       147       1     150     118     119     151                +
+                      05.0000005.0000005.0000005.000000
CQUAD4       148       1     151     119     120     152                +
+                      05.0000005.0000005.0000005.000000
CQUAD4       149       1     152     120     121     153                +
+                      05.0000005.0000005.0000005.000000
CQUAD4       150       1     153     121     122     154                +
+                      05.0000005.0000005.0000005.000000
CQUAD4       151       1     154     122     123     124                +
+                      05.0000005.0000005.0000005.000000
CQUAD4       152       1     154     124     125     155                +
+                      05.0000005.0000005.0000005.000000
CQUAD4       153       1     155     125     126     156                +
+                      05.0000005.0000005.0000005.000000
CQUAD4       154       1     156     126     127     157                +
+                      05.0000005.0000005.0000005.000000
CQUAD4       155       1     157     127     128     158                +
+                      05.0000005.0000005.0000005.000000
CQUAD4       156       1     158     128     129     159                +
+                      05.0000005.0000005.0000005.000000
CQUAD4       157       1     159     129     130     160                +
+                      05.0000005.0000005.0000005.000000
CQUAD4       158       1     160     130     131     161                +
+                      05.0000005.0000005.0000005.000000
CQUAD4       159       1     161     131     132     162                +
+                      05.0000005.0000005.0000005.000000
CQUAD4       160       1     162     132     133     163                +
+                      05.0000005.0000005.0000005.000000
CQUAD4       161       1     163     133     134     136                +
+                      05.0000005.0000005.0000005.000000
CQUAD4       162       1     163     136     137     164                +
+                      05.0000005.0000005.0000005.000000
CQUAD4       163       1     164     137     138     165                +
+                      05.0000005.0000005.0000005.000000
CQUAD4       164       1     165     138       7       8                +
+                      05.0000005.0000005.0000005.000000
CQUAD4       165       1     165       8       9     166                +
+                      05.0000005.0000005.0000005.000000
CQUAD4       166       1     166       9      10     167                +
+                      05.0000005.0000005.0000005.000000
CQUAD4       167       1     167      10      11     168                +
+                      05.0000005.0000005.0000005.000000
CQUAD4       168       1     168      11      12     169                +
+                      05.0000005.0000005.0000005.000000
CQUAD4       169       1     169      12      13     170                +
+                      05.0000005.0000005.0000005.000000
CQUAD4       170       1     170      13      14     171                +
+                      05.0000005.0000005.0000005.000000
CQUAD4       171       1     171      14      15     140                +
+                      05.0000005.0000005.0000005.000000
CQUAD4       172       1     171     140     141     172                +
+                      05.0000005.0000005.0000005.000000
CQUAD4       173       1     172     141     142     173                +
+                      05.0000005.0000005.0000005.000000
CQUAD4       174       1     173     142     143     174                +
+                      05.0000005.0000005.0000005.000000
CQUAD4       175       1     174     143     144     175                +
+                      05.0000005.0000005.0000005.000000
CQUAD4       176       1     175     144     145     146                +
+                      05.0000005.0000005.0000005.000000
CQUAD4       177       1     176     175     146     147                +
+                      05.0000005.0000005.0000005.000000
CQUAD4       178       1     176     147     148     177                +
+                      05.0000005.0000005.0000005.000000
CQUAD4       179       1     177     148     149     178                +
+                      05.0000005.0000005.0000005.000000
CQUAD4       180       1     178     149     150     179                +
+                      05.0000005.0000005.0000005.000000
CQUAD4       181       1     179     150     151     180                +
+                      05.0000005.0000005.0000005.000000
CQUAD4       182       1     180     151     152     181                +
+                      05.0000005.0000005.0000005.000000
CQUAD4       183       1     181     152     153     182                +
+                      05.0000005.0000005.0000005.000000
CQUAD4       184       1     182     153     154     155                +
+                      05.0000005.0000005.0000005.000000
CQUAD4       185       1     182     155     156     183                +
+                      05.0000005.0000005.0000005.000000
CQUAD4       186       1     183     156     157     184                +
+                      05.0000005.0000005.0000005.000000
CQUAD4       187       1     184     157     158     185                +
+                      05.0000005.0000005.0000005.000000
CQUAD4       188       1     185     158     159     186                +
+                      05.0000005.0000005.0000005.000000
CQUAD4       189       1     186     159     160     187                +
+                      05.0000005.0000005.0000005.000000
CQUAD4       190       1     187     160     161     188                +
+                      05.0000005.0000005.0000005.000000
CQUAD4       191       1     188     161     162     189                +
+                      05.0000005.0000005.0000005.000000
CQUAD4       192       1     189     162     163     164                +
+                      05.0000005.0000005.0000005.000000
CQUAD4       193       1     189     164     165     166                +
+                      05.0000005.0000005.0000005.000000
CQUAD4       194       1     189     166     167     190                +
+                      05.0000005.0000005.0000005.000000
CQUAD4       195       1     190     167     168     191                +
+                      05.0000005.0000005.0000005.000000
CQUAD4       196       1     191     168     169     192                +
+                      05.0000005.0000005.0000005.000000
CQUAD4       197       1     192     169     170     193                +
+                      05.0000005.0000005.0000005.000000
CQUAD4       198       1     193     170     171     172                +
+                      05.0000005.0000005.0000005.000000
CQUAD4       199       1     193     172     173     194                +
+                      05.0000005.0000005.0000005.000000
CQUAD4       200       1     194     173     174     195                +
+                      05.0000005.0000005.0000005.000000
CQUAD4       201       1     195     174     175     176                +
+                      05.0000005.0000005.0000005.000000
CQUAD4       202       1     196     195     176     177                +
+                      05.0000005.0000005.0000005.000000
CQUAD4       203       1     196     177     178     197                +
+                      05.0000005.0000005.0000005.000000
CQUAD4       204       1     197     178     179     198                +
+                      05.0000005.0000005.0000005.000000
CQUAD4       205       1     198     179     180     199                +
+                      05.0000005.0000005.0000005.000000
CQUAD4       206       1     199     180     181     200                +
+                      05.0000005.0000005.0000005.000000
CQUAD4       207       1     200     181     182     183                +
+                      05.0000005.0000005.0000005.000000
CQUAD4       208       1     200     183     184     201                +
+                      05.0000005.0000005.0000005.000000
CQUAD4       209       1     201     184     185     202                +
+                      05.0000005.0000005.0000005.000000
CQUAD4       210       1     202     185     186     203                +
+                      05.0000005.0000005.0000005.000000
CQUAD4       211       1     203     186     187     204                +
+                      05.0000005.0000005.0000005.000000
CQUAD4       212       1     204     187     188     205                +
+                      05.0000005.0000005.0000005.000000
CQUAD4       213       1     205     188     189     190                +
+                      05.0000005.0000005.0000005.000000
CQUAD4       214       1     205     190     191     206                +
+                      05.0000005.0000005.0000005.000000
CQUAD4       215       1     206     191     192     207                +
+                      05.0000005.0000005.0000005.000000
CQUAD4       216       1     207     192     193     194                +
+                      05.0000005.0000005.0000005.000000
CQUAD4       217       1     207     194     195     196                +
+                      05.0000005.0000005.0000005.000000
CQUAD4       218       1     208     209     203     204                +
+                      05.0000005.0000005.0000005.000000
CQUAD4       219       1     208     204     205     206                +
+                      05.0000005.0000005.0000005.000000
CQUAD4       220       1     200     201     211     199                +
+                      05.0000005.0000005.0000005.000000
CQUAD4       221       1     201     202     210     211                +
+                      05.0000005.0000005.0000005.000000
CQUAD4       222       1     202     203     209     210                +
+                      05.0000005.0000005.0000005.000000
CQUAD4       223       1     196     197     213     207                +
+                      05.0000005.0000005.0000005.000000
CQUAD4       224       1     197     198     212     213                +
+                      05.0000005.0000005.0000005.000000
CQUAD4       225       1     198     199     211     212                +
+                      05.0000005.0000005.0000005.000000
CQUAD4       226       1      94      95      96     218                +
+                      05.0000005.0000005.0000005.000000
CQUAD4       227       1      94     218     219      93                +
+                      05.0000005.0000005.0000005.000000
CQUAD4       228       1     221      92      93     219                +
+                      05.0000005.0000005.0000005.000000
CQUAD4       229       1      21      22     222     223                +
+                      05.0000005.0000005.0000005.000000
CQUAD4       230       1     220     223     222     221                +
+                      05.0000005.0000005.0000005.000000
CQUAD4       231       1      91      92     221     222                +
+                      05.0000005.0000005.0000005.000000
CQUAD4       232       1     224     218      96      97                +
+                      05.0000005.0000005.0000005.000000
CQUAD4       233       1     224      97      98     225                +
+                      05.0000005.0000005.0000005.000000
CQUAD4       234       1     225      98      99     214                +
+                      05.0000005.0000005.0000005.000000
CQUAD4       235       1     225     214     215     226                +
+                      05.0000005.0000005.0000005.000000
CQUAD4       236       1     228     217      19      20                +
+                      05.0000005.0000005.0000005.000000
CQUAD4       237       1     227     219     218     224                +
+                      05.0000005.0000005.0000005.000000
CQUAD4       238       1     224     225     226     227                +
+                      05.0000005.0000005.0000005.000000
CQUAD4       239       1     229     214      99     100                +
+                      05.0000005.0000005.0000005.000000
CQUAD4       240       1     229     100     101     230                +
+                      05.0000005.0000005.0000005.000000
CQUAD4       241       1     230     101     102     231                +
+                      05.0000005.0000005.0000005.000000
CQUAD4       242       1     231     102     103     232                +
+                      05.0000005.0000005.0000005.000000
CQUAD4       243       1     232     103     104     233                +
+                      05.0000005.0000005.0000005.000000
CQUAD4       244       1     233     104     105     234                +
+                      05.0000005.0000005.0000005.000000
CQUAD4       245       1     234     105     106     235                +
+                      05.0000005.0000005.0000005.000000
CQUAD4       246       1     235     106     107     236                +
+                      05.0000005.0000005.0000005.000000
CQUAD4       247       1     236     107     108     109                +
+                      05.0000005.0000005.0000005.000000
CQUAD4       248       1     236     109     110     237                +
+                      05.0000005.0000005.0000005.000000
CQUAD4       249       1     237     110     111     238                +
+                      05.0000005.0000005.0000005.000000
CQUAD4       250       1     238     111     112     239                +
+                      05.0000005.0000005.0000005.000000
CQUAD4       251       1     239     112     113     145                +
+                      05.0000005.0000005.0000005.000000
CQUAD4       252       1     239     145     144     240                +
+                      05.0000005.0000005.0000005.000000
CQUAD4       253       1     240     144     143     241                +
+                      05.0000005.0000005.0000005.000000
CQUAD4       254       1     241     143     142     242                +
+                      05.0000005.0000005.0000005.000000
CQUAD4       255       1     242     142     141     243                +
+                      05.0000005.0000005.0000005.000000
CQUAD4       256       1     243     141     140     244                +
+                      05.0000005.0000005.0000005.000000
CQUAD4       257       1     244     140      15      16                +
+                      05.0000005.0000005.0000005.000000
CQUAD4       258       1     244      16      17     245                +
+                      05.0000005.0000005.0000005.000000
CQUAD4       259       1     245      17      18     246                +
+                      05.0000005.0000005.0000005.000000
CQUAD4       260       1     246      18      19     217                +
+                      05.0000005.0000005.0000005.000000
CQUAD4       261       1     246     217     216     247                +
+                      05.0000005.0000005.0000005.000000
CQUAD4       262       1     247     216     215     248                +
+                      05.0000005.0000005.0000005.000000
CQUAD4       263       1     248     215     214     229                +
+                      05.0000005.0000005.0000005.000000
CQUAD4       264       1     249     248     229     230                +
+                      05.0000005.0000005.0000005.000000
CQUAD4       265       1     249     230     231     250                +
+                      05.0000005.0000005.0000005.000000
CQUAD4       266       1     250     231     232     251                +
+                      05.0000005.0000005.0000005.000000
CQUAD4       267       1     251     232     233     252                +
+                      05.0000005.0000005.0000005.000000
CQUAD4       268       1     252     233     234     253                +
+                      05.0000005.0000005.0000005.000000
CQUAD4       269       1     253     234     235     254                +
+                      05.0000005.0000005.0000005.000000
CQUAD4       270       1     254     235     236     237                +
+                      05.0000005.0000005.0000005.000000
CQUAD4       271       1     254     237     238     255                +
+                      05.0000005.0000005.0000005.000000
CQUAD4       272       1     255     238     239     240                +
+                      05.0000005.0000005.0000005.000000
CQUAD4       273       1     255     240     241     256                +
+                      05.0000005.0000005.0000005.000000
CQUAD4       274       1     256     241     242     257                +
+                      05.0000005.0000005.0000005.000000
CQUAD4       275       1     257     242     243     258                +
+                      05.0000005.0000005.0000005.000000
CQUAD4       276       1     258     243     244     259                +
+                      05.0000005.0000005.0000005.000000
CQUAD4       277       1     259     244     245     260                +
+                      05.0000005.0000005.0000005.000000
CQUAD4       278       1     260     245     246     247                +
+                      05.0000005.0000005.0000005.000000
CQUAD4       279       1     260     247     248     249                +
+                      05.0000005.0000005.0000005.000000
CQUAD4       280       1     264     253     254     255                +
+                      05.0000005.0000005.0000005.000000
CQUAD4       281       1     264     255     256     263                +
+                      05.0000005.0000005.0000005.000000
CQUAD4       282       1     257     261     263     256                +
+                      05.0000005.0000005.0000005.000000
CQUAD4       283       1     261     262     264     263                +
+                      05.0000005.0000005.0000005.000000
CQUAD4       284       1     262     252     253     264                +
+                      05.0000005.0000005.0000005.000000
CQUAD4       285       1     266     258     259     268                +
+                      05.0000005.0000005.0000005.000000
CQUAD4       286       1     259     260     267     268                +
+                      05.0000005.0000005.0000005.000000
CQUAD4       287       1     266     268     267     265                +
+                      05.0000005.0000005.0000005.000000
CQUAD4       288       1     250     251     265     267                +
+                      05.0000005.0000005.0000005.000000
CQUAD4       289       1     250     267     260     249                +
+                      05.0000005.0000005.0000005.000000
CQUAD4       290       1     252     262     265     251                +
+                      05.0000005.0000005.0000005.000000
CQUAD4       291       1     262     261     266     265                +
+                      05.0000005.0000005.0000005.000000
CQUAD4       292       1     261     257     258     266                +
+                      05.0000005.0000005.0000005.000000
CQUAD4       293       1     780     781       1       2                +
+                      05.0000005.0000005.0000005.000000
CQUAD4       294       1       3      32     778     779                +
+                      05.0000005.0000005.0000005.000000
CQUAD4       295       1       3     779     780       2                +
+                      05.0000005.0000005.0000005.000000
CQUAD4       296       1      25       1     781     782                +
+                      05.0000005.0000005.0000005.000000
CQUAD4       297       1     782     783      33     139                +
+                      05.0000005.0000005.0000005.000000
CQUAD4       298       1     782     139      24      25                +
+                      05.0000005.0000005.0000005.000000
CQUAD4       299       1       4       5      90      31                +
+                      05.0000005.0000005.0000005.000000
CQUAD4       300       1       4      31      32       3                +
+                      05.0000005.0000005.0000005.000000
CQUAD4       301       1     134     277     272     136                +
+                      05.0000005.0000005.0000005.000000
CQUAD4       302       1      86      87     271     273                +
+                      05.0000005.0000005.0000005.000000
CQUAD4       303       1     271     272     277     273                +
+                      05.0000005.0000005.0000005.000000
CQUAD4       304       1      86     273     277     135                +
+                      05.0000005.0000005.0000005.000000
CQUAD4       305       1      88     269     271      87                +
+                      05.0000005.0000005.0000005.000000
CQUAD4       306       1     269     270     272     271                +
+                      05.0000005.0000005.0000005.000000
CQUAD4       307       1     270     137     136     272                +
+                      05.0000005.0000005.0000005.000000
CQUAD4       308       1       6       7     138     274                +
+                      05.0000005.0000005.0000005.000000
CQUAD4       309       1     275      89      90       5                +
+                      05.0000005.0000005.0000005.000000
CQUAD4       310       1     275       5       6     274                +
+                      05.0000005.0000005.0000005.000000
CQUAD4       311       1     137     270     274     138                +
+                      05.0000005.0000005.0000005.000000
CQUAD4       312       1     270     269     275     274                +
+                      05.0000005.0000005.0000005.000000
CQUAD4       313       1     269      88      89     275                +
+                      05.0000005.0000005.0000005.000000
CQUAD4       314       1     209     212     211     210                +
+                      05.0000005.0000005.0000005.000000
CQUAD4       315       1     208     213     212     209                +
+                      05.0000005.0000005.0000005.000000
CQUAD4       316       1     206     207     213     208                +
+                      05.0000005.0000005.0000005.000000
CQUAD4       317       1     227     220     221     219                +
+                      05.0000005.0000005.0000005.000000
CQUAD4       318       1     226     215     216     276                +
+                      05.0000005.0000005.0000005.000000
CQUAD4       319       1     276     216     217     228                +
+                      05.0000005.0000005.0000005.000000
CQUAD4       320       1     223     228      20      21                +
+                      05.0000005.0000005.0000005.000000
CQUAD4       321       1     220     276     228     223                +
+                      05.0000005.0000005.0000005.000000
CQUAD4       322       1     227     226     276     220                +
+                      05.0000005.0000005.0000005.000000
CQUAD4       323       1      91     222      22      23                +
+                      05.0000005.0000005.0000005.000000
CQUAD4       324       1      33      34      91      23                +
+                      05.0000005.0000005.0000005.000000
CQUAD4       325       1      23      24     139      33                +
+                      05.0000005.0000005.0000005.000000
CTRIA3       326       1     134     135     277                        +
+                      05.0000005.0000005.000000
CQUAD4       327       1     278     968     923     279                +
+                      05.0000005.0000005.0000005.000000
CQUAD4       328       1     279     923     924     280                +
+                      05.0000005.0000005.0000005.000000
CQUAD4       329       1     280     924     925     281                +
+                      05.0000005.0000005.0000005.000000
CQUAD4       330       1     281     925     926     282                +
+                      05.0000005.0000005.0000005.000000
CQUAD4       331       1     282     926     927     283                +
+                      05.0000005.0000005.0000005.000000
CQUAD4       332       1     283     927     928     284                +
+                      05.0000005.0000005.0000005.000000
CQUAD4       333       1     284     928     929     285                +
+                      05.0000005.0000005.0000005.000000
CQUAD4       334       1     285     929     930     286                +
+                      05.0000005.0000005.0000005.000000
CQUAD4       335       1     286     930     931     287                +
+                      05.0000005.0000005.0000005.000000
CQUAD4       336       1     287     931     932     288                +
+                      05.0000005.0000005.0000005.000000
CQUAD4       337       1     288     932     933     289                +
+                      05.0000005.0000005.0000005.000000
CQUAD4       338       1     289     933     934     290                +
+                      05.0000005.0000005.0000005.000000
CQUAD4       339       1     290     934     935     291                +
+                      05.0000005.0000005.0000005.000000
CQUAD4       340       1     291     935     968     278                +
+                      05.0000005.0000005.0000005.000000
CQUAD4       341       1     292     965     884     293                +
+                      05.0000005.0000005.0000005.000000
CQUAD4       342       1     293     884     885     294                +
+                      05.0000005.0000005.0000005.000000
CQUAD4       343       1     295     888     889     296                +
+                      05.0000005.0000005.0000005.000000
CQUAD4       344       1     296     889     890     297                +
+                      05.0000005.0000005.0000005.000000
CQUAD4       345       1     297     890     891     298                +
+                      05.0000005.0000005.0000005.000000
CQUAD4       346       1     298     891     892     299                +
+                      05.0000005.0000005.0000005.000000
CQUAD4       347       1     299     892     893     300                +
+                      05.0000005.0000005.0000005.000000
CQUAD4       348       1     300     893     894     301                +
+                      05.0000005.0000005.0000005.000000
CQUAD4       349       1     301     894     895     302                +
+                      05.0000005.0000005.0000005.000000
CQUAD4       350       1     302     895     896     303                +
+                      05.0000005.0000005.0000005.000000
CQUAD4       351       1     303     896     965     292                +
+                      05.0000005.0000005.0000005.000000
CQUAD4       352       1     304     966     897     305                +
+                      05.0000005.0000005.0000005.000000
CQUAD4       353       1     305     897     898     306                +
+                      05.0000005.0000005.0000005.000000
CQUAD4       354       1     306     898     899     307                +
+                      05.0000005.0000005.0000005.000000
CQUAD4       355       1     307     899     900     308                +
+                      05.0000005.0000005.0000005.000000
CQUAD4       356       1     308     900     901     309                +
+                      05.0000005.0000005.0000005.000000
CQUAD4       357       1     309     901     902     310                +
+                      05.0000005.0000005.0000005.000000
CQUAD4       358       1     310     902     903     311                +
+                      05.0000005.0000005.0000005.000000
CQUAD4       359       1     311     903     904     312                +
+                      05.0000005.0000005.0000005.000000
CQUAD4       360       1     312     904     905     313                +
+                      05.0000005.0000005.0000005.000000
CQUAD4       361       1     313     905     906     314                +
+                      05.0000005.0000005.0000005.000000
CQUAD4       362       1     314     906     907     315                +
+                      05.0000005.0000005.0000005.000000
CQUAD4       363       1     315     907     908     316                +
+                      05.0000005.0000005.0000005.000000
CQUAD4       364       1     316     908     909     317                +
+                      05.0000005.0000005.0000005.000000
CQUAD4       365       1     317     909     966     304                +
+                      05.0000005.0000005.0000005.000000
CQUAD4       366       1     318     962     837     319                +
+                      05.0000005.0000005.0000005.000000
CQUAD4       367       1     319     837     838     320                +
+                      05.0000005.0000005.0000005.000000
CQUAD4       368       1     320     838     839     321                +
+                      05.0000005.0000005.0000005.000000
CQUAD4       369       1     321     839     840     322                +
+                      05.0000005.0000005.0000005.000000
CQUAD4       370       1     322     840     841     323                +
+                      05.0000005.0000005.0000005.000000
CQUAD4       371       1     323     841     842     324                +
+                      05.0000005.0000005.0000005.000000
CQUAD4       372       1     324     842     843     325                +
+                      05.0000005.0000005.0000005.000000
CQUAD4       373       1     325     843     844     326                +
+                      05.0000005.0000005.0000005.000000
CQUAD4       374       1     326     844     845     327                +
+                      05.0000005.0000005.0000005.000000
CQUAD4       375       1     327     845     846     328                +
+                      05.0000005.0000005.0000005.000000
CQUAD4       376       1     328     846     847     329                +
+                      05.0000005.0000005.0000005.000000
CQUAD4       377       1     329     847     848     330                +
+                      05.0000005.0000005.0000005.000000
CQUAD4       378       1     330     848     849     331                +
+                      05.0000005.0000005.0000005.000000
CQUAD4       379       1     331     849     962     318                +
+                      05.0000005.0000005.0000005.000000
CQUAD4       380       1     332     278     279     333                +
+                      05.0000005.0000005.0000005.000000
CQUAD4       381       1     333     279     280     334                +
+                      05.0000005.0000005.0000005.000000
CQUAD4       382       1     334     280     281     335                +
+                      05.0000005.0000005.0000005.000000
CQUAD4       383       1     335     281     282     336                +
+                      05.0000005.0000005.0000005.000000
CQUAD4       384       1     336     282     283     337                +
+                      05.0000005.0000005.0000005.000000
CQUAD4       385       1     338     287     288     339                +
+                      05.0000005.0000005.0000005.000000
CQUAD4       386       1     339     288     289     340                +
+                      05.0000005.0000005.0000005.000000
CQUAD4       387       1     340     289     290     341                +
+                      05.0000005.0000005.0000005.000000
CQUAD4       388       1     341     290     291     342                +
+                      05.0000005.0000005.0000005.000000
CQUAD4       389       1     342     291     278     332                +
+                      05.0000005.0000005.0000005.000000
CQUAD4       390       1     343     292     293     344                +
+                      05.0000005.0000005.0000005.000000
CQUAD4       391       1     345     296     297     346                +
+                      05.0000005.0000005.0000005.000000
CQUAD4       392       1     346     297     298     347                +
+                      05.0000005.0000005.0000005.000000
CQUAD4       393       1     347     298     299     348                +
+                      05.0000005.0000005.0000005.000000
CQUAD4       394       1     348     299     300     349                +
+                      05.0000005.0000005.0000005.000000
CQUAD4       395       1     349     300     301     350                +
+                      05.0000005.0000005.0000005.000000
CQUAD4       396       1     350     301     302     351                +
+                      05.0000005.0000005.0000005.000000
CQUAD4       397       1     351     302     303     352                +
+                      05.0000005.0000005.0000005.000000
CQUAD4       398       1     352     303     292     343                +
+                      05.0000005.0000005.0000005.000000
CQUAD4       399       1     353     304     305     354                +
+                      05.0000005.0000005.0000005.000000
CQUAD4       400       1     354     305     306     355                +
+                      05.0000005.0000005.0000005.000000
CQUAD4       401       1     355     306     307     356                +
+                      05.0000005.0000005.0000005.000000
CQUAD4       402       1     356     307     308     357                +
+                      05.0000005.0000005.0000005.000000
CQUAD4       403       1     357     308     309     358                +
+                      05.0000005.0000005.0000005.000000
CQUAD4       404       1     358     309     310     359                +
+                      05.0000005.0000005.0000005.000000
CQUAD4       405       1     359     310     311     360                +
+                      05.0000005.0000005.0000005.000000
CQUAD4       406       1     360     311     312     361                +
+                      05.0000005.0000005.0000005.000000
CQUAD4       407       1     361     312     313     362                +
+                      05.0000005.0000005.0000005.000000
CQUAD4       408       1     362     313     314     363                +
+                      05.0000005.0000005.0000005.000000
CQUAD4       409       1     363     314     315     364                +
+                      05.0000005.0000005.0000005.000000
CQUAD4       410       1     364     315     316     365                +
+                      05.0000005.0000005.0000005.000000
CQUAD4       411       1     365     316     317     366                +
+                      05.0000005.0000005.0000005.000000
CQUAD4       412       1     366     317     304     353                +
+                      05.0000005.0000005.0000005.000000
CQUAD4       413       1     367     318     319     368                +
+                      05.0000005.0000005.0000005.000000
CQUAD4       414       1     368     319     320     369                +
+                      05.0000005.0000005.0000005.000000
CQUAD4       415       1     369     320     321     370                +
+                      05.0000005.0000005.0000005.000000
CQUAD4       416       1     370     321     322     371                +
+                      05.0000005.0000005.0000005.000000
CQUAD4       417       1     371     322     323     372                +
+                      05.0000005.0000005.0000005.000000
CQUAD4       418       1     372     323     324     373                +
+                      05.0000005.0000005.0000005.000000
CQUAD4       419       1     373     324     325     374                +
+                      05.0000005.0000005.0000005.000000
CQUAD4       420       1     374     325     326     375                +
+                      05.0000005.0000005.0000005.000000
CQUAD4       421       1     375     326     327     376                +
+                      05.0000005.0000005.0000005.000000
CQUAD4       422       1     376     327     328     377                +
+                      05.0000005.0000005.0000005.000000
CQUAD4       423       1     377     328     329     378                +
+                      05.0000005.0000005.0000005.000000
CQUAD4       424       1     378     329     330     379                +
+                      05.0000005.0000005.0000005.000000
CQUAD4       425       1     379     330     331     380                +
+                      05.0000005.0000005.0000005.000000
CQUAD4       426       1     380     331     318     367                +
+                      05.0000005.0000005.0000005.000000
CQUAD4       427       1     286     383     936     937                +
+                      05.0000005.0000005.0000005.000000
CQUAD4       428       1     285     286     937     938                +
+                      05.0000005.0000005.0000005.000000
CQUAD4       429       1     284     285     938     939                +
+                      05.0000005.0000005.0000005.000000
CQUAD4       430       1     384     284     939     940                +
+                      05.0000005.0000005.0000005.000000
CQUAD4       431       1     295     385     856     857                +
+                      05.0000005.0000005.0000005.000000
CQUAD4       432       1     295     857     887     888                +
+                      05.0000005.0000005.0000005.000000
CQUAD4       433       1     886     887     857     858                +
+                      05.0000005.0000005.0000005.000000
CQUAD4       434       1     886     858     294     885                +
+                      05.0000005.0000005.0000005.000000
CQUAD4       435       1     859     386     294     858                +
+                      05.0000005.0000005.0000005.000000
CQUAD4       436       1     344     293     294     386                +
+                      05.0000005.0000005.0000005.000000
CQUAD4       437       1     391     963     850     390                +
+                      05.0000005.0000005.0000005.000000
CQUAD4       438       1     392     915     916     952                +
+                      05.0000005.0000005.0000005.000000
CQUAD4       439       1     391     390     914     393                +
+                      05.0000005.0000005.0000005.000000
CQUAD4       440       1     914     915     392     393                +
+                      05.0000005.0000005.0000005.000000
CQUAD4       441       1     851     912     913     394                +
+                      05.0000005.0000005.0000005.000000
CQUAD4       442       1     913     914     390     394                +
+                      05.0000005.0000005.0000005.000000
CQUAD4       443       1     851     394     390     850                +
+                      05.0000005.0000005.0000005.000000
CQUAD4       444       1     856     385     345     855                +
+                      05.0000005.0000005.0000005.000000
CQUAD4       445       1     911     912     851     852                +
+                      05.0000005.0000005.0000005.000000
CQUAD4       446       1     396     389     967     910                +
+                      05.0000005.0000005.0000005.000000
CQUAD4       447       1     911     852     853     395                +
+                      05.0000005.0000005.0000005.000000
CQUAD4       448       1     911     395     396     910                +
+                      05.0000005.0000005.0000005.000000
CQUAD4       449       1     397     854     855     345                +
+                      05.0000005.0000005.0000005.000000
CQUAD4       450       1     397     345     346     387                +
+                      05.0000005.0000005.0000005.000000
CQUAD4       451       1     395     853     854     399                +
+                      05.0000005.0000005.0000005.000000
CQUAD4       452       1     854     397     398     399                +
+                      05.0000005.0000005.0000005.000000
CQUAD4       453       1     395     399     398     396                +
+                      05.0000005.0000005.0000005.000000
CQUAD4       454       1     388     389     396     398                +
+                      05.0000005.0000005.0000005.000000
CQUAD4       455       1     388     398     397     387                +
+                      05.0000005.0000005.0000005.000000
CQUAD4       456       1     380     367     821     822                +
+                      05.0000005.0000005.0000005.000000
CQUAD4       457       1     823     960     867     412                +
+                      05.0000005.0000005.0000005.000000
CQUAD4       458       1     867     379     380     412                +
+                      05.0000005.0000005.0000005.000000
CQUAD4       459       1     823     412     380     822                +
+                      05.0000005.0000005.0000005.000000
CQUAD4       460       1     378     379     867     868                +
+                      05.0000005.0000005.0000005.000000
CQUAD4       461       1     869     870     411     413                +
+                      05.0000005.0000005.0000005.000000
CQUAD4       462       1     411     377     378     413                +
+                      05.0000005.0000005.0000005.000000
CQUAD4       463       1     869     413     378     868                +
+                      05.0000005.0000005.0000005.000000
CQUAD4       464       1     417     416     414     415                +
+                      05.0000005.0000005.0000005.000000
CQUAD4       465       1     417     415     872     873                +
+                      05.0000005.0000005.0000005.000000
CQUAD4       466       1     874     875     364     365                +
+                      05.0000005.0000005.0000005.000000
CQUAD4       467       1     365     366     416     417                +
+                      05.0000005.0000005.0000005.000000
CQUAD4       468       1     365     417     873     874                +
+                      05.0000005.0000005.0000005.000000
CQUAD4       469       1     419     376     377     411                +
+                      05.0000005.0000005.0000005.000000
CQUAD4       470       1     419     411     870     871                +
+                      05.0000005.0000005.0000005.000000
CQUAD4       471       1     419     871     872     415                +
+                      05.0000005.0000005.0000005.000000
CQUAD4       472       1     418     375     376     419                +
+                      05.0000005.0000005.0000005.000000
CQUAD4       473       1     418     419     415     414                +
+                      05.0000005.0000005.0000005.000000
CQUAD4       474       1     424     866     959     806                +
+                      05.0000005.0000005.0000005.000000
CQUAD4       475       1     424     806     807     381                +
+                      05.0000005.0000005.0000005.000000
CQUAD4       476       1     425     424     381     382                +
+                      05.0000005.0000005.0000005.000000
CQUAD4       477       1     425     382     961     824                +
+                      05.0000005.0000005.0000005.000000
CQUAD4       478       1     426     865     866     424                +
+                      05.0000005.0000005.0000005.000000
CQUAD4       479       1     427     825     826     864                +
+                      05.0000005.0000005.0000005.000000
CQUAD4       480       1     427     864     865     426                +
+                      05.0000005.0000005.0000005.000000
CQUAD4       481       1     422     423     431     430                +
+                      05.0000005.0000005.0000005.000000
CQUAD4       482       1     423     343     344     431                +
+                      05.0000005.0000005.0000005.000000
CQUAD4       483       1     431     344     386     432                +
+                      05.0000005.0000005.0000005.000000
CQUAD4       484       1     432     386     859     860                +
+                      05.0000005.0000005.0000005.000000
CQUAD4       485       1     429     432     860     861                +
+                      05.0000005.0000005.0000005.000000
CQUAD4       486       1     430     431     432     429                +
+                      05.0000005.0000005.0000005.000000
CQUAD4       487       1     433     429     861     862                +
+                      05.0000005.0000005.0000005.000000
CQUAD4       488       1     433     862     863     428                +
+                      05.0000005.0000005.0000005.000000
CQUAD4       489       1     430     429     433     434                +
+                      05.0000005.0000005.0000005.000000
CQUAD4       490       1     435     420     421     436                +
+                      05.0000005.0000005.0000005.000000
CQUAD4       491       1     421     422     430     436                +
+                      05.0000005.0000005.0000005.000000
CQUAD4       492       1     435     436     430     434                +
+                      05.0000005.0000005.0000005.000000
CQUAD4       493       1     829     830     420     435                +
+                      05.0000005.0000005.0000005.000000
CQUAD4       494       1     434     433     428     828                +
+                      05.0000005.0000005.0000005.000000
CQUAD4       495       1     434     828     829     435                +
+                      05.0000005.0000005.0000005.000000
CQUAD4       496       1     864     826     827     437                +
+                      05.0000005.0000005.0000005.000000
CQUAD4       497       1     827     828     428     437                +
+                      05.0000005.0000005.0000005.000000
CQUAD4       498       1     864     437     428     863                +
+                      05.0000005.0000005.0000005.000000
CQUAD4       499       1     439     452     457     438                +
+                      05.0000005.0000005.0000005.000000
CQUAD4       500       1     452     453     456     457                +
+                      05.0000005.0000005.0000005.000000
CQUAD4       501       1     453     454     455     456                +
+                      05.0000005.0000005.0000005.000000
CQUAD4       502       1     454     817     818     455                +
+                      05.0000005.0000005.0000005.000000
CQUAD4       503       1     820     821     367     368                +
+                      05.0000005.0000005.0000005.000000
CQUAD4       504       1     370     438     457     459                +
+                      05.0000005.0000005.0000005.000000
CQUAD4       505       1     457     456     458     459                +
+                      05.0000005.0000005.0000005.000000
CQUAD4       506       1     370     459     458     369                +
+                      05.0000005.0000005.0000005.000000
CQUAD4       507       1     460     819     820     368                +
+                      05.0000005.0000005.0000005.000000
CQUAD4       508       1     460     368     369     458                +
+                      05.0000005.0000005.0000005.000000
CQUAD4       509       1     455     818     819     460                +
+                      05.0000005.0000005.0000005.000000
CQUAD4       510       1     455     460     458     456                +
+                      05.0000005.0000005.0000005.000000
CQUAD4       511       1     461     464     465     462                +
+                      05.0000005.0000005.0000005.000000
CQUAD4       512       1     462     465     466     463                +
+                      05.0000005.0000005.0000005.000000
CQUAD4       513       1     439     440     461     452                +
+                      05.0000005.0000005.0000005.000000
CQUAD4       514       1     440     441     464     461                +
+                      05.0000005.0000005.0000005.000000
CQUAD4       515       1     441     442     449     464                +
+                      05.0000005.0000005.0000005.000000
CQUAD4       516       1     464     449     450     465                +
+                      05.0000005.0000005.0000005.000000
CQUAD4       517       1     465     450     451     466                +
+                      05.0000005.0000005.0000005.000000
CQUAD4       518       1     466     451     814     815                +
+                      05.0000005.0000005.0000005.000000
CQUAD4       519       1     463     466     815     816                +
+                      05.0000005.0000005.0000005.000000
CQUAD4       520       1     454     463     816     817                +
+                      05.0000005.0000005.0000005.000000
CQUAD4       521       1     453     462     463     454                +
+                      05.0000005.0000005.0000005.000000
CQUAD4       522       1     452     461     462     453                +
+                      05.0000005.0000005.0000005.000000
CQUAD4       523       1     467     449     442     443                +
+                      05.0000005.0000005.0000005.000000
CQUAD4       524       1     467     443     444     468                +
+                      05.0000005.0000005.0000005.000000
CQUAD4       525       1     468     444     445     469                +
+                      05.0000005.0000005.0000005.000000
CQUAD4       526       1     469     445     446     470                +
+                      05.0000005.0000005.0000005.000000
CQUAD4       527       1     470     446     447     471                +
+                      05.0000005.0000005.0000005.000000
CQUAD4       528       1     471     447     448     472                +
+                      05.0000005.0000005.0000005.000000
CQUAD4       529       1     472     448     834     835                +
+                      05.0000005.0000005.0000005.000000
CQUAD4       530       1     472     835     836     473                +
+                      05.0000005.0000005.0000005.000000
CQUAD4       531       1     473     836     961     382                +
+                      05.0000005.0000005.0000005.000000
CQUAD4       532       1     473     382     381     474                +
+                      05.0000005.0000005.0000005.000000
CQUAD4       533       1     474     381     807     808                +
+                      05.0000005.0000005.0000005.000000
CQUAD4       534       1     474     808     809     475                +
+                      05.0000005.0000005.0000005.000000
CQUAD4       535       1     475     809     810     476                +
+                      05.0000005.0000005.0000005.000000
CQUAD4       536       1     476     810     811     477                +
+                      05.0000005.0000005.0000005.000000
CQUAD4       537       1     477     811     812     478                +
+                      05.0000005.0000005.0000005.000000
CQUAD4       538       1     478     812     813     479                +
+                      05.0000005.0000005.0000005.000000
CQUAD4       539       1     479     813     814     451                +
+                      05.0000005.0000005.0000005.000000
CQUAD4       540       1     479     451     450     480                +
+                      05.0000005.0000005.0000005.000000
CQUAD4       541       1     480     450     449     467                +
+                      05.0000005.0000005.0000005.000000
CQUAD4       542       1     481     473     474     475                +
+                      05.0000005.0000005.0000005.000000
CQUAD4       543       1     477     478     483     482                +
+                      05.0000005.0000005.0000005.000000
CQUAD4       544       1     478     479     480     483                +
+                      05.0000005.0000005.0000005.000000
CQUAD4       545       1     483     480     467     468                +
+                      05.0000005.0000005.0000005.000000
CQUAD4       546       1     482     483     468     469                +
+                      05.0000005.0000005.0000005.000000
CQUAD4       547       1     484     481     475     476                +
+                      05.0000005.0000005.0000005.000000
CQUAD4       548       1     484     476     477     482                +
+                      05.0000005.0000005.0000005.000000
CQUAD4       549       1     484     482     469     470                +
+                      05.0000005.0000005.0000005.000000
CQUAD4       550       1     422     421     494     493                +
+                      05.0000005.0000005.0000005.000000
CQUAD4       551       1     421     420     495     494                +
+                      05.0000005.0000005.0000005.000000
CQUAD4       552       1     420     830     831     495                +
+                      05.0000005.0000005.0000005.000000
CQUAD4       553       1     495     831     832     485                +
+                      05.0000005.0000005.0000005.000000
CQUAD4       554       1     494     495     485     486                +
+                      05.0000005.0000005.0000005.000000
CQUAD4       555       1     493     494     486     487                +
+                      05.0000005.0000005.0000005.000000
CQUAD4       556       1     496     423     422     493                +
+                      05.0000005.0000005.0000005.000000
CQUAD4       557       1     496     493     487     488                +
+                      05.0000005.0000005.0000005.000000
CQUAD4       558       1     352     343     423     496                +
+                      05.0000005.0000005.0000005.000000
CQUAD4       559       1     496     488     489     492                +
+                      05.0000005.0000005.0000005.000000
CQUAD4       560       1     496     492     351     352                +
+                      05.0000005.0000005.0000005.000000
CQUAD4       561       1     491     409     349     350                +
+                      05.0000005.0000005.0000005.000000
CQUAD4       562       1     492     489     490     497                +
+                      05.0000005.0000005.0000005.000000
CQUAD4       563       1     490     491     350     497                +
+                      05.0000005.0000005.0000005.000000
CQUAD4       564       1     492     497     350     351                +
+                      05.0000005.0000005.0000005.000000
CQUAD4       565       1     506     410     353     508                +
+                      05.0000005.0000005.0000005.000000
CQUAD4       566       1     353     354     507     508                +
+                      05.0000005.0000005.0000005.000000
CQUAD4       567       1     506     508     507     505                +
+                      05.0000005.0000005.0000005.000000
CQUAD4       568       1     498     499     505     507                +
+                      05.0000005.0000005.0000005.000000
CQUAD4       569       1     498     507     354     355                +
+                      05.0000005.0000005.0000005.000000
CQUAD4       570       1     509     505     499     500                +
+                      05.0000005.0000005.0000005.000000
CQUAD4       571       1     509     500     501     504                +
+                      05.0000005.0000005.0000005.000000
CQUAD4       572       1     509     504     372     373                +
+                      05.0000005.0000005.0000005.000000
CQUAD4       573       1     373     374     410     506                +
+                      05.0000005.0000005.0000005.000000
CQUAD4       574       1     373     506     505     509                +
+                      05.0000005.0000005.0000005.000000
CQUAD4       575       1     503     438     370     371                +
+                      05.0000005.0000005.0000005.000000
CQUAD4       576       1     504     501     502     510                +
+                      05.0000005.0000005.0000005.000000
CQUAD4       577       1     502     503     371     510                +
+                      05.0000005.0000005.0000005.000000
CQUAD4       578       1     504     510     371     372                +
+                      05.0000005.0000005.0000005.000000
CQUAD4       579       1     511     355     356     512                +
+                      05.0000005.0000005.0000005.000000
CQUAD4       580       1     512     356     357     400                +
+                      05.0000005.0000005.0000005.000000
CQUAD4       581       1     512     400     401     513                +
+                      05.0000005.0000005.0000005.000000
CQUAD4       582       1     513     401     402     514                +
+                      05.0000005.0000005.0000005.000000
CQUAD4       583       1     514     402     403     515                +
+                      05.0000005.0000005.0000005.000000
CQUAD4       584       1     515     403     404     516                +
+                      05.0000005.0000005.0000005.000000
CQUAD4       585       1     516     404     405     517                +
+                      05.0000005.0000005.0000005.000000
CQUAD4       586       1     517     405     406     518                +
+                      05.0000005.0000005.0000005.000000
CQUAD4       587       1     518     406     407     519                +
+                      05.0000005.0000005.0000005.000000
CQUAD4       588       1     519     407     408     520                +
+                      05.0000005.0000005.0000005.000000
CQUAD4       589       1     520     408     409     491                +
+                      05.0000005.0000005.0000005.000000
CQUAD4       590       1     520     491     490     521                +
+                      05.0000005.0000005.0000005.000000
CQUAD4       591       1     521     490     489     522                +
+                      05.0000005.0000005.0000005.000000
CQUAD4       592       1     522     489     488     523                +
+                      05.0000005.0000005.0000005.000000
CQUAD4       593       1     523     488     487     524                +
+                      05.0000005.0000005.0000005.000000
CQUAD4       594       1     524     487     486     525                +
+                      05.0000005.0000005.0000005.000000
CQUAD4       595       1     525     486     485     526                +
+                      05.0000005.0000005.0000005.000000
CQUAD4       596       1     526     485     832     527                +
+                      05.0000005.0000005.0000005.000000
CQUAD4       597       1     527     832     833     528                +
+                      05.0000005.0000005.0000005.000000
CQUAD4       598       1     528     833     834     448                +
+                      05.0000005.0000005.0000005.000000
CQUAD4       599       1     529     445     444     530                +
+                      05.0000005.0000005.0000005.000000
CQUAD4       600       1     530     444     443     531                +
+                      05.0000005.0000005.0000005.000000
CQUAD4       601       1     531     443     442     532                +
+                      05.0000005.0000005.0000005.000000
CQUAD4       602       1     532     442     441     533                +
+                      05.0000005.0000005.0000005.000000
CQUAD4       603       1     533     441     440     534                +
+                      05.0000005.0000005.0000005.000000
CQUAD4       604       1     534     440     439     535                +
+                      05.0000005.0000005.0000005.000000
CQUAD4       605       1     535     439     438     503                +
+                      05.0000005.0000005.0000005.000000
CQUAD4       606       1     535     503     502     536                +
+                      05.0000005.0000005.0000005.000000
CQUAD4       607       1     536     502     501     537                +
+                      05.0000005.0000005.0000005.000000
CQUAD4       608       1     537     501     500     538                +
+                      05.0000005.0000005.0000005.000000
CQUAD4       609       1     538     500     499     539                +
+                      05.0000005.0000005.0000005.000000
CQUAD4       610       1     539     499     498     540                +
+                      05.0000005.0000005.0000005.000000
CQUAD4       611       1     540     498     355     511                +
+                      05.0000005.0000005.0000005.000000
CQUAD4       612       1     544     545     550     549                +
+                      05.0000005.0000005.0000005.000000
CQUAD4       613       1     545     533     534     550                +
+                      05.0000005.0000005.0000005.000000
CQUAD4       614       1     550     534     535     536                +
+                      05.0000005.0000005.0000005.000000
CQUAD4       615       1     549     550     536     537                +
+                      05.0000005.0000005.0000005.000000
CQUAD4       616       1     515     541     552     514                +
+                      05.0000005.0000005.0000005.000000
CQUAD4       617       1     541     542     551     552                +
+                      05.0000005.0000005.0000005.000000
CQUAD4       618       1     542     543     548     551                +
+                      05.0000005.0000005.0000005.000000
CQUAD4       619       1     548     547     554     551                +
+                      05.0000005.0000005.0000005.000000
CQUAD4       620       1     547     546     553     554                +
+                      05.0000005.0000005.0000005.000000
CQUAD4       621       1     546     538     539     553                +
+                      05.0000005.0000005.0000005.000000
CQUAD4       622       1     513     514     552     555                +
+                      05.0000005.0000005.0000005.000000
CQUAD4       623       1     556     540     511     512                +
+                      05.0000005.0000005.0000005.000000
CQUAD4       624       1     556     512     513     555                +
+                      05.0000005.0000005.0000005.000000
CQUAD4       625       1     551     554     555     552                +
+                      05.0000005.0000005.0000005.000000
CQUAD4       626       1     554     553     556     555                +
+                      05.0000005.0000005.0000005.000000
CQUAD4       627       1     553     539     540     556                +
+                      05.0000005.0000005.0000005.000000
CQUAD4       628       1     533     545     561     532                +
+                      05.0000005.0000005.0000005.000000
CQUAD4       629       1     545     544     560     561                +
+                      05.0000005.0000005.0000005.000000
CQUAD4       630       1     544     543     559     560                +
+                      05.0000005.0000005.0000005.000000
CQUAD4       631       1     543     542     558     559                +
+                      05.0000005.0000005.0000005.000000
CQUAD4       632       1     542     541     557     558                +
+                      05.0000005.0000005.0000005.000000
CQUAD4       633       1     541     515     516     557                +
+                      05.0000005.0000005.0000005.000000
CQUAD4       634       1     532     561     566     531                +
+                      05.0000005.0000005.0000005.000000
CQUAD4       635       1     561     560     565     566                +
+                      05.0000005.0000005.0000005.000000
CQUAD4       636       1     560     559     564     565                +
+                      05.0000005.0000005.0000005.000000
CQUAD4       637       1     559     558     563     564                +
+                      05.0000005.0000005.0000005.000000
CQUAD4       638       1     558     557     562     563                +
+                      05.0000005.0000005.0000005.000000
CQUAD4       639       1     557     516     517     562                +
+                      05.0000005.0000005.0000005.000000
CQUAD4       640       1     573     522     523     567                +
+                      05.0000005.0000005.0000005.000000
CQUAD4       641       1     573     567     568     570                +
+                      05.0000005.0000005.0000005.000000
CQUAD4       642       1     572     519     520     521                +
+                      05.0000005.0000005.0000005.000000
CQUAD4       643       1     573     570     571     574                +
+                      05.0000005.0000005.0000005.000000
CQUAD4       644       1     571     572     521     574                +
+                      05.0000005.0000005.0000005.000000
CQUAD4       645       1     573     574     521     522                +
+                      05.0000005.0000005.0000005.000000
CQUAD4       646       1     568     569     575     570                +
+                      05.0000005.0000005.0000005.000000
CQUAD4       647       1     569     565     564     575                +
+                      05.0000005.0000005.0000005.000000
CQUAD4       648       1     575     564     563     576                +
+                      05.0000005.0000005.0000005.000000
CQUAD4       649       1     576     563     562     577                +
+                      05.0000005.0000005.0000005.000000
CQUAD4       650       1     577     562     517     518                +
+                      05.0000005.0000005.0000005.000000
CQUAD4       651       1     572     577     518     519                +
+                      05.0000005.0000005.0000005.000000
CQUAD4       652       1     571     576     577     572                +
+                      05.0000005.0000005.0000005.000000
CQUAD4       653       1     570     575     576     571                +
+                      05.0000005.0000005.0000005.000000
CQUAD4       654       1     530     531     566     580                +
+                      05.0000005.0000005.0000005.000000
CQUAD4       655       1     529     530     580     581                +
+                      05.0000005.0000005.0000005.000000
CQUAD4       656       1     582     583     529     581                +
+                      05.0000005.0000005.0000005.000000
CQUAD4       657       1     580     566     565     569                +
+                      05.0000005.0000005.0000005.000000
CQUAD4       658       1     584     568     567     578                +
+                      05.0000005.0000005.0000005.000000
CQUAD4       659       1     584     578     579     582                +
+                      05.0000005.0000005.0000005.000000
CQUAD4       660       1     581     580     569     585                +
+                      05.0000005.0000005.0000005.000000
CQUAD4       661       1     569     568     584     585                +
+                      05.0000005.0000005.0000005.000000
CQUAD4       662       1     581     585     584     582                +
+                      05.0000005.0000005.0000005.000000
CQUAD4       663       1     578     567     523     524                +
+                      05.0000005.0000005.0000005.000000
CQUAD4       664       1     579     578     524     525                +
+                      05.0000005.0000005.0000005.000000
CQUAD4       665       1     586     579     525     526                +
+                      05.0000005.0000005.0000005.000000
CQUAD4       666       1     883     964     936     383                +
+                      05.0000005.0000005.0000005.000000
CQUAD4       667       1     588     881     882     589                +
+                      05.0000005.0000005.0000005.000000
CQUAD4       668       1     882     883     339     589                +
+                      05.0000005.0000005.0000005.000000
CQUAD4       669       1     588     589     339     340                +
+                      05.0000005.0000005.0000005.000000
CQUAD4       670       1     362     363     876     877                +
+                      05.0000005.0000005.0000005.000000
CQUAD4       671       1     363     364     875     876                +
+                      05.0000005.0000005.0000005.000000
CQUAD4       672       1     593     878     879     590                +
+                      05.0000005.0000005.0000005.000000
CQUAD4       673       1     593     590     591     592                +
+                      05.0000005.0000005.0000005.000000
CQUAD4       674       1     362     877     878     593                +
+                      05.0000005.0000005.0000005.000000
CQUAD4       675       1     362     593     592     361                +
+                      05.0000005.0000005.0000005.000000
CQUAD4       676       1     595     594     591     590                +
+                      05.0000005.0000005.0000005.000000
CQUAD4       677       1     595     590     879     880                +
+                      05.0000005.0000005.0000005.000000
CQUAD4       678       1     341     342     594     595                +
+                      05.0000005.0000005.0000005.000000
CQUAD4       679       1     595     880     881     588                +
+                      05.0000005.0000005.0000005.000000
CQUAD4       680       1     595     588     340     341                +
+                      05.0000005.0000005.0000005.000000
CQUAD4       681       1     609     598     599     608                +
+                      05.0000005.0000005.0000005.000000
CQUAD4       682       1     609     608     948     949                +
+                      05.0000005.0000005.0000005.000000
CQUAD4       683       1     610     597     598     609                +
+                      05.0000005.0000005.0000005.000000
CQUAD4       684       1     610     609     949     950                +
+                      05.0000005.0000005.0000005.000000
CQUAD4       685       1     611     918     919     596                +
+                      05.0000005.0000005.0000005.000000
CQUAD4       686       1     611     596     597     610                +
+                      05.0000005.0000005.0000005.000000
CQUAD4       687       1     612     610     950     951                +
+                      05.0000005.0000005.0000005.000000
CQUAD4       688       1     952     916     917     613                +
+                      05.0000005.0000005.0000005.000000
CQUAD4       689       1     952     613     612     951                +
+                      05.0000005.0000005.0000005.000000
CQUAD4       690       1     384     940     941     614                +
+                      05.0000005.0000005.0000005.000000
CQUAD4       691       1     615     607     336     337                +
+                      05.0000005.0000005.0000005.000000
CQUAD4       692       1     615     337     384     614                +
+                      05.0000005.0000005.0000005.000000
CQUAD4       693       1     616     947     948     608                +
+                      05.0000005.0000005.0000005.000000
CQUAD4       694       1     616     608     599     600                +
+                      05.0000005.0000005.0000005.000000
CQUAD4       695       1     617     946     947     616                +
+                      05.0000005.0000005.0000005.000000
CQUAD4       696       1     617     616     600     601                +
+                      05.0000005.0000005.0000005.000000
CQUAD4       697       1     607     615     619     606                +
+                      05.0000005.0000005.0000005.000000
CQUAD4       698       1     615     614     618     619                +
+                      05.0000005.0000005.0000005.000000
CQUAD4       699       1     614     941     942     618                +
+                      05.0000005.0000005.0000005.000000
CQUAD4       700       1     620     945     946     617                +
+                      05.0000005.0000005.0000005.000000
CQUAD4       701       1     620     617     601     602                +
+                      05.0000005.0000005.0000005.000000
CQUAD4       702       1     606     619     622     605                +
+                      05.0000005.0000005.0000005.000000
CQUAD4       703       1     619     618     621     622                +
+                      05.0000005.0000005.0000005.000000
CQUAD4       704       1     618     942     943     621                +
+                      05.0000005.0000005.0000005.000000
CQUAD4       705       1     624     944     945     620                +
+                      05.0000005.0000005.0000005.000000
CQUAD4       706       1     603     604     623     625                +
+                      05.0000005.0000005.0000005.000000
CQUAD4       707       1     623     624     620     625                +
+                      05.0000005.0000005.0000005.000000
CQUAD4       708       1     603     625     620     602                +
+                      05.0000005.0000005.0000005.000000
CQUAD4       709       1     605     622     623     604                +
+                      05.0000005.0000005.0000005.000000
CQUAD4       710       1     622     621     624     623                +
+                      05.0000005.0000005.0000005.000000
CQUAD4       711       1     621     943     944     624                +
+                      05.0000005.0000005.0000005.000000
CQUAD4       712       1     632     587     332     333                +
+                      05.0000005.0000005.0000005.000000
CQUAD4       713       1     626     627     631     633                +
+                      05.0000005.0000005.0000005.000000
CQUAD4       714       1     631     632     333     633                +
+                      05.0000005.0000005.0000005.000000
CQUAD4       715       1     626     633     333     334                +
+                      05.0000005.0000005.0000005.000000
CQUAD4       716       1     359     360     587     632                +
+                      05.0000005.0000005.0000005.000000
CQUAD4       717       1     634     359     632     631                +
+                      05.0000005.0000005.0000005.000000
CQUAD4       718       1     634     631     627     628                +
+                      05.0000005.0000005.0000005.000000
CQUAD4       719       1     630     400     357     636                +
+                      05.0000005.0000005.0000005.000000
CQUAD4       720       1     357     358     635     636                +
+                      05.0000005.0000005.0000005.000000
CQUAD4       721       1     630     636     635     629                +
+                      05.0000005.0000005.0000005.000000
CQUAD4       722       1     634     628     629     635                +
+                      05.0000005.0000005.0000005.000000
CQUAD4       723       1     634     635     358     359                +
+                      05.0000005.0000005.0000005.000000
CQUAD4       724       1     637     334     335     638                +
+                      05.0000005.0000005.0000005.000000
CQUAD4       725       1     638     335     336     607                +
+                      05.0000005.0000005.0000005.000000
CQUAD4       726       1     638     607     606     639                +
+                      05.0000005.0000005.0000005.000000
CQUAD4       727       1     639     606     605     640                +
+                      05.0000005.0000005.0000005.000000
CQUAD4       728       1     640     605     604     641                +
+                      05.0000005.0000005.0000005.000000
CQUAD4       729       1     641     604     603     642                +
+                      05.0000005.0000005.0000005.000000
CQUAD4       730       1     642     603     602     643                +
+                      05.0000005.0000005.0000005.000000
CQUAD4       731       1     643     602     601     644                +
+                      05.0000005.0000005.0000005.000000
CQUAD4       732       1     644     601     600     645                +
+                      05.0000005.0000005.0000005.000000
CQUAD4       733       1     645     600     599     646                +
+                      05.0000005.0000005.0000005.000000
CQUAD4       734       1     646     599     598     647                +
+                      05.0000005.0000005.0000005.000000
CQUAD4       735       1     647     598     597     648                +
+                      05.0000005.0000005.0000005.000000
CQUAD4       736       1     648     597     596     649                +
+                      05.0000005.0000005.0000005.000000
CQUAD4       737       1     649     596     919     920                +
+                      05.0000005.0000005.0000005.000000
CQUAD4       738       1     649     920     921     650                +
+                      05.0000005.0000005.0000005.000000
CQUAD4       739       1     650     921     922     651                +
+                      05.0000005.0000005.0000005.000000
CQUAD4       740       1     651     922     967     389                +
+                      05.0000005.0000005.0000005.000000
CQUAD4       741       1     651     389     388     652                +
+                      05.0000005.0000005.0000005.000000
CQUAD4       742       1     652     388     387     653                +
+                      05.0000005.0000005.0000005.000000
CQUAD4       743       1     653     387     346     347                +
+                      05.0000005.0000005.0000005.000000
CQUAD4       744       1     653     347     348     654                +
+                      05.0000005.0000005.0000005.000000
CQUAD4       745       1     654     348     349     409                +
+                      05.0000005.0000005.0000005.000000
CQUAD4       746       1     654     409     408     655                +
+                      05.0000005.0000005.0000005.000000
CQUAD4       747       1     655     408     407     656                +
+                      05.0000005.0000005.0000005.000000
CQUAD4       748       1     656     407     406     657                +
+                      05.0000005.0000005.0000005.000000
CQUAD4       749       1     657     406     405     658                +
+                      05.0000005.0000005.0000005.000000
CQUAD4       750       1     658     405     404     659                +
+                      05.0000005.0000005.0000005.000000
CQUAD4       751       1     659     404     403     660                +
+                      05.0000005.0000005.0000005.000000
CQUAD4       752       1     660     403     402     661                +
+                      05.0000005.0000005.0000005.000000
CQUAD4       753       1     661     402     401     662                +
+                      05.0000005.0000005.0000005.000000
CQUAD4       754       1     662     401     400     630                +
+                      05.0000005.0000005.0000005.000000
CQUAD4       755       1     662     630     629     663                +
+                      05.0000005.0000005.0000005.000000
CQUAD4       756       1     663     629     628     664                +
+                      05.0000005.0000005.0000005.000000
CQUAD4       757       1     664     628     627     665                +
+                      05.0000005.0000005.0000005.000000
CQUAD4       758       1     665     627     626     666                +
+                      05.0000005.0000005.0000005.000000
CQUAD4       759       1     666     626     334     637                +
+                      05.0000005.0000005.0000005.000000
CQUAD4       760       1     670     661     662     663                +
+                      05.0000005.0000005.0000005.000000
CQUAD4       761       1     673     674     669     670                +
+                      05.0000005.0000005.0000005.000000
CQUAD4       762       1     673     670     663     664                +
+                      05.0000005.0000005.0000005.000000
CQUAD4       763       1     665     671     673     664                +
+                      05.0000005.0000005.0000005.000000
CQUAD4       764       1     671     672     674     673                +
+                      05.0000005.0000005.0000005.000000
CQUAD4       765       1     672     668     669     674                +
+                      05.0000005.0000005.0000005.000000
CQUAD4       766       1     675     639     640     667                +
+                      05.0000005.0000005.0000005.000000
CQUAD4       767       1     675     667     668     672                +
+                      05.0000005.0000005.0000005.000000
CQUAD4       768       1     676     666     637     638                +
+                      05.0000005.0000005.0000005.000000
CQUAD4       769       1     676     638     639     675                +
+                      05.0000005.0000005.0000005.000000
CQUAD4       770       1     671     665     666     676                +
+                      05.0000005.0000005.0000005.000000
CQUAD4       771       1     671     676     675     672                +
+                      05.0000005.0000005.0000005.000000
CQUAD4       772       1     661     670     680     660                +
+                      05.0000005.0000005.0000005.000000
CQUAD4       773       1     670     669     679     680                +
+                      05.0000005.0000005.0000005.000000
CQUAD4       774       1     669     668     678     679                +
+                      05.0000005.0000005.0000005.000000
CQUAD4       775       1     668     667     677     678                +
+                      05.0000005.0000005.0000005.000000
CQUAD4       776       1     667     640     641     677                +
+                      05.0000005.0000005.0000005.000000
CQUAD4       777       1     660     680     684     659                +
+                      05.0000005.0000005.0000005.000000
CQUAD4       778       1     680     679     683     684                +
+                      05.0000005.0000005.0000005.000000
CQUAD4       779       1     679     678     682     683                +
+                      05.0000005.0000005.0000005.000000
CQUAD4       780       1     678     677     681     682                +
+                      05.0000005.0000005.0000005.000000
CQUAD4       781       1     677     641     642     681                +
+                      05.0000005.0000005.0000005.000000
CQUAD4       782       1     659     684     688     658                +
+                      05.0000005.0000005.0000005.000000
CQUAD4       783       1     684     683     687     688                +
+                      05.0000005.0000005.0000005.000000
CQUAD4       784       1     683     682     686     687                +
+                      05.0000005.0000005.0000005.000000
CQUAD4       785       1     682     681     685     686                +
+                      05.0000005.0000005.0000005.000000
CQUAD4       786       1     681     642     643     685                +
+                      05.0000005.0000005.0000005.000000
CQUAD4       787       1     699     653     654     696                +
+                      05.0000005.0000005.0000005.000000
CQUAD4       788       1     699     696     697     698                +
+                      05.0000005.0000005.0000005.000000
CQUAD4       789       1     694     695     699     698                +
+                      05.0000005.0000005.0000005.000000
CQUAD4       790       1     695     652     653     699                +
+                      05.0000005.0000005.0000005.000000
CQUAD4       791       1     655     689     696     654                +
+                      05.0000005.0000005.0000005.000000
CQUAD4       792       1     689     690     697     696                +
+                      05.0000005.0000005.0000005.000000
CQUAD4       793       1     700     648     649     650                +
+                      05.0000005.0000005.0000005.000000
CQUAD4       794       1     651     652     695     701                +
+                      05.0000005.0000005.0000005.000000
CQUAD4       795       1     695     694     700     701                +
+                      05.0000005.0000005.0000005.000000
CQUAD4       796       1     651     701     700     650                +
+                      05.0000005.0000005.0000005.000000
CQUAD4       797       1     693     647     648     700                +
+                      05.0000005.0000005.0000005.000000
CQUAD4       798       1     702     689     655     656                +
+                      05.0000005.0000005.0000005.000000
CQUAD4       799       1     702     656     657     703                +
+                      05.0000005.0000005.0000005.000000
CQUAD4       800       1     703     657     658     688                +
+                      05.0000005.0000005.0000005.000000
CQUAD4       801       1     703     688     687     704                +
+                      05.0000005.0000005.0000005.000000
CQUAD4       802       1     704     687     686     705                +
+                      05.0000005.0000005.0000005.000000
CQUAD4       803       1     705     686     685     706                +
+                      05.0000005.0000005.0000005.000000
CQUAD4       804       1     706     685     643     644                +
+                      05.0000005.0000005.0000005.000000
CQUAD4       805       1     706     644     645     707                +
+                      05.0000005.0000005.0000005.000000
CQUAD4       806       1     707     645     646     708                +
+                      05.0000005.0000005.0000005.000000
CQUAD4       807       1     708     646     647     693                +
+                      05.0000005.0000005.0000005.000000
CQUAD4       808       1     708     693     692     709                +
+                      05.0000005.0000005.0000005.000000
CQUAD4       809       1     709     692     691     710                +
+                      05.0000005.0000005.0000005.000000
CQUAD4       810       1     710     691     690     711                +
+                      05.0000005.0000005.0000005.000000
CQUAD4       811       1     711     690     689     702                +
+                      05.0000005.0000005.0000005.000000
CQUAD4       812       1     712     705     706     707                +
+                      05.0000005.0000005.0000005.000000
CQUAD4       813       1     712     707     708     709                +
+                      05.0000005.0000005.0000005.000000
CQUAD4       814       1     711     702     703     704                +
+                      05.0000005.0000005.0000005.000000
CQUAD4       815       1     712     709     710     713                +
+                      05.0000005.0000005.0000005.000000
CQUAD4       816       1     710     711     704     713                +
+                      05.0000005.0000005.0000005.000000
CQUAD4       817       1     712     713     704     705                +
+                      05.0000005.0000005.0000005.000000
CQUAD4       818       1     295     296     345     385                +
+                      05.0000005.0000005.0000005.000000
CQUAD4       819       1     393     392     952     953                +
+                      05.0000005.0000005.0000005.000000
CQUAD4       820       1     393     953     963     391                +
+                      05.0000005.0000005.0000005.000000
CQUAD4       821       1     410     416     366     353                +
+                      05.0000005.0000005.0000005.000000
CQUAD4       822       1     410     418     414     416                +
+                      05.0000005.0000005.0000005.000000
CQUAD4       823       1     374     375     418     410                +
+                      05.0000005.0000005.0000005.000000
CQUAD4       824       1     427     426     424     425                +
+                      05.0000005.0000005.0000005.000000
CQUAD4       825       1     425     824     825     427                +
+                      05.0000005.0000005.0000005.000000
CQUAD4       826       1     481     484     470     471                +
+                      05.0000005.0000005.0000005.000000
CQUAD4       827       1     471     472     473     481                +
+                      05.0000005.0000005.0000005.000000
CQUAD4       828       1     549     548     543     544                +
+                      05.0000005.0000005.0000005.000000
CQUAD4       829       1     549     546     547     548                +
+                      05.0000005.0000005.0000005.000000
CQUAD4       830       1     537     538     546     549                +
+                      05.0000005.0000005.0000005.000000
CQUAD4       831       1     583     582     579     586                +
+                      05.0000005.0000005.0000005.000000
CQUAD4       832       1     587     594     342     332                +
+                      05.0000005.0000005.0000005.000000
CQUAD4       833       1     587     592     591     594                +
+                      05.0000005.0000005.0000005.000000
CQUAD4       834       1     360     361     592     587                +
+                      05.0000005.0000005.0000005.000000
CQUAD4       835       1     613     917     918     611                +
+                      05.0000005.0000005.0000005.000000
CQUAD4       836       1     611     610     612     613                +
+                      05.0000005.0000005.0000005.000000
CQUAD4       837       1     693     700     694     692                +
+                      05.0000005.0000005.0000005.000000
CQUAD4       838       1     692     694     698     691                +
+                      05.0000005.0000005.0000005.000000
CQUAD4       839       1     691     698     697     690                +
+                      05.0000005.0000005.0000005.000000
CQUAD4       840       1     529     583     446     445                +
+                      05.0000005.0000005.0000005.000000
CQUAD4       841       1     583     586     447     446                +
+                      05.0000005.0000005.0000005.000000
CQUAD4       842       1     586     526     527     528                +
+                      05.0000005.0000005.0000005.000000
CQUAD4       843       1     586     528     448     447                +
+                      05.0000005.0000005.0000005.000000
CTRIA3       844       1     286     287     338                        +
+                      05.0000005.0000005.000000
CTRIA3       845       1     286     338     383                        +
+                      05.0000005.0000005.000000
CTRIA3       846       1     384     337     284                        +
+                      05.0000005.0000005.000000
CTRIA3       847       1     337     283     284                        +
+                      05.0000005.0000005.000000
CTRIA3       848       1     883     383     338                        +
+                      05.0000005.0000005.000000
CTRIA3       849       1     883     338     339                        +
+                      05.0000005.0000005.000000
$*
$* PROPERTY CARDS
$*
$*  Property: PSHELL1::HW_CAE_STR1_1_fem3::[1]
PSHELL         1       1               11.000000       10.833333  0.0000
$*
$* MATERIAL CARDS
$*
$*  Material: Steel-Rolled::HW_CAE_STR1_1_fem3::[1]
MAT1           12.0600+8        0.3000007.8500-61.7280-5
$*
$* LOAD AND CONSTRAINT CARDS
$*
$*  Load: Force(1)
FORCE          1     772       06.3158+5-1.00000  0.0000  0.0000
FORCE          1     773       06.3158+5-1.00000  0.0000  0.0000
FORCE          1     774       06.3158+5-1.00000  0.0000  0.0000
FORCE          1     775       06.3158+5-1.00000  0.0000  0.0000
FORCE          1     776       06.3158+5-1.00000  0.0000  0.0000
FORCE          1     777       06.3158+5-1.00000  0.0000  0.0000
FORCE          1     778       06.3158+5-1.00000  0.0000  0.0000
FORCE          1     779       06.3158+5-1.00000  0.0000  0.0000
FORCE          1     780       06.3158+5-1.00000  0.0000  0.0000
FORCE          1     781       06.3158+5-1.00000  0.0000  0.0000
FORCE          1     782       06.3158+5-1.00000  0.0000  0.0000
FORCE          1     783       06.3158+5-1.00000  0.0000  0.0000
FORCE          1     784       06.3158+5-1.00000  0.0000  0.0000
FORCE          1     785       06.3158+5-1.00000  0.0000  0.0000
FORCE          1     786       06.3158+5-1.00000  0.0000  0.0000
FORCE          1     787       06.3158+5-1.00000  0.0000  0.0000
FORCE          1     788       06.3158+5-1.00000  0.0000  0.0000
FORCE          1     789       06.3158+5-1.00000  0.0000  0.0000
FORCE          1     955       03.1579+5-1.00000  0.0000  0.0000
FORCE          1     958       03.1579+5-1.00000  0.0000  0.0000
$*  Constraint: Fixed(1)
SPC            2     824  123456  0.0000
SPC            2     825  123456  0.0000
SPC            2     826  123456  0.0000
SPC            2     827  123456  0.0000
SPC            2     828  123456  0.0000
SPC            2     829  123456  0.0000
SPC            2     830  123456  0.0000
SPC            2     831  123456  0.0000
SPC            2     832  123456  0.0000
SPC            2     833  123456  0.0000
SPC            2     834  123456  0.0000
SPC            2     835  123456  0.0000
SPC            2     836  123456  0.0000
SPC            2     837  123456  0.0000
SPC            2     838  123456  0.0000
SPC            2     839  123456  0.0000
SPC            2     840  123456  0.0000
SPC            2     841  123456  0.0000
SPC            2     842  123456  0.0000
SPC            2     843  123456  0.0000
SPC            2     844  123456  0.0000
SPC            2     845  123456  0.0000
SPC            2     846  123456  0.0000
SPC            2     847  123456  0.0000
SPC            2     848  123456  0.0000
SPC            2     849  123456  0.0000
SPC            2     884  123456  0.0000
SPC            2     885  123456  0.0000
SPC            2     886  123456  0.0000
SPC            2     887  123456  0.0000
SPC            2     888  123456  0.0000
SPC            2     889  123456  0.0000
SPC            2     890  123456  0.0000
SPC            2     891  123456  0.0000
SPC            2     892  123456  0.0000
SPC            2     893  123456  0.0000
SPC            2     894  123456  0.0000
SPC            2     895  123456  0.0000
SPC            2     896  123456  0.0000
SPC            2     897  123456  0.0000
SPC            2     898  123456  0.0000
SPC            2     899  123456  0.0000
SPC            2     900  123456  0.0000
SPC            2     901  123456  0.0000
SPC            2     902  123456  0.0000
SPC            2     903  123456  0.0000
SPC            2     904  123456  0.0000
SPC            2     905  123456  0.0000
SPC            2     906  123456  0.0000
SPC            2     907  123456  0.0000
SPC            2     908  123456  0.0000
SPC            2     909  123456  0.0000
SPC            2     910  123456  0.0000
SPC            2     911  123456  0.0000
SPC            2     912  123456  0.0000
SPC            2     913  123456  0.0000
SPC            2     914  123456  0.0000
SPC            2     915  123456  0.0000
SPC            2     916  123456  0.0000
SPC            2     917  123456  0.0000
SPC            2     918  123456  0.0000
SPC            2     919  123456  0.0000
SPC            2     920  123456  0.0000
SPC            2     921  123456  0.0000
SPC            2     922  123456  0.0000
SPC            2     923  123456  0.0000
SPC            2     924  123456  0.0000
SPC            2     925  123456  0.0000
SPC            2     926  123456  0.0000
SPC            2     927  123456  0.0000
SPC            2     928  123456  0.0000
SPC            2     929  123456  0.0000
SPC            2     930  123456  0.0000
SPC            2     931  123456  0.0000
SPC            2     932  123456  0.0000
SPC            2     933  123456  0.0000
SPC            2     934  123456  0.0000
SPC            2     935  123456  0.0000
SPC            2     961  123456  0.0000
SPC            2     962  123456  0.0000
SPC            2     965  123456  0.0000
SPC            2     966  123456  0.0000
SPC            2     967  123456  0.0000
SPC            2     968  123456  0.0000
ENDDATA b3a89423
