$*$$$$$$$$$$$$$$$$$$$$$$$$$$$$$$$$$$$$$$$$$$$$$$$$$$$$$$$$$$$$$$$$$
$*
$*                    Simcenter v2206.0.0.8101 Translator
$*                    for Simcenter Nastran version 2206.0
$*
$*             FEM FILE: D:\Latex_docs\MaM\lectures\12\solution\free_body_diag\free_body_diag_fem1.fem
$*             SIM FILE: D:\Latex_docs\MaM\lectures\12\solution\free_body_diag\free_body_diag_sim1.sim
$*        ANALYSIS TYPE: Structural
$*        SOLUTION NAME: Solution 1
$*        SOLUTION TYPE: SOL 101 Linear Statics
$*
$*    SOLVER INPUT FILE: free_body_diag_sim1-solution_1.dat
$*        CREATION DATE: 21-Apr-2023
$*        CREATION TIME: 11:00:03
$*             HOSTNAME: DESKTOP-6AFHIMM
$*      NASTRAN LICENSE: Desktop Bundle
$*
$*                UNITS: mm (milli-newton)
$*                      ... LENGTH : mm
$*                      ... TIME   : sec
$*                      ... MASS   : kilogram (kg)
$*                      ... TEMPERATURE : deg Celsius
$*                      ... FORCE  : milli-newton
$*                      ... THERMAL ENERGY : mN-mm (micro-joule)
$*
$* IMPORTANT NOTE:
$*     This banner was generated by Simcenter and altering this 
$*     information may compromise the pre and post processing of results
$*
$*$$$$$$$$$$$$$$$$$$$$$$$$$$$$$$$$$$$$$$$$$$$$$$$$$$$$$$$$$$$$$$$$$
$*
$*$$$$$$$$$$$$$$$$$$$$$$$$$$$$$$$$$$$
$*
$* FILE MANAGEMENT
$*
$*$$$$$$$$$$$$$$$$$$$$$$$$$$$$$$$$$$$
$*
$*
$*$$$$$$$$$$$$$$$$$$$$$$$$$$$$$$$$$$$
$*
$* EXECUTIVE CONTROL
$*
$*$$$$$$$$$$$$$$$$$$$$$$$$$$$$$$$$$$$
$*
ID,NASTRAN,free_body_diag_sim1-solution_1
SOL 101
CEND
$*
$*$$$$$$$$$$$$$$$$$$$$$$$$$$$$$$$$$$$
$*
$* CASE CONTROL
$*
$*$$$$$$$$$$$$$$$$$$$$$$$$$$$$$$$$$$$
$*
ECHO = NONE
OUTPUT
DISPLACEMENT(PLOT,REAL) = ALL
SPCFORCES(PLOT,REAL) = ALL
STRESS(PLOT,REAL,VONMISES,CENTER) = ALL
$*  Step: Subcase - Statics 1
SUBCASE 1
  LABEL = Subcase - Statics 1
  LOAD = 101
  SPC = 3
$*
$*$$$$$$$$$$$$$$$$$$$$$$$$$$$$$$$$$$$
$*
$* BULK DATA
$*
$*$$$$$$$$$$$$$$$$$$$$$$$$$$$$$$$$$$$
$*
BEGIN BULK
$*
$* PARAM CARDS
$*
PARAM      K6ROT100.0000
PARAM     OIBULK     YES
PARAM    OMACHPR     YES
PARAM       POST      -2
PARAM    POSTEXT     YES
PARAM    UNITSYS   MN-MM
$*
$* GRID CARDS
$*
GRID*              96922               02.0000000000E+031.6666666667E+01+
*       1.6666666667E+01               0
GRID*              96923               02.0000000000E+03-1.666666667E+01+
*       1.6666666667E+01               0
GRID*              96924               02.0000000000E+031.6666666667E+01+
*       -1.666666667E+01               0
GRID*              96925               02.0000000000E+03-1.666666667E+01+
*       -1.666666667E+01               0
GRID*              96926               02.0000000000E+031.6666666667E+01+
*       -1.421085472E-14               0
GRID*              96927               02.0000000000E+031.4210854715E-14+
*       -1.666666667E+01               0
GRID*              96928               02.0000000000E+03-1.666666667E+01+
*       3.5527136788E-15               0
GRID*              96929               02.0000000000E+031.4210854715E-14+
*       1.6666666667E+01               0
GRID*              96930               02.0000000000E+033.3333333333E+01+
*       1.6666666667E+01               0
GRID*              96931               02.0000000000E+031.6666666667E+01+
*       3.3333333333E+01               0
GRID*              96932               02.0000000000E+033.3333333333E+01+
*       -1.666666667E+01               0
GRID*              96933               02.0000000000E+031.6666666667E+01+
*       -3.333333333E+01               0
GRID*              96934               02.0000000000E+03-1.666666667E+01+
*       -3.333333333E+01               0
GRID*              96935               02.0000000000E+03-3.333333333E+01+
*       -1.666666667E+01               0
GRID*              96936               02.0000000000E+03-3.333333333E+01+
*       1.6666666667E+01               0
GRID*              96937               02.0000000000E+03-1.666666667E+01+
*       3.3333333333E+01               0
GRID*              96938               02.0000000000E+03-5.000000000E+01+
*       -1.666666667E+01               0
GRID*              96939               02.0000000000E+03-5.000000000E+01+
*       1.6666666667E+01               0
GRID*              96940               02.0000000000E+03-5.000000000E+01+
*       -3.333333333E+01               0
GRID*              96941               02.0000000000E+03-5.000000000E+01+
*       0.0000000000E+00               0
GRID*              96942               02.0000000000E+03-5.000000000E+01+
*       3.3333333333E+01               0
GRID*              96943               02.0000000000E+031.6666666667E+01+
*       -5.000000000E+01               0
GRID*              96944               02.0000000000E+03-1.666666667E+01+
*       -5.000000000E+01               0
GRID*              96945               02.0000000000E+033.3333333333E+01+
*       -5.000000000E+01               0
GRID*              96946               02.0000000000E+030.0000000000E+00+
*       -5.000000000E+01               0
GRID*              96947               02.0000000000E+03-3.333333333E+01+
*       -5.000000000E+01               0
GRID*              96948               02.0000000000E+031.6666666667E+01+
*       5.0000000000E+01               0
GRID*              96949               02.0000000000E+03-1.666666667E+01+
*       5.0000000000E+01               0
GRID*              96950               02.0000000000E+033.3333333333E+01+
*       5.0000000000E+01               0
GRID*              96951               02.0000000000E+03-3.333333333E+01+
*       5.0000000000E+01               0
GRID*              96952               02.0000000000E+030.0000000000E+00+
*       5.0000000000E+01               0
GRID*              96953               02.0000000000E+035.0000000000E+01+
*       -1.666666667E+01               0
GRID*              96954               02.0000000000E+035.0000000000E+01+
*       1.6666666667E+01               0
GRID*              96955               02.0000000000E+035.0000000000E+01+
*       3.3333333333E+01               0
GRID*              96956               02.0000000000E+035.0000000000E+01+
*       0.0000000000E+00               0
GRID*              96957               02.0000000000E+035.0000000000E+01+
*       -3.333333333E+01               0
GRID*              96958               02.0000000000E+03-5.000000000E+01+
*       -5.000000000E+01               0
GRID*              96959               02.0000000000E+03-5.000000000E+01+
*       5.0000000000E+01               0
GRID*              96960               02.0000000000E+035.0000000000E+01+
*       -5.000000000E+01               0
GRID*              96961               02.0000000000E+035.0000000000E+01+
*       5.0000000000E+01               0
GRID*              96962               00.0000000000E+00-5.000000000E+01+
*       -5.000000000E+01               0
GRID*              96963               00.0000000000E+00-5.000000000E+01+
*       5.0000000000E+01               0
GRID*              96964               00.0000000000E+005.0000000000E+01+
*       -5.000000000E+01               0
GRID*              96965               00.0000000000E+005.0000000000E+01+
*       5.0000000000E+01               0
GRID*              96966               00.0000000000E+00-5.000000000E+01+
*       -1.666666667E+01               0
GRID*              96967               00.0000000000E+00-5.000000000E+01+
*       1.6666666667E+01               0
GRID*              96968               00.0000000000E+001.6666666667E+01+
*       -5.000000000E+01               0
GRID*              96969               00.0000000000E+00-1.666666667E+01+
*       -5.000000000E+01               0
GRID*              96970               00.0000000000E+00-1.666666667E+01+
*       5.0000000000E+01               0
GRID*              96971               00.0000000000E+001.6666666667E+01+
*       5.0000000000E+01               0
GRID*              96972               00.0000000000E+005.0000000000E+01+
*       1.6666666667E+01               0
GRID*              96973               00.0000000000E+005.0000000000E+01+
*       -1.666666667E+01               0
GRID*              96974               01.9900000000E+03-5.000000000E+01+
*       -5.000000000E+01               0
GRID*              96975               01.9800000000E+03-5.000000000E+01+
*       -5.000000000E+01               0
GRID*              96976               01.9700000000E+03-5.000000000E+01+
*       -5.000000000E+01               0
GRID*              96977               01.9600000000E+03-5.000000000E+01+
*       -5.000000000E+01               0
GRID*              96978               01.9500000000E+03-5.000000000E+01+
*       -5.000000000E+01               0
GRID*              96979               01.9400000000E+03-5.000000000E+01+
*       -5.000000000E+01               0
GRID*              96980               01.9300000000E+03-5.000000000E+01+
*       -5.000000000E+01               0
GRID*              96981               01.9200000000E+03-5.000000000E+01+
*       -5.000000000E+01               0
GRID*              96982               01.9100000000E+03-5.000000000E+01+
*       -5.000000000E+01               0
GRID*              96983               01.9000000000E+03-5.000000000E+01+
*       -5.000000000E+01               0
GRID*              96984               01.8900000000E+03-5.000000000E+01+
*       -5.000000000E+01               0
GRID*              96985               01.8800000000E+03-5.000000000E+01+
*       -5.000000000E+01               0
GRID*              96986               01.8700000000E+03-5.000000000E+01+
*       -5.000000000E+01               0
GRID*              96987               01.8600000000E+03-5.000000000E+01+
*       -5.000000000E+01               0
GRID*              96988               01.8500000000E+03-5.000000000E+01+
*       -5.000000000E+01               0
GRID*              96989               01.8400000000E+03-5.000000000E+01+
*       -5.000000000E+01               0
GRID*              96990               01.8300000000E+03-5.000000000E+01+
*       -5.000000000E+01               0
GRID*              96991               01.8200000000E+03-5.000000000E+01+
*       -5.000000000E+01               0
GRID*              96992               01.8100000000E+03-5.000000000E+01+
*       -5.000000000E+01               0
GRID*              96993               01.8000000000E+03-5.000000000E+01+
*       -5.000000000E+01               0
GRID*              96994               01.7900000000E+03-5.000000000E+01+
*       -5.000000000E+01               0
GRID*              96995               01.7800000000E+03-5.000000000E+01+
*       -5.000000000E+01               0
GRID*              96996               01.7700000000E+03-5.000000000E+01+
*       -5.000000000E+01               0
GRID*              96997               01.7600000000E+03-5.000000000E+01+
*       -5.000000000E+01               0
GRID*              96998               01.7500000000E+03-5.000000000E+01+
*       -5.000000000E+01               0
GRID*              96999               01.7400000000E+03-5.000000000E+01+
*       -5.000000000E+01               0
GRID*              97000               01.7300000000E+03-5.000000000E+01+
*       -5.000000000E+01               0
GRID*              97001               01.7200000000E+03-5.000000000E+01+
*       -5.000000000E+01               0
GRID*              97002               01.7100000000E+03-5.000000000E+01+
*       -5.000000000E+01               0
GRID*              97003               01.7000000000E+03-5.000000000E+01+
*       -5.000000000E+01               0
GRID*              97004               01.6900000000E+03-5.000000000E+01+
*       -5.000000000E+01               0
GRID*              97005               01.6800000000E+03-5.000000000E+01+
*       -5.000000000E+01               0
GRID*              97006               01.6700000000E+03-5.000000000E+01+
*       -5.000000000E+01               0
GRID*              97007               01.6600000000E+03-5.000000000E+01+
*       -5.000000000E+01               0
GRID*              97008               01.6500000000E+03-5.000000000E+01+
*       -5.000000000E+01               0
GRID*              97009               01.6400000000E+03-5.000000000E+01+
*       -5.000000000E+01               0
GRID*              97010               01.6300000000E+03-5.000000000E+01+
*       -5.000000000E+01               0
GRID*              97011               01.6200000000E+03-5.000000000E+01+
*       -5.000000000E+01               0
GRID*              97012               01.6100000000E+03-5.000000000E+01+
*       -5.000000000E+01               0
GRID*              97013               01.6000000000E+03-5.000000000E+01+
*       -5.000000000E+01               0
GRID*              97014               01.5900000000E+03-5.000000000E+01+
*       -5.000000000E+01               0
GRID*              97015               01.5800000000E+03-5.000000000E+01+
*       -5.000000000E+01               0
GRID*              97016               01.5700000000E+03-5.000000000E+01+
*       -5.000000000E+01               0
GRID*              97017               01.5600000000E+03-5.000000000E+01+
*       -5.000000000E+01               0
GRID*              97018               01.5500000000E+03-5.000000000E+01+
*       -5.000000000E+01               0
GRID*              97019               01.5400000000E+03-5.000000000E+01+
*       -5.000000000E+01               0
GRID*              97020               01.5300000000E+03-5.000000000E+01+
*       -5.000000000E+01               0
GRID*              97021               01.5200000000E+03-5.000000000E+01+
*       -5.000000000E+01               0
GRID*              97022               01.5100000000E+03-5.000000000E+01+
*       -5.000000000E+01               0
GRID*              97023               01.5000000000E+03-5.000000000E+01+
*       -5.000000000E+01               0
GRID*              97024               01.4900000000E+03-5.000000000E+01+
*       -5.000000000E+01               0
GRID*              97025               01.4800000000E+03-5.000000000E+01+
*       -5.000000000E+01               0
GRID*              97026               01.4700000000E+03-5.000000000E+01+
*       -5.000000000E+01               0
GRID*              97027               01.4600000000E+03-5.000000000E+01+
*       -5.000000000E+01               0
GRID*              97028               01.4500000000E+03-5.000000000E+01+
*       -5.000000000E+01               0
GRID*              97029               01.4400000000E+03-5.000000000E+01+
*       -5.000000000E+01               0
GRID*              97030               01.4300000000E+03-5.000000000E+01+
*       -5.000000000E+01               0
GRID*              97031               01.4200000000E+03-5.000000000E+01+
*       -5.000000000E+01               0
GRID*              97032               01.4100000000E+03-5.000000000E+01+
*       -5.000000000E+01               0
GRID*              97033               01.4000000000E+03-5.000000000E+01+
*       -5.000000000E+01               0
GRID*              97034               01.3900000000E+03-5.000000000E+01+
*       -5.000000000E+01               0
GRID*              97035               01.3800000000E+03-5.000000000E+01+
*       -5.000000000E+01               0
GRID*              97036               01.3700000000E+03-5.000000000E+01+
*       -5.000000000E+01               0
GRID*              97037               01.3600000000E+03-5.000000000E+01+
*       -5.000000000E+01               0
GRID*              97038               01.3500000000E+03-5.000000000E+01+
*       -5.000000000E+01               0
GRID*              97039               01.3400000000E+03-5.000000000E+01+
*       -5.000000000E+01               0
GRID*              97040               01.3300000000E+03-5.000000000E+01+
*       -5.000000000E+01               0
GRID*              97041               01.3200000000E+03-5.000000000E+01+
*       -5.000000000E+01               0
GRID*              97042               01.3100000000E+03-5.000000000E+01+
*       -5.000000000E+01               0
GRID*              97043               01.3000000000E+03-5.000000000E+01+
*       -5.000000000E+01               0
GRID*              97044               01.2900000000E+03-5.000000000E+01+
*       -5.000000000E+01               0
GRID*              97045               01.2800000000E+03-5.000000000E+01+
*       -5.000000000E+01               0
GRID*              97046               01.2700000000E+03-5.000000000E+01+
*       -5.000000000E+01               0
GRID*              97047               01.2600000000E+03-5.000000000E+01+
*       -5.000000000E+01               0
GRID*              97048               01.2500000000E+03-5.000000000E+01+
*       -5.000000000E+01               0
GRID*              97049               01.2400000000E+03-5.000000000E+01+
*       -5.000000000E+01               0
GRID*              97050               01.2300000000E+03-5.000000000E+01+
*       -5.000000000E+01               0
GRID*              97051               01.2200000000E+03-5.000000000E+01+
*       -5.000000000E+01               0
GRID*              97052               01.2100000000E+03-5.000000000E+01+
*       -5.000000000E+01               0
GRID*              97053               01.2000000000E+03-5.000000000E+01+
*       -5.000000000E+01               0
GRID*              97054               01.1900000000E+03-5.000000000E+01+
*       -5.000000000E+01               0
GRID*              97055               01.1800000000E+03-5.000000000E+01+
*       -5.000000000E+01               0
GRID*              97056               01.1700000000E+03-5.000000000E+01+
*       -5.000000000E+01               0
GRID*              97057               01.1600000000E+03-5.000000000E+01+
*       -5.000000000E+01               0
GRID*              97058               01.1500000000E+03-5.000000000E+01+
*       -5.000000000E+01               0
GRID*              97059               01.1400000000E+03-5.000000000E+01+
*       -5.000000000E+01               0
GRID*              97060               01.1300000000E+03-5.000000000E+01+
*       -5.000000000E+01               0
GRID*              97061               01.1200000000E+03-5.000000000E+01+
*       -5.000000000E+01               0
GRID*              97062               01.1100000000E+03-5.000000000E+01+
*       -5.000000000E+01               0
GRID*              97063               01.1000000000E+03-5.000000000E+01+
*       -5.000000000E+01               0
GRID*              97064               01.0900000000E+03-5.000000000E+01+
*       -5.000000000E+01               0
GRID*              97065               01.0800000000E+03-5.000000000E+01+
*       -5.000000000E+01               0
GRID*              97066               01.0700000000E+03-5.000000000E+01+
*       -5.000000000E+01               0
GRID*              97067               01.0600000000E+03-5.000000000E+01+
*       -5.000000000E+01               0
GRID*              97068               01.0500000000E+03-5.000000000E+01+
*       -5.000000000E+01               0
GRID*              97069               01.0400000000E+03-5.000000000E+01+
*       -5.000000000E+01               0
GRID*              97070               01.0300000000E+03-5.000000000E+01+
*       -5.000000000E+01               0
GRID*              97071               01.0200000000E+03-5.000000000E+01+
*       -5.000000000E+01               0
GRID*              97072               01.0100000000E+03-5.000000000E+01+
*       -5.000000000E+01               0
GRID*              97073               01.0000000000E+03-5.000000000E+01+
*       -5.000000000E+01               0
GRID*              97074               09.9000000000E+02-5.000000000E+01+
*       -5.000000000E+01               0
GRID*              97075               09.8000000000E+02-5.000000000E+01+
*       -5.000000000E+01               0
GRID*              97076               09.7000000000E+02-5.000000000E+01+
*       -5.000000000E+01               0
GRID*              97077               09.6000000000E+02-5.000000000E+01+
*       -5.000000000E+01               0
GRID*              97078               09.5000000000E+02-5.000000000E+01+
*       -5.000000000E+01               0
GRID*              97079               09.4000000000E+02-5.000000000E+01+
*       -5.000000000E+01               0
GRID*              97080               09.3000000000E+02-5.000000000E+01+
*       -5.000000000E+01               0
GRID*              97081               09.2000000000E+02-5.000000000E+01+
*       -5.000000000E+01               0
GRID*              97082               09.1000000000E+02-5.000000000E+01+
*       -5.000000000E+01               0
GRID*              97083               09.0000000000E+02-5.000000000E+01+
*       -5.000000000E+01               0
GRID*              97084               08.9000000000E+02-5.000000000E+01+
*       -5.000000000E+01               0
GRID*              97085               08.8000000000E+02-5.000000000E+01+
*       -5.000000000E+01               0
GRID*              97086               08.7000000000E+02-5.000000000E+01+
*       -5.000000000E+01               0
GRID*              97087               08.6000000000E+02-5.000000000E+01+
*       -5.000000000E+01               0
GRID*              97088               08.5000000000E+02-5.000000000E+01+
*       -5.000000000E+01               0
GRID*              97089               08.4000000000E+02-5.000000000E+01+
*       -5.000000000E+01               0
GRID*              97090               08.3000000000E+02-5.000000000E+01+
*       -5.000000000E+01               0
GRID*              97091               08.2000000000E+02-5.000000000E+01+
*       -5.000000000E+01               0
GRID*              97092               08.1000000000E+02-5.000000000E+01+
*       -5.000000000E+01               0
GRID*              97093               08.0000000000E+02-5.000000000E+01+
*       -5.000000000E+01               0
GRID*              97094               07.9000000000E+02-5.000000000E+01+
*       -5.000000000E+01               0
GRID*              97095               07.8000000000E+02-5.000000000E+01+
*       -5.000000000E+01               0
GRID*              97096               07.7000000000E+02-5.000000000E+01+
*       -5.000000000E+01               0
GRID*              97097               07.6000000000E+02-5.000000000E+01+
*       -5.000000000E+01               0
GRID*              97098               07.5000000000E+02-5.000000000E+01+
*       -5.000000000E+01               0
GRID*              97099               07.4000000000E+02-5.000000000E+01+
*       -5.000000000E+01               0
GRID*              97100               07.3000000000E+02-5.000000000E+01+
*       -5.000000000E+01               0
GRID*              97101               07.2000000000E+02-5.000000000E+01+
*       -5.000000000E+01               0
GRID*              97102               07.1000000000E+02-5.000000000E+01+
*       -5.000000000E+01               0
GRID*              97103               07.0000000000E+02-5.000000000E+01+
*       -5.000000000E+01               0
GRID*              97104               06.9000000000E+02-5.000000000E+01+
*       -5.000000000E+01               0
GRID*              97105               06.8000000000E+02-5.000000000E+01+
*       -5.000000000E+01               0
GRID*              97106               06.7000000000E+02-5.000000000E+01+
*       -5.000000000E+01               0
GRID*              97107               06.6000000000E+02-5.000000000E+01+
*       -5.000000000E+01               0
GRID*              97108               06.5000000000E+02-5.000000000E+01+
*       -5.000000000E+01               0
GRID*              97109               06.4000000000E+02-5.000000000E+01+
*       -5.000000000E+01               0
GRID*              97110               06.3000000000E+02-5.000000000E+01+
*       -5.000000000E+01               0
GRID*              97111               06.2000000000E+02-5.000000000E+01+
*       -5.000000000E+01               0
GRID*              97112               06.1000000000E+02-5.000000000E+01+
*       -5.000000000E+01               0
GRID*              97113               06.0000000000E+02-5.000000000E+01+
*       -5.000000000E+01               0
GRID*              97114               05.9000000000E+02-5.000000000E+01+
*       -5.000000000E+01               0
GRID*              97115               05.8000000000E+02-5.000000000E+01+
*       -5.000000000E+01               0
GRID*              97116               05.7000000000E+02-5.000000000E+01+
*       -5.000000000E+01               0
GRID*              97117               05.6000000000E+02-5.000000000E+01+
*       -5.000000000E+01               0
GRID*              97118               05.5000000000E+02-5.000000000E+01+
*       -5.000000000E+01               0
GRID*              97119               05.4000000000E+02-5.000000000E+01+
*       -5.000000000E+01               0
GRID*              97120               05.3000000000E+02-5.000000000E+01+
*       -5.000000000E+01               0
GRID*              97121               05.2000000000E+02-5.000000000E+01+
*       -5.000000000E+01               0
GRID*              97122               05.1000000000E+02-5.000000000E+01+
*       -5.000000000E+01               0
GRID*              97123               05.0000000000E+02-5.000000000E+01+
*       -5.000000000E+01               0
GRID*              97124               04.9000000000E+02-5.000000000E+01+
*       -5.000000000E+01               0
GRID*              97125               04.8000000000E+02-5.000000000E+01+
*       -5.000000000E+01               0
GRID*              97126               04.7000000000E+02-5.000000000E+01+
*       -5.000000000E+01               0
GRID*              97127               04.6000000000E+02-5.000000000E+01+
*       -5.000000000E+01               0
GRID*              97128               04.5000000000E+02-5.000000000E+01+
*       -5.000000000E+01               0
GRID*              97129               04.4000000000E+02-5.000000000E+01+
*       -5.000000000E+01               0
GRID*              97130               04.3000000000E+02-5.000000000E+01+
*       -5.000000000E+01               0
GRID*              97131               04.2000000000E+02-5.000000000E+01+
*       -5.000000000E+01               0
GRID*              97132               04.1000000000E+02-5.000000000E+01+
*       -5.000000000E+01               0
GRID*              97133               04.0000000000E+02-5.000000000E+01+
*       -5.000000000E+01               0
GRID*              97134               03.9000000000E+02-5.000000000E+01+
*       -5.000000000E+01               0
GRID*              97135               03.8000000000E+02-5.000000000E+01+
*       -5.000000000E+01               0
GRID*              97136               03.7000000000E+02-5.000000000E+01+
*       -5.000000000E+01               0
GRID*              97137               03.6000000000E+02-5.000000000E+01+
*       -5.000000000E+01               0
GRID*              97138               03.5000000000E+02-5.000000000E+01+
*       -5.000000000E+01               0
GRID*              97139               03.4000000000E+02-5.000000000E+01+
*       -5.000000000E+01               0
GRID*              97140               03.3000000000E+02-5.000000000E+01+
*       -5.000000000E+01               0
GRID*              97141               03.2000000000E+02-5.000000000E+01+
*       -5.000000000E+01               0
GRID*              97142               03.1000000000E+02-5.000000000E+01+
*       -5.000000000E+01               0
GRID*              97143               03.0000000000E+02-5.000000000E+01+
*       -5.000000000E+01               0
GRID*              97144               02.9000000000E+02-5.000000000E+01+
*       -5.000000000E+01               0
GRID*              97145               02.8000000000E+02-5.000000000E+01+
*       -5.000000000E+01               0
GRID*              97146               02.7000000000E+02-5.000000000E+01+
*       -5.000000000E+01               0
GRID*              97147               02.6000000000E+02-5.000000000E+01+
*       -5.000000000E+01               0
GRID*              97148               02.5000000000E+02-5.000000000E+01+
*       -5.000000000E+01               0
GRID*              97149               02.4000000000E+02-5.000000000E+01+
*       -5.000000000E+01               0
GRID*              97150               02.3000000000E+02-5.000000000E+01+
*       -5.000000000E+01               0
GRID*              97151               02.2000000000E+02-5.000000000E+01+
*       -5.000000000E+01               0
GRID*              97152               02.1000000000E+02-5.000000000E+01+
*       -5.000000000E+01               0
GRID*              97153               02.0000000000E+02-5.000000000E+01+
*       -5.000000000E+01               0
GRID*              97154               01.9000000000E+02-5.000000000E+01+
*       -5.000000000E+01               0
GRID*              97155               01.8000000000E+02-5.000000000E+01+
*       -5.000000000E+01               0
GRID*              97156               01.7000000000E+02-5.000000000E+01+
*       -5.000000000E+01               0
GRID*              97157               01.6000000000E+02-5.000000000E+01+
*       -5.000000000E+01               0
GRID*              97158               01.5000000000E+02-5.000000000E+01+
*       -5.000000000E+01               0
GRID*              97159               01.4000000000E+02-5.000000000E+01+
*       -5.000000000E+01               0
GRID*              97160               01.3000000000E+02-5.000000000E+01+
*       -5.000000000E+01               0
GRID*              97161               01.2000000000E+02-5.000000000E+01+
*       -5.000000000E+01               0
GRID*              97162               01.1000000000E+02-5.000000000E+01+
*       -5.000000000E+01               0
GRID*              97163               01.0000000000E+02-5.000000000E+01+
*       -5.000000000E+01               0
GRID*              97164               09.0000000000E+01-5.000000000E+01+
*       -5.000000000E+01               0
GRID*              97165               08.0000000000E+01-5.000000000E+01+
*       -5.000000000E+01               0
GRID*              97166               07.0000000000E+01-5.000000000E+01+
*       -5.000000000E+01               0
GRID*              97167               06.0000000000E+01-5.000000000E+01+
*       -5.000000000E+01               0
GRID*              97168               05.0000000000E+01-5.000000000E+01+
*       -5.000000000E+01               0
GRID*              97169               04.0000000000E+01-5.000000000E+01+
*       -5.000000000E+01               0
GRID*              97170               03.0000000000E+01-5.000000000E+01+
*       -5.000000000E+01               0
GRID*              97171               02.0000000000E+01-5.000000000E+01+
*       -5.000000000E+01               0
GRID*              97172               01.0000000000E+01-5.000000000E+01+
*       -5.000000000E+01               0
GRID*              97173               01.9900000000E+03-5.000000000E+01+
*       5.0000000000E+01               0
GRID*              97174               01.9800000000E+03-5.000000000E+01+
*       5.0000000000E+01               0
GRID*              97175               01.9700000000E+03-5.000000000E+01+
*       5.0000000000E+01               0
GRID*              97176               01.9600000000E+03-5.000000000E+01+
*       5.0000000000E+01               0
GRID*              97177               01.9500000000E+03-5.000000000E+01+
*       5.0000000000E+01               0
GRID*              97178               01.9400000000E+03-5.000000000E+01+
*       5.0000000000E+01               0
GRID*              97179               01.9300000000E+03-5.000000000E+01+
*       5.0000000000E+01               0
GRID*              97180               01.9200000000E+03-5.000000000E+01+
*       5.0000000000E+01               0
GRID*              97181               01.9100000000E+03-5.000000000E+01+
*       5.0000000000E+01               0
GRID*              97182               01.9000000000E+03-5.000000000E+01+
*       5.0000000000E+01               0
GRID*              97183               01.8900000000E+03-5.000000000E+01+
*       5.0000000000E+01               0
GRID*              97184               01.8800000000E+03-5.000000000E+01+
*       5.0000000000E+01               0
GRID*              97185               01.8700000000E+03-5.000000000E+01+
*       5.0000000000E+01               0
GRID*              97186               01.8600000000E+03-5.000000000E+01+
*       5.0000000000E+01               0
GRID*              97187               01.8500000000E+03-5.000000000E+01+
*       5.0000000000E+01               0
GRID*              97188               01.8400000000E+03-5.000000000E+01+
*       5.0000000000E+01               0
GRID*              97189               01.8300000000E+03-5.000000000E+01+
*       5.0000000000E+01               0
GRID*              97190               01.8200000000E+03-5.000000000E+01+
*       5.0000000000E+01               0
GRID*              97191               01.8100000000E+03-5.000000000E+01+
*       5.0000000000E+01               0
GRID*              97192               01.8000000000E+03-5.000000000E+01+
*       5.0000000000E+01               0
GRID*              97193               01.7900000000E+03-5.000000000E+01+
*       5.0000000000E+01               0
GRID*              97194               01.7800000000E+03-5.000000000E+01+
*       5.0000000000E+01               0
GRID*              97195               01.7700000000E+03-5.000000000E+01+
*       5.0000000000E+01               0
GRID*              97196               01.7600000000E+03-5.000000000E+01+
*       5.0000000000E+01               0
GRID*              97197               01.7500000000E+03-5.000000000E+01+
*       5.0000000000E+01               0
GRID*              97198               01.7400000000E+03-5.000000000E+01+
*       5.0000000000E+01               0
GRID*              97199               01.7300000000E+03-5.000000000E+01+
*       5.0000000000E+01               0
GRID*              97200               01.7200000000E+03-5.000000000E+01+
*       5.0000000000E+01               0
GRID*              97201               01.7100000000E+03-5.000000000E+01+
*       5.0000000000E+01               0
GRID*              97202               01.7000000000E+03-5.000000000E+01+
*       5.0000000000E+01               0
GRID*              97203               01.6900000000E+03-5.000000000E+01+
*       5.0000000000E+01               0
GRID*              97204               01.6800000000E+03-5.000000000E+01+
*       5.0000000000E+01               0
GRID*              97205               01.6700000000E+03-5.000000000E+01+
*       5.0000000000E+01               0
GRID*              97206               01.6600000000E+03-5.000000000E+01+
*       5.0000000000E+01               0
GRID*              97207               01.6500000000E+03-5.000000000E+01+
*       5.0000000000E+01               0
GRID*              97208               01.6400000000E+03-5.000000000E+01+
*       5.0000000000E+01               0
GRID*              97209               01.6300000000E+03-5.000000000E+01+
*       5.0000000000E+01               0
GRID*              97210               01.6200000000E+03-5.000000000E+01+
*       5.0000000000E+01               0
GRID*              97211               01.6100000000E+03-5.000000000E+01+
*       5.0000000000E+01               0
GRID*              97212               01.6000000000E+03-5.000000000E+01+
*       5.0000000000E+01               0
GRID*              97213               01.5900000000E+03-5.000000000E+01+
*       5.0000000000E+01               0
GRID*              97214               01.5800000000E+03-5.000000000E+01+
*       5.0000000000E+01               0
GRID*              97215               01.5700000000E+03-5.000000000E+01+
*       5.0000000000E+01               0
GRID*              97216               01.5600000000E+03-5.000000000E+01+
*       5.0000000000E+01               0
GRID*              97217               01.5500000000E+03-5.000000000E+01+
*       5.0000000000E+01               0
GRID*              97218               01.5400000000E+03-5.000000000E+01+
*       5.0000000000E+01               0
GRID*              97219               01.5300000000E+03-5.000000000E+01+
*       5.0000000000E+01               0
GRID*              97220               01.5200000000E+03-5.000000000E+01+
*       5.0000000000E+01               0
GRID*              97221               01.5100000000E+03-5.000000000E+01+
*       5.0000000000E+01               0
GRID*              97222               01.5000000000E+03-5.000000000E+01+
*       5.0000000000E+01               0
GRID*              97223               01.4900000000E+03-5.000000000E+01+
*       5.0000000000E+01               0
GRID*              97224               01.4800000000E+03-5.000000000E+01+
*       5.0000000000E+01               0
GRID*              97225               01.4700000000E+03-5.000000000E+01+
*       5.0000000000E+01               0
GRID*              97226               01.4600000000E+03-5.000000000E+01+
*       5.0000000000E+01               0
GRID*              97227               01.4500000000E+03-5.000000000E+01+
*       5.0000000000E+01               0
GRID*              97228               01.4400000000E+03-5.000000000E+01+
*       5.0000000000E+01               0
GRID*              97229               01.4300000000E+03-5.000000000E+01+
*       5.0000000000E+01               0
GRID*              97230               01.4200000000E+03-5.000000000E+01+
*       5.0000000000E+01               0
GRID*              97231               01.4100000000E+03-5.000000000E+01+
*       5.0000000000E+01               0
GRID*              97232               01.4000000000E+03-5.000000000E+01+
*       5.0000000000E+01               0
GRID*              97233               01.3900000000E+03-5.000000000E+01+
*       5.0000000000E+01               0
GRID*              97234               01.3800000000E+03-5.000000000E+01+
*       5.0000000000E+01               0
GRID*              97235               01.3700000000E+03-5.000000000E+01+
*       5.0000000000E+01               0
GRID*              97236               01.3600000000E+03-5.000000000E+01+
*       5.0000000000E+01               0
GRID*              97237               01.3500000000E+03-5.000000000E+01+
*       5.0000000000E+01               0
GRID*              97238               01.3400000000E+03-5.000000000E+01+
*       5.0000000000E+01               0
GRID*              97239               01.3300000000E+03-5.000000000E+01+
*       5.0000000000E+01               0
GRID*              97240               01.3200000000E+03-5.000000000E+01+
*       5.0000000000E+01               0
GRID*              97241               01.3100000000E+03-5.000000000E+01+
*       5.0000000000E+01               0
GRID*              97242               01.3000000000E+03-5.000000000E+01+
*       5.0000000000E+01               0
GRID*              97243               01.2900000000E+03-5.000000000E+01+
*       5.0000000000E+01               0
GRID*              97244               01.2800000000E+03-5.000000000E+01+
*       5.0000000000E+01               0
GRID*              97245               01.2700000000E+03-5.000000000E+01+
*       5.0000000000E+01               0
GRID*              97246               01.2600000000E+03-5.000000000E+01+
*       5.0000000000E+01               0
GRID*              97247               01.2500000000E+03-5.000000000E+01+
*       5.0000000000E+01               0
GRID*              97248               01.2400000000E+03-5.000000000E+01+
*       5.0000000000E+01               0
GRID*              97249               01.2300000000E+03-5.000000000E+01+
*       5.0000000000E+01               0
GRID*              97250               01.2200000000E+03-5.000000000E+01+
*       5.0000000000E+01               0
GRID*              97251               01.2100000000E+03-5.000000000E+01+
*       5.0000000000E+01               0
GRID*              97252               01.2000000000E+03-5.000000000E+01+
*       5.0000000000E+01               0
GRID*              97253               01.1900000000E+03-5.000000000E+01+
*       5.0000000000E+01               0
GRID*              97254               01.1800000000E+03-5.000000000E+01+
*       5.0000000000E+01               0
GRID*              97255               01.1700000000E+03-5.000000000E+01+
*       5.0000000000E+01               0
GRID*              97256               01.1600000000E+03-5.000000000E+01+
*       5.0000000000E+01               0
GRID*              97257               01.1500000000E+03-5.000000000E+01+
*       5.0000000000E+01               0
GRID*              97258               01.1400000000E+03-5.000000000E+01+
*       5.0000000000E+01               0
GRID*              97259               01.1300000000E+03-5.000000000E+01+
*       5.0000000000E+01               0
GRID*              97260               01.1200000000E+03-5.000000000E+01+
*       5.0000000000E+01               0
GRID*              97261               01.1100000000E+03-5.000000000E+01+
*       5.0000000000E+01               0
GRID*              97262               01.1000000000E+03-5.000000000E+01+
*       5.0000000000E+01               0
GRID*              97263               01.0900000000E+03-5.000000000E+01+
*       5.0000000000E+01               0
GRID*              97264               01.0800000000E+03-5.000000000E+01+
*       5.0000000000E+01               0
GRID*              97265               01.0700000000E+03-5.000000000E+01+
*       5.0000000000E+01               0
GRID*              97266               01.0600000000E+03-5.000000000E+01+
*       5.0000000000E+01               0
GRID*              97267               01.0500000000E+03-5.000000000E+01+
*       5.0000000000E+01               0
GRID*              97268               01.0400000000E+03-5.000000000E+01+
*       5.0000000000E+01               0
GRID*              97269               01.0300000000E+03-5.000000000E+01+
*       5.0000000000E+01               0
GRID*              97270               01.0200000000E+03-5.000000000E+01+
*       5.0000000000E+01               0
GRID*              97271               01.0100000000E+03-5.000000000E+01+
*       5.0000000000E+01               0
GRID*              97272               01.0000000000E+03-5.000000000E+01+
*       5.0000000000E+01               0
GRID*              97273               09.9000000000E+02-5.000000000E+01+
*       5.0000000000E+01               0
GRID*              97274               09.8000000000E+02-5.000000000E+01+
*       5.0000000000E+01               0
GRID*              97275               09.7000000000E+02-5.000000000E+01+
*       5.0000000000E+01               0
GRID*              97276               09.6000000000E+02-5.000000000E+01+
*       5.0000000000E+01               0
GRID*              97277               09.5000000000E+02-5.000000000E+01+
*       5.0000000000E+01               0
GRID*              97278               09.4000000000E+02-5.000000000E+01+
*       5.0000000000E+01               0
GRID*              97279               09.3000000000E+02-5.000000000E+01+
*       5.0000000000E+01               0
GRID*              97280               09.2000000000E+02-5.000000000E+01+
*       5.0000000000E+01               0
GRID*              97281               09.1000000000E+02-5.000000000E+01+
*       5.0000000000E+01               0
GRID*              97282               09.0000000000E+02-5.000000000E+01+
*       5.0000000000E+01               0
GRID*              97283               08.9000000000E+02-5.000000000E+01+
*       5.0000000000E+01               0
GRID*              97284               08.8000000000E+02-5.000000000E+01+
*       5.0000000000E+01               0
GRID*              97285               08.7000000000E+02-5.000000000E+01+
*       5.0000000000E+01               0
GRID*              97286               08.6000000000E+02-5.000000000E+01+
*       5.0000000000E+01               0
GRID*              97287               08.5000000000E+02-5.000000000E+01+
*       5.0000000000E+01               0
GRID*              97288               08.4000000000E+02-5.000000000E+01+
*       5.0000000000E+01               0
GRID*              97289               08.3000000000E+02-5.000000000E+01+
*       5.0000000000E+01               0
GRID*              97290               08.2000000000E+02-5.000000000E+01+
*       5.0000000000E+01               0
GRID*              97291               08.1000000000E+02-5.000000000E+01+
*       5.0000000000E+01               0
GRID*              97292               08.0000000000E+02-5.000000000E+01+
*       5.0000000000E+01               0
GRID*              97293               07.9000000000E+02-5.000000000E+01+
*       5.0000000000E+01               0
GRID*              97294               07.8000000000E+02-5.000000000E+01+
*       5.0000000000E+01               0
GRID*              97295               07.7000000000E+02-5.000000000E+01+
*       5.0000000000E+01               0
GRID*              97296               07.6000000000E+02-5.000000000E+01+
*       5.0000000000E+01               0
GRID*              97297               07.5000000000E+02-5.000000000E+01+
*       5.0000000000E+01               0
GRID*              97298               07.4000000000E+02-5.000000000E+01+
*       5.0000000000E+01               0
GRID*              97299               07.3000000000E+02-5.000000000E+01+
*       5.0000000000E+01               0
GRID*              97300               07.2000000000E+02-5.000000000E+01+
*       5.0000000000E+01               0
GRID*              97301               07.1000000000E+02-5.000000000E+01+
*       5.0000000000E+01               0
GRID*              97302               07.0000000000E+02-5.000000000E+01+
*       5.0000000000E+01               0
GRID*              97303               06.9000000000E+02-5.000000000E+01+
*       5.0000000000E+01               0
GRID*              97304               06.8000000000E+02-5.000000000E+01+
*       5.0000000000E+01               0
GRID*              97305               06.7000000000E+02-5.000000000E+01+
*       5.0000000000E+01               0
GRID*              97306               06.6000000000E+02-5.000000000E+01+
*       5.0000000000E+01               0
GRID*              97307               06.5000000000E+02-5.000000000E+01+
*       5.0000000000E+01               0
GRID*              97308               06.4000000000E+02-5.000000000E+01+
*       5.0000000000E+01               0
GRID*              97309               06.3000000000E+02-5.000000000E+01+
*       5.0000000000E+01               0
GRID*              97310               06.2000000000E+02-5.000000000E+01+
*       5.0000000000E+01               0
GRID*              97311               06.1000000000E+02-5.000000000E+01+
*       5.0000000000E+01               0
GRID*              97312               06.0000000000E+02-5.000000000E+01+
*       5.0000000000E+01               0
GRID*              97313               05.9000000000E+02-5.000000000E+01+
*       5.0000000000E+01               0
GRID*              97314               05.8000000000E+02-5.000000000E+01+
*       5.0000000000E+01               0
GRID*              97315               05.7000000000E+02-5.000000000E+01+
*       5.0000000000E+01               0
GRID*              97316               05.6000000000E+02-5.000000000E+01+
*       5.0000000000E+01               0
GRID*              97317               05.5000000000E+02-5.000000000E+01+
*       5.0000000000E+01               0
GRID*              97318               05.4000000000E+02-5.000000000E+01+
*       5.0000000000E+01               0
GRID*              97319               05.3000000000E+02-5.000000000E+01+
*       5.0000000000E+01               0
GRID*              97320               05.2000000000E+02-5.000000000E+01+
*       5.0000000000E+01               0
GRID*              97321               05.1000000000E+02-5.000000000E+01+
*       5.0000000000E+01               0
GRID*              97322               05.0000000000E+02-5.000000000E+01+
*       5.0000000000E+01               0
GRID*              97323               04.9000000000E+02-5.000000000E+01+
*       5.0000000000E+01               0
GRID*              97324               04.8000000000E+02-5.000000000E+01+
*       5.0000000000E+01               0
GRID*              97325               04.7000000000E+02-5.000000000E+01+
*       5.0000000000E+01               0
GRID*              97326               04.6000000000E+02-5.000000000E+01+
*       5.0000000000E+01               0
GRID*              97327               04.5000000000E+02-5.000000000E+01+
*       5.0000000000E+01               0
GRID*              97328               04.4000000000E+02-5.000000000E+01+
*       5.0000000000E+01               0
GRID*              97329               04.3000000000E+02-5.000000000E+01+
*       5.0000000000E+01               0
GRID*              97330               04.2000000000E+02-5.000000000E+01+
*       5.0000000000E+01               0
GRID*              97331               04.1000000000E+02-5.000000000E+01+
*       5.0000000000E+01               0
GRID*              97332               04.0000000000E+02-5.000000000E+01+
*       5.0000000000E+01               0
GRID*              97333               03.9000000000E+02-5.000000000E+01+
*       5.0000000000E+01               0
GRID*              97334               03.8000000000E+02-5.000000000E+01+
*       5.0000000000E+01               0
GRID*              97335               03.7000000000E+02-5.000000000E+01+
*       5.0000000000E+01               0
GRID*              97336               03.6000000000E+02-5.000000000E+01+
*       5.0000000000E+01               0
GRID*              97337               03.5000000000E+02-5.000000000E+01+
*       5.0000000000E+01               0
GRID*              97338               03.4000000000E+02-5.000000000E+01+
*       5.0000000000E+01               0
GRID*              97339               03.3000000000E+02-5.000000000E+01+
*       5.0000000000E+01               0
GRID*              97340               03.2000000000E+02-5.000000000E+01+
*       5.0000000000E+01               0
GRID*              97341               03.1000000000E+02-5.000000000E+01+
*       5.0000000000E+01               0
GRID*              97342               03.0000000000E+02-5.000000000E+01+
*       5.0000000000E+01               0
GRID*              97343               02.9000000000E+02-5.000000000E+01+
*       5.0000000000E+01               0
GRID*              97344               02.8000000000E+02-5.000000000E+01+
*       5.0000000000E+01               0
GRID*              97345               02.7000000000E+02-5.000000000E+01+
*       5.0000000000E+01               0
GRID*              97346               02.6000000000E+02-5.000000000E+01+
*       5.0000000000E+01               0
GRID*              97347               02.5000000000E+02-5.000000000E+01+
*       5.0000000000E+01               0
GRID*              97348               02.4000000000E+02-5.000000000E+01+
*       5.0000000000E+01               0
GRID*              97349               02.3000000000E+02-5.000000000E+01+
*       5.0000000000E+01               0
GRID*              97350               02.2000000000E+02-5.000000000E+01+
*       5.0000000000E+01               0
GRID*              97351               02.1000000000E+02-5.000000000E+01+
*       5.0000000000E+01               0
GRID*              97352               02.0000000000E+02-5.000000000E+01+
*       5.0000000000E+01               0
GRID*              97353               01.9000000000E+02-5.000000000E+01+
*       5.0000000000E+01               0
GRID*              97354               01.8000000000E+02-5.000000000E+01+
*       5.0000000000E+01               0
GRID*              97355               01.7000000000E+02-5.000000000E+01+
*       5.0000000000E+01               0
GRID*              97356               01.6000000000E+02-5.000000000E+01+
*       5.0000000000E+01               0
GRID*              97357               01.5000000000E+02-5.000000000E+01+
*       5.0000000000E+01               0
GRID*              97358               01.4000000000E+02-5.000000000E+01+
*       5.0000000000E+01               0
GRID*              97359               01.3000000000E+02-5.000000000E+01+
*       5.0000000000E+01               0
GRID*              97360               01.2000000000E+02-5.000000000E+01+
*       5.0000000000E+01               0
GRID*              97361               01.1000000000E+02-5.000000000E+01+
*       5.0000000000E+01               0
GRID*              97362               01.0000000000E+02-5.000000000E+01+
*       5.0000000000E+01               0
GRID*              97363               09.0000000000E+01-5.000000000E+01+
*       5.0000000000E+01               0
GRID*              97364               08.0000000000E+01-5.000000000E+01+
*       5.0000000000E+01               0
GRID*              97365               07.0000000000E+01-5.000000000E+01+
*       5.0000000000E+01               0
GRID*              97366               06.0000000000E+01-5.000000000E+01+
*       5.0000000000E+01               0
GRID*              97367               05.0000000000E+01-5.000000000E+01+
*       5.0000000000E+01               0
GRID*              97368               04.0000000000E+01-5.000000000E+01+
*       5.0000000000E+01               0
GRID*              97369               03.0000000000E+01-5.000000000E+01+
*       5.0000000000E+01               0
GRID*              97370               02.0000000000E+01-5.000000000E+01+
*       5.0000000000E+01               0
GRID*              97371               01.0000000000E+01-5.000000000E+01+
*       5.0000000000E+01               0
GRID*              97372               01.9900000000E+035.0000000000E+01+
*       -5.000000000E+01               0
GRID*              97373               01.9800000000E+035.0000000000E+01+
*       -5.000000000E+01               0
GRID*              97374               01.9700000000E+035.0000000000E+01+
*       -5.000000000E+01               0
GRID*              97375               01.9600000000E+035.0000000000E+01+
*       -5.000000000E+01               0
GRID*              97376               01.9500000000E+035.0000000000E+01+
*       -5.000000000E+01               0
GRID*              97377               01.9400000000E+035.0000000000E+01+
*       -5.000000000E+01               0
GRID*              97378               01.9300000000E+035.0000000000E+01+
*       -5.000000000E+01               0
GRID*              97379               01.9200000000E+035.0000000000E+01+
*       -5.000000000E+01               0
GRID*              97380               01.9100000000E+035.0000000000E+01+
*       -5.000000000E+01               0
GRID*              97381               01.9000000000E+035.0000000000E+01+
*       -5.000000000E+01               0
GRID*              97382               01.8900000000E+035.0000000000E+01+
*       -5.000000000E+01               0
GRID*              97383               01.8800000000E+035.0000000000E+01+
*       -5.000000000E+01               0
GRID*              97384               01.8700000000E+035.0000000000E+01+
*       -5.000000000E+01               0
GRID*              97385               01.8600000000E+035.0000000000E+01+
*       -5.000000000E+01               0
GRID*              97386               01.8500000000E+035.0000000000E+01+
*       -5.000000000E+01               0
GRID*              97387               01.8400000000E+035.0000000000E+01+
*       -5.000000000E+01               0
GRID*              97388               01.8300000000E+035.0000000000E+01+
*       -5.000000000E+01               0
GRID*              97389               01.8200000000E+035.0000000000E+01+
*       -5.000000000E+01               0
GRID*              97390               01.8100000000E+035.0000000000E+01+
*       -5.000000000E+01               0
GRID*              97391               01.8000000000E+035.0000000000E+01+
*       -5.000000000E+01               0
GRID*              97392               01.7900000000E+035.0000000000E+01+
*       -5.000000000E+01               0
GRID*              97393               01.7800000000E+035.0000000000E+01+
*       -5.000000000E+01               0
GRID*              97394               01.7700000000E+035.0000000000E+01+
*       -5.000000000E+01               0
GRID*              97395               01.7600000000E+035.0000000000E+01+
*       -5.000000000E+01               0
GRID*              97396               01.7500000000E+035.0000000000E+01+
*       -5.000000000E+01               0
GRID*              97397               01.7400000000E+035.0000000000E+01+
*       -5.000000000E+01               0
GRID*              97398               01.7300000000E+035.0000000000E+01+
*       -5.000000000E+01               0
GRID*              97399               01.7200000000E+035.0000000000E+01+
*       -5.000000000E+01               0
GRID*              97400               01.7100000000E+035.0000000000E+01+
*       -5.000000000E+01               0
GRID*              97401               01.7000000000E+035.0000000000E+01+
*       -5.000000000E+01               0
GRID*              97402               01.6900000000E+035.0000000000E+01+
*       -5.000000000E+01               0
GRID*              97403               01.6800000000E+035.0000000000E+01+
*       -5.000000000E+01               0
GRID*              97404               01.6700000000E+035.0000000000E+01+
*       -5.000000000E+01               0
GRID*              97405               01.6600000000E+035.0000000000E+01+
*       -5.000000000E+01               0
GRID*              97406               01.6500000000E+035.0000000000E+01+
*       -5.000000000E+01               0
GRID*              97407               01.6400000000E+035.0000000000E+01+
*       -5.000000000E+01               0
GRID*              97408               01.6300000000E+035.0000000000E+01+
*       -5.000000000E+01               0
GRID*              97409               01.6200000000E+035.0000000000E+01+
*       -5.000000000E+01               0
GRID*              97410               01.6100000000E+035.0000000000E+01+
*       -5.000000000E+01               0
GRID*              97411               01.6000000000E+035.0000000000E+01+
*       -5.000000000E+01               0
GRID*              97412               01.5900000000E+035.0000000000E+01+
*       -5.000000000E+01               0
GRID*              97413               01.5800000000E+035.0000000000E+01+
*       -5.000000000E+01               0
GRID*              97414               01.5700000000E+035.0000000000E+01+
*       -5.000000000E+01               0
GRID*              97415               01.5600000000E+035.0000000000E+01+
*       -5.000000000E+01               0
GRID*              97416               01.5500000000E+035.0000000000E+01+
*       -5.000000000E+01               0
GRID*              97417               01.5400000000E+035.0000000000E+01+
*       -5.000000000E+01               0
GRID*              97418               01.5300000000E+035.0000000000E+01+
*       -5.000000000E+01               0
GRID*              97419               01.5200000000E+035.0000000000E+01+
*       -5.000000000E+01               0
GRID*              97420               01.5100000000E+035.0000000000E+01+
*       -5.000000000E+01               0
GRID*              97421               01.5000000000E+035.0000000000E+01+
*       -5.000000000E+01               0
GRID*              97422               01.4900000000E+035.0000000000E+01+
*       -5.000000000E+01               0
GRID*              97423               01.4800000000E+035.0000000000E+01+
*       -5.000000000E+01               0
GRID*              97424               01.4700000000E+035.0000000000E+01+
*       -5.000000000E+01               0
GRID*              97425               01.4600000000E+035.0000000000E+01+
*       -5.000000000E+01               0
GRID*              97426               01.4500000000E+035.0000000000E+01+
*       -5.000000000E+01               0
GRID*              97427               01.4400000000E+035.0000000000E+01+
*       -5.000000000E+01               0
GRID*              97428               01.4300000000E+035.0000000000E+01+
*       -5.000000000E+01               0
GRID*              97429               01.4200000000E+035.0000000000E+01+
*       -5.000000000E+01               0
GRID*              97430               01.4100000000E+035.0000000000E+01+
*       -5.000000000E+01               0
GRID*              97431               01.4000000000E+035.0000000000E+01+
*       -5.000000000E+01               0
GRID*              97432               01.3900000000E+035.0000000000E+01+
*       -5.000000000E+01               0
GRID*              97433               01.3800000000E+035.0000000000E+01+
*       -5.000000000E+01               0
GRID*              97434               01.3700000000E+035.0000000000E+01+
*       -5.000000000E+01               0
GRID*              97435               01.3600000000E+035.0000000000E+01+
*       -5.000000000E+01               0
GRID*              97436               01.3500000000E+035.0000000000E+01+
*       -5.000000000E+01               0
GRID*              97437               01.3400000000E+035.0000000000E+01+
*       -5.000000000E+01               0
GRID*              97438               01.3300000000E+035.0000000000E+01+
*       -5.000000000E+01               0
GRID*              97439               01.3200000000E+035.0000000000E+01+
*       -5.000000000E+01               0
GRID*              97440               01.3100000000E+035.0000000000E+01+
*       -5.000000000E+01               0
GRID*              97441               01.3000000000E+035.0000000000E+01+
*       -5.000000000E+01               0
GRID*              97442               01.2900000000E+035.0000000000E+01+
*       -5.000000000E+01               0
GRID*              97443               01.2800000000E+035.0000000000E+01+
*       -5.000000000E+01               0
GRID*              97444               01.2700000000E+035.0000000000E+01+
*       -5.000000000E+01               0
GRID*              97445               01.2600000000E+035.0000000000E+01+
*       -5.000000000E+01               0
GRID*              97446               01.2500000000E+035.0000000000E+01+
*       -5.000000000E+01               0
GRID*              97447               01.2400000000E+035.0000000000E+01+
*       -5.000000000E+01               0
GRID*              97448               01.2300000000E+035.0000000000E+01+
*       -5.000000000E+01               0
GRID*              97449               01.2200000000E+035.0000000000E+01+
*       -5.000000000E+01               0
GRID*              97450               01.2100000000E+035.0000000000E+01+
*       -5.000000000E+01               0
GRID*              97451               01.2000000000E+035.0000000000E+01+
*       -5.000000000E+01               0
GRID*              97452               01.1900000000E+035.0000000000E+01+
*       -5.000000000E+01               0
GRID*              97453               01.1800000000E+035.0000000000E+01+
*       -5.000000000E+01               0
GRID*              97454               01.1700000000E+035.0000000000E+01+
*       -5.000000000E+01               0
GRID*              97455               01.1600000000E+035.0000000000E+01+
*       -5.000000000E+01               0
GRID*              97456               01.1500000000E+035.0000000000E+01+
*       -5.000000000E+01               0
GRID*              97457               01.1400000000E+035.0000000000E+01+
*       -5.000000000E+01               0
GRID*              97458               01.1300000000E+035.0000000000E+01+
*       -5.000000000E+01               0
GRID*              97459               01.1200000000E+035.0000000000E+01+
*       -5.000000000E+01               0
GRID*              97460               01.1100000000E+035.0000000000E+01+
*       -5.000000000E+01               0
GRID*              97461               01.1000000000E+035.0000000000E+01+
*       -5.000000000E+01               0
GRID*              97462               01.0900000000E+035.0000000000E+01+
*       -5.000000000E+01               0
GRID*              97463               01.0800000000E+035.0000000000E+01+
*       -5.000000000E+01               0
GRID*              97464               01.0700000000E+035.0000000000E+01+
*       -5.000000000E+01               0
GRID*              97465               01.0600000000E+035.0000000000E+01+
*       -5.000000000E+01               0
GRID*              97466               01.0500000000E+035.0000000000E+01+
*       -5.000000000E+01               0
GRID*              97467               01.0400000000E+035.0000000000E+01+
*       -5.000000000E+01               0
GRID*              97468               01.0300000000E+035.0000000000E+01+
*       -5.000000000E+01               0
GRID*              97469               01.0200000000E+035.0000000000E+01+
*       -5.000000000E+01               0
GRID*              97470               01.0100000000E+035.0000000000E+01+
*       -5.000000000E+01               0
GRID*              97471               01.0000000000E+035.0000000000E+01+
*       -5.000000000E+01               0
GRID*              97472               09.9000000000E+025.0000000000E+01+
*       -5.000000000E+01               0
GRID*              97473               09.8000000000E+025.0000000000E+01+
*       -5.000000000E+01               0
GRID*              97474               09.7000000000E+025.0000000000E+01+
*       -5.000000000E+01               0
GRID*              97475               09.6000000000E+025.0000000000E+01+
*       -5.000000000E+01               0
GRID*              97476               09.5000000000E+025.0000000000E+01+
*       -5.000000000E+01               0
GRID*              97477               09.4000000000E+025.0000000000E+01+
*       -5.000000000E+01               0
GRID*              97478               09.3000000000E+025.0000000000E+01+
*       -5.000000000E+01               0
GRID*              97479               09.2000000000E+025.0000000000E+01+
*       -5.000000000E+01               0
GRID*              97480               09.1000000000E+025.0000000000E+01+
*       -5.000000000E+01               0
GRID*              97481               09.0000000000E+025.0000000000E+01+
*       -5.000000000E+01               0
GRID*              97482               08.9000000000E+025.0000000000E+01+
*       -5.000000000E+01               0
GRID*              97483               08.8000000000E+025.0000000000E+01+
*       -5.000000000E+01               0
GRID*              97484               08.7000000000E+025.0000000000E+01+
*       -5.000000000E+01               0
GRID*              97485               08.6000000000E+025.0000000000E+01+
*       -5.000000000E+01               0
GRID*              97486               08.5000000000E+025.0000000000E+01+
*       -5.000000000E+01               0
GRID*              97487               08.4000000000E+025.0000000000E+01+
*       -5.000000000E+01               0
GRID*              97488               08.3000000000E+025.0000000000E+01+
*       -5.000000000E+01               0
GRID*              97489               08.2000000000E+025.0000000000E+01+
*       -5.000000000E+01               0
GRID*              97490               08.1000000000E+025.0000000000E+01+
*       -5.000000000E+01               0
GRID*              97491               08.0000000000E+025.0000000000E+01+
*       -5.000000000E+01               0
GRID*              97492               07.9000000000E+025.0000000000E+01+
*       -5.000000000E+01               0
GRID*              97493               07.8000000000E+025.0000000000E+01+
*       -5.000000000E+01               0
GRID*              97494               07.7000000000E+025.0000000000E+01+
*       -5.000000000E+01               0
GRID*              97495               07.6000000000E+025.0000000000E+01+
*       -5.000000000E+01               0
GRID*              97496               07.5000000000E+025.0000000000E+01+
*       -5.000000000E+01               0
GRID*              97497               07.4000000000E+025.0000000000E+01+
*       -5.000000000E+01               0
GRID*              97498               07.3000000000E+025.0000000000E+01+
*       -5.000000000E+01               0
GRID*              97499               07.2000000000E+025.0000000000E+01+
*       -5.000000000E+01               0
GRID*              97500               07.1000000000E+025.0000000000E+01+
*       -5.000000000E+01               0
GRID*              97501               07.0000000000E+025.0000000000E+01+
*       -5.000000000E+01               0
GRID*              97502               06.9000000000E+025.0000000000E+01+
*       -5.000000000E+01               0
GRID*              97503               06.8000000000E+025.0000000000E+01+
*       -5.000000000E+01               0
GRID*              97504               06.7000000000E+025.0000000000E+01+
*       -5.000000000E+01               0
GRID*              97505               06.6000000000E+025.0000000000E+01+
*       -5.000000000E+01               0
GRID*              97506               06.5000000000E+025.0000000000E+01+
*       -5.000000000E+01               0
GRID*              97507               06.4000000000E+025.0000000000E+01+
*       -5.000000000E+01               0
GRID*              97508               06.3000000000E+025.0000000000E+01+
*       -5.000000000E+01               0
GRID*              97509               06.2000000000E+025.0000000000E+01+
*       -5.000000000E+01               0
GRID*              97510               06.1000000000E+025.0000000000E+01+
*       -5.000000000E+01               0
GRID*              97511               06.0000000000E+025.0000000000E+01+
*       -5.000000000E+01               0
GRID*              97512               05.9000000000E+025.0000000000E+01+
*       -5.000000000E+01               0
GRID*              97513               05.8000000000E+025.0000000000E+01+
*       -5.000000000E+01               0
GRID*              97514               05.7000000000E+025.0000000000E+01+
*       -5.000000000E+01               0
GRID*              97515               05.6000000000E+025.0000000000E+01+
*       -5.000000000E+01               0
GRID*              97516               05.5000000000E+025.0000000000E+01+
*       -5.000000000E+01               0
GRID*              97517               05.4000000000E+025.0000000000E+01+
*       -5.000000000E+01               0
GRID*              97518               05.3000000000E+025.0000000000E+01+
*       -5.000000000E+01               0
GRID*              97519               05.2000000000E+025.0000000000E+01+
*       -5.000000000E+01               0
GRID*              97520               05.1000000000E+025.0000000000E+01+
*       -5.000000000E+01               0
GRID*              97521               05.0000000000E+025.0000000000E+01+
*       -5.000000000E+01               0
GRID*              97522               04.9000000000E+025.0000000000E+01+
*       -5.000000000E+01               0
GRID*              97523               04.8000000000E+025.0000000000E+01+
*       -5.000000000E+01               0
GRID*              97524               04.7000000000E+025.0000000000E+01+
*       -5.000000000E+01               0
GRID*              97525               04.6000000000E+025.0000000000E+01+
*       -5.000000000E+01               0
GRID*              97526               04.5000000000E+025.0000000000E+01+
*       -5.000000000E+01               0
GRID*              97527               04.4000000000E+025.0000000000E+01+
*       -5.000000000E+01               0
GRID*              97528               04.3000000000E+025.0000000000E+01+
*       -5.000000000E+01               0
GRID*              97529               04.2000000000E+025.0000000000E+01+
*       -5.000000000E+01               0
GRID*              97530               04.1000000000E+025.0000000000E+01+
*       -5.000000000E+01               0
GRID*              97531               04.0000000000E+025.0000000000E+01+
*       -5.000000000E+01               0
GRID*              97532               03.9000000000E+025.0000000000E+01+
*       -5.000000000E+01               0
GRID*              97533               03.8000000000E+025.0000000000E+01+
*       -5.000000000E+01               0
GRID*              97534               03.7000000000E+025.0000000000E+01+
*       -5.000000000E+01               0
GRID*              97535               03.6000000000E+025.0000000000E+01+
*       -5.000000000E+01               0
GRID*              97536               03.5000000000E+025.0000000000E+01+
*       -5.000000000E+01               0
GRID*              97537               03.4000000000E+025.0000000000E+01+
*       -5.000000000E+01               0
GRID*              97538               03.3000000000E+025.0000000000E+01+
*       -5.000000000E+01               0
GRID*              97539               03.2000000000E+025.0000000000E+01+
*       -5.000000000E+01               0
GRID*              97540               03.1000000000E+025.0000000000E+01+
*       -5.000000000E+01               0
GRID*              97541               03.0000000000E+025.0000000000E+01+
*       -5.000000000E+01               0
GRID*              97542               02.9000000000E+025.0000000000E+01+
*       -5.000000000E+01               0
GRID*              97543               02.8000000000E+025.0000000000E+01+
*       -5.000000000E+01               0
GRID*              97544               02.7000000000E+025.0000000000E+01+
*       -5.000000000E+01               0
GRID*              97545               02.6000000000E+025.0000000000E+01+
*       -5.000000000E+01               0
GRID*              97546               02.5000000000E+025.0000000000E+01+
*       -5.000000000E+01               0
GRID*              97547               02.4000000000E+025.0000000000E+01+
*       -5.000000000E+01               0
GRID*              97548               02.3000000000E+025.0000000000E+01+
*       -5.000000000E+01               0
GRID*              97549               02.2000000000E+025.0000000000E+01+
*       -5.000000000E+01               0
GRID*              97550               02.1000000000E+025.0000000000E+01+
*       -5.000000000E+01               0
GRID*              97551               02.0000000000E+025.0000000000E+01+
*       -5.000000000E+01               0
GRID*              97552               01.9000000000E+025.0000000000E+01+
*       -5.000000000E+01               0
GRID*              97553               01.8000000000E+025.0000000000E+01+
*       -5.000000000E+01               0
GRID*              97554               01.7000000000E+025.0000000000E+01+
*       -5.000000000E+01               0
GRID*              97555               01.6000000000E+025.0000000000E+01+
*       -5.000000000E+01               0
GRID*              97556               01.5000000000E+025.0000000000E+01+
*       -5.000000000E+01               0
GRID*              97557               01.4000000000E+025.0000000000E+01+
*       -5.000000000E+01               0
GRID*              97558               01.3000000000E+025.0000000000E+01+
*       -5.000000000E+01               0
GRID*              97559               01.2000000000E+025.0000000000E+01+
*       -5.000000000E+01               0
GRID*              97560               01.1000000000E+025.0000000000E+01+
*       -5.000000000E+01               0
GRID*              97561               01.0000000000E+025.0000000000E+01+
*       -5.000000000E+01               0
GRID*              97562               09.0000000000E+015.0000000000E+01+
*       -5.000000000E+01               0
GRID*              97563               08.0000000000E+015.0000000000E+01+
*       -5.000000000E+01               0
GRID*              97564               07.0000000000E+015.0000000000E+01+
*       -5.000000000E+01               0
GRID*              97565               06.0000000000E+015.0000000000E+01+
*       -5.000000000E+01               0
GRID*              97566               05.0000000000E+015.0000000000E+01+
*       -5.000000000E+01               0
GRID*              97567               04.0000000000E+015.0000000000E+01+
*       -5.000000000E+01               0
GRID*              97568               03.0000000000E+015.0000000000E+01+
*       -5.000000000E+01               0
GRID*              97569               02.0000000000E+015.0000000000E+01+
*       -5.000000000E+01               0
GRID*              97570               01.0000000000E+015.0000000000E+01+
*       -5.000000000E+01               0
GRID*              97571               01.9900000000E+035.0000000000E+01+
*       5.0000000000E+01               0
GRID*              97572               01.9800000000E+035.0000000000E+01+
*       5.0000000000E+01               0
GRID*              97573               01.9700000000E+035.0000000000E+01+
*       5.0000000000E+01               0
GRID*              97574               01.9600000000E+035.0000000000E+01+
*       5.0000000000E+01               0
GRID*              97575               01.9500000000E+035.0000000000E+01+
*       5.0000000000E+01               0
GRID*              97576               01.9400000000E+035.0000000000E+01+
*       5.0000000000E+01               0
GRID*              97577               01.9300000000E+035.0000000000E+01+
*       5.0000000000E+01               0
GRID*              97578               01.9200000000E+035.0000000000E+01+
*       5.0000000000E+01               0
GRID*              97579               01.9100000000E+035.0000000000E+01+
*       5.0000000000E+01               0
GRID*              97580               01.9000000000E+035.0000000000E+01+
*       5.0000000000E+01               0
GRID*              97581               01.8900000000E+035.0000000000E+01+
*       5.0000000000E+01               0
GRID*              97582               01.8800000000E+035.0000000000E+01+
*       5.0000000000E+01               0
GRID*              97583               01.8700000000E+035.0000000000E+01+
*       5.0000000000E+01               0
GRID*              97584               01.8600000000E+035.0000000000E+01+
*       5.0000000000E+01               0
GRID*              97585               01.8500000000E+035.0000000000E+01+
*       5.0000000000E+01               0
GRID*              97586               01.8400000000E+035.0000000000E+01+
*       5.0000000000E+01               0
GRID*              97587               01.8300000000E+035.0000000000E+01+
*       5.0000000000E+01               0
GRID*              97588               01.8200000000E+035.0000000000E+01+
*       5.0000000000E+01               0
GRID*              97589               01.8100000000E+035.0000000000E+01+
*       5.0000000000E+01               0
GRID*              97590               01.8000000000E+035.0000000000E+01+
*       5.0000000000E+01               0
GRID*              97591               01.7900000000E+035.0000000000E+01+
*       5.0000000000E+01               0
GRID*              97592               01.7800000000E+035.0000000000E+01+
*       5.0000000000E+01               0
GRID*              97593               01.7700000000E+035.0000000000E+01+
*       5.0000000000E+01               0
GRID*              97594               01.7600000000E+035.0000000000E+01+
*       5.0000000000E+01               0
GRID*              97595               01.7500000000E+035.0000000000E+01+
*       5.0000000000E+01               0
GRID*              97596               01.7400000000E+035.0000000000E+01+
*       5.0000000000E+01               0
GRID*              97597               01.7300000000E+035.0000000000E+01+
*       5.0000000000E+01               0
GRID*              97598               01.7200000000E+035.0000000000E+01+
*       5.0000000000E+01               0
GRID*              97599               01.7100000000E+035.0000000000E+01+
*       5.0000000000E+01               0
GRID*              97600               01.7000000000E+035.0000000000E+01+
*       5.0000000000E+01               0
GRID*              97601               01.6900000000E+035.0000000000E+01+
*       5.0000000000E+01               0
GRID*              97602               01.6800000000E+035.0000000000E+01+
*       5.0000000000E+01               0
GRID*              97603               01.6700000000E+035.0000000000E+01+
*       5.0000000000E+01               0
GRID*              97604               01.6600000000E+035.0000000000E+01+
*       5.0000000000E+01               0
GRID*              97605               01.6500000000E+035.0000000000E+01+
*       5.0000000000E+01               0
GRID*              97606               01.6400000000E+035.0000000000E+01+
*       5.0000000000E+01               0
GRID*              97607               01.6300000000E+035.0000000000E+01+
*       5.0000000000E+01               0
GRID*              97608               01.6200000000E+035.0000000000E+01+
*       5.0000000000E+01               0
GRID*              97609               01.6100000000E+035.0000000000E+01+
*       5.0000000000E+01               0
GRID*              97610               01.6000000000E+035.0000000000E+01+
*       5.0000000000E+01               0
GRID*              97611               01.5900000000E+035.0000000000E+01+
*       5.0000000000E+01               0
GRID*              97612               01.5800000000E+035.0000000000E+01+
*       5.0000000000E+01               0
GRID*              97613               01.5700000000E+035.0000000000E+01+
*       5.0000000000E+01               0
GRID*              97614               01.5600000000E+035.0000000000E+01+
*       5.0000000000E+01               0
GRID*              97615               01.5500000000E+035.0000000000E+01+
*       5.0000000000E+01               0
GRID*              97616               01.5400000000E+035.0000000000E+01+
*       5.0000000000E+01               0
GRID*              97617               01.5300000000E+035.0000000000E+01+
*       5.0000000000E+01               0
GRID*              97618               01.5200000000E+035.0000000000E+01+
*       5.0000000000E+01               0
GRID*              97619               01.5100000000E+035.0000000000E+01+
*       5.0000000000E+01               0
GRID*              97620               01.5000000000E+035.0000000000E+01+
*       5.0000000000E+01               0
GRID*              97621               01.4900000000E+035.0000000000E+01+
*       5.0000000000E+01               0
GRID*              97622               01.4800000000E+035.0000000000E+01+
*       5.0000000000E+01               0
GRID*              97623               01.4700000000E+035.0000000000E+01+
*       5.0000000000E+01               0
GRID*              97624               01.4600000000E+035.0000000000E+01+
*       5.0000000000E+01               0
GRID*              97625               01.4500000000E+035.0000000000E+01+
*       5.0000000000E+01               0
GRID*              97626               01.4400000000E+035.0000000000E+01+
*       5.0000000000E+01               0
GRID*              97627               01.4300000000E+035.0000000000E+01+
*       5.0000000000E+01               0
GRID*              97628               01.4200000000E+035.0000000000E+01+
*       5.0000000000E+01               0
GRID*              97629               01.4100000000E+035.0000000000E+01+
*       5.0000000000E+01               0
GRID*              97630               01.4000000000E+035.0000000000E+01+
*       5.0000000000E+01               0
GRID*              97631               01.3900000000E+035.0000000000E+01+
*       5.0000000000E+01               0
GRID*              97632               01.3800000000E+035.0000000000E+01+
*       5.0000000000E+01               0
GRID*              97633               01.3700000000E+035.0000000000E+01+
*       5.0000000000E+01               0
GRID*              97634               01.3600000000E+035.0000000000E+01+
*       5.0000000000E+01               0
GRID*              97635               01.3500000000E+035.0000000000E+01+
*       5.0000000000E+01               0
GRID*              97636               01.3400000000E+035.0000000000E+01+
*       5.0000000000E+01               0
GRID*              97637               01.3300000000E+035.0000000000E+01+
*       5.0000000000E+01               0
GRID*              97638               01.3200000000E+035.0000000000E+01+
*       5.0000000000E+01               0
GRID*              97639               01.3100000000E+035.0000000000E+01+
*       5.0000000000E+01               0
GRID*              97640               01.3000000000E+035.0000000000E+01+
*       5.0000000000E+01               0
GRID*              97641               01.2900000000E+035.0000000000E+01+
*       5.0000000000E+01               0
GRID*              97642               01.2800000000E+035.0000000000E+01+
*       5.0000000000E+01               0
GRID*              97643               01.2700000000E+035.0000000000E+01+
*       5.0000000000E+01               0
GRID*              97644               01.2600000000E+035.0000000000E+01+
*       5.0000000000E+01               0
GRID*              97645               01.2500000000E+035.0000000000E+01+
*       5.0000000000E+01               0
GRID*              97646               01.2400000000E+035.0000000000E+01+
*       5.0000000000E+01               0
GRID*              97647               01.2300000000E+035.0000000000E+01+
*       5.0000000000E+01               0
GRID*              97648               01.2200000000E+035.0000000000E+01+
*       5.0000000000E+01               0
GRID*              97649               01.2100000000E+035.0000000000E+01+
*       5.0000000000E+01               0
GRID*              97650               01.2000000000E+035.0000000000E+01+
*       5.0000000000E+01               0
GRID*              97651               01.1900000000E+035.0000000000E+01+
*       5.0000000000E+01               0
GRID*              97652               01.1800000000E+035.0000000000E+01+
*       5.0000000000E+01               0
GRID*              97653               01.1700000000E+035.0000000000E+01+
*       5.0000000000E+01               0
GRID*              97654               01.1600000000E+035.0000000000E+01+
*       5.0000000000E+01               0
GRID*              97655               01.1500000000E+035.0000000000E+01+
*       5.0000000000E+01               0
GRID*              97656               01.1400000000E+035.0000000000E+01+
*       5.0000000000E+01               0
GRID*              97657               01.1300000000E+035.0000000000E+01+
*       5.0000000000E+01               0
GRID*              97658               01.1200000000E+035.0000000000E+01+
*       5.0000000000E+01               0
GRID*              97659               01.1100000000E+035.0000000000E+01+
*       5.0000000000E+01               0
GRID*              97660               01.1000000000E+035.0000000000E+01+
*       5.0000000000E+01               0
GRID*              97661               01.0900000000E+035.0000000000E+01+
*       5.0000000000E+01               0
GRID*              97662               01.0800000000E+035.0000000000E+01+
*       5.0000000000E+01               0
GRID*              97663               01.0700000000E+035.0000000000E+01+
*       5.0000000000E+01               0
GRID*              97664               01.0600000000E+035.0000000000E+01+
*       5.0000000000E+01               0
GRID*              97665               01.0500000000E+035.0000000000E+01+
*       5.0000000000E+01               0
GRID*              97666               01.0400000000E+035.0000000000E+01+
*       5.0000000000E+01               0
GRID*              97667               01.0300000000E+035.0000000000E+01+
*       5.0000000000E+01               0
GRID*              97668               01.0200000000E+035.0000000000E+01+
*       5.0000000000E+01               0
GRID*              97669               01.0100000000E+035.0000000000E+01+
*       5.0000000000E+01               0
GRID*              97670               01.0000000000E+035.0000000000E+01+
*       5.0000000000E+01               0
GRID*              97671               09.9000000000E+025.0000000000E+01+
*       5.0000000000E+01               0
GRID*              97672               09.8000000000E+025.0000000000E+01+
*       5.0000000000E+01               0
GRID*              97673               09.7000000000E+025.0000000000E+01+
*       5.0000000000E+01               0
GRID*              97674               09.6000000000E+025.0000000000E+01+
*       5.0000000000E+01               0
GRID*              97675               09.5000000000E+025.0000000000E+01+
*       5.0000000000E+01               0
GRID*              97676               09.4000000000E+025.0000000000E+01+
*       5.0000000000E+01               0
GRID*              97677               09.3000000000E+025.0000000000E+01+
*       5.0000000000E+01               0
GRID*              97678               09.2000000000E+025.0000000000E+01+
*       5.0000000000E+01               0
GRID*              97679               09.1000000000E+025.0000000000E+01+
*       5.0000000000E+01               0
GRID*              97680               09.0000000000E+025.0000000000E+01+
*       5.0000000000E+01               0
GRID*              97681               08.9000000000E+025.0000000000E+01+
*       5.0000000000E+01               0
GRID*              97682               08.8000000000E+025.0000000000E+01+
*       5.0000000000E+01               0
GRID*              97683               08.7000000000E+025.0000000000E+01+
*       5.0000000000E+01               0
GRID*              97684               08.6000000000E+025.0000000000E+01+
*       5.0000000000E+01               0
GRID*              97685               08.5000000000E+025.0000000000E+01+
*       5.0000000000E+01               0
GRID*              97686               08.4000000000E+025.0000000000E+01+
*       5.0000000000E+01               0
GRID*              97687               08.3000000000E+025.0000000000E+01+
*       5.0000000000E+01               0
GRID*              97688               08.2000000000E+025.0000000000E+01+
*       5.0000000000E+01               0
GRID*              97689               08.1000000000E+025.0000000000E+01+
*       5.0000000000E+01               0
GRID*              97690               08.0000000000E+025.0000000000E+01+
*       5.0000000000E+01               0
GRID*              97691               07.9000000000E+025.0000000000E+01+
*       5.0000000000E+01               0
GRID*              97692               07.8000000000E+025.0000000000E+01+
*       5.0000000000E+01               0
GRID*              97693               07.7000000000E+025.0000000000E+01+
*       5.0000000000E+01               0
GRID*              97694               07.6000000000E+025.0000000000E+01+
*       5.0000000000E+01               0
GRID*              97695               07.5000000000E+025.0000000000E+01+
*       5.0000000000E+01               0
GRID*              97696               07.4000000000E+025.0000000000E+01+
*       5.0000000000E+01               0
GRID*              97697               07.3000000000E+025.0000000000E+01+
*       5.0000000000E+01               0
GRID*              97698               07.2000000000E+025.0000000000E+01+
*       5.0000000000E+01               0
GRID*              97699               07.1000000000E+025.0000000000E+01+
*       5.0000000000E+01               0
GRID*              97700               07.0000000000E+025.0000000000E+01+
*       5.0000000000E+01               0
GRID*              97701               06.9000000000E+025.0000000000E+01+
*       5.0000000000E+01               0
GRID*              97702               06.8000000000E+025.0000000000E+01+
*       5.0000000000E+01               0
GRID*              97703               06.7000000000E+025.0000000000E+01+
*       5.0000000000E+01               0
GRID*              97704               06.6000000000E+025.0000000000E+01+
*       5.0000000000E+01               0
GRID*              97705               06.5000000000E+025.0000000000E+01+
*       5.0000000000E+01               0
GRID*              97706               06.4000000000E+025.0000000000E+01+
*       5.0000000000E+01               0
GRID*              97707               06.3000000000E+025.0000000000E+01+
*       5.0000000000E+01               0
GRID*              97708               06.2000000000E+025.0000000000E+01+
*       5.0000000000E+01               0
GRID*              97709               06.1000000000E+025.0000000000E+01+
*       5.0000000000E+01               0
GRID*              97710               06.0000000000E+025.0000000000E+01+
*       5.0000000000E+01               0
GRID*              97711               05.9000000000E+025.0000000000E+01+
*       5.0000000000E+01               0
GRID*              97712               05.8000000000E+025.0000000000E+01+
*       5.0000000000E+01               0
GRID*              97713               05.7000000000E+025.0000000000E+01+
*       5.0000000000E+01               0
GRID*              97714               05.6000000000E+025.0000000000E+01+
*       5.0000000000E+01               0
GRID*              97715               05.5000000000E+025.0000000000E+01+
*       5.0000000000E+01               0
GRID*              97716               05.4000000000E+025.0000000000E+01+
*       5.0000000000E+01               0
GRID*              97717               05.3000000000E+025.0000000000E+01+
*       5.0000000000E+01               0
GRID*              97718               05.2000000000E+025.0000000000E+01+
*       5.0000000000E+01               0
GRID*              97719               05.1000000000E+025.0000000000E+01+
*       5.0000000000E+01               0
GRID*              97720               05.0000000000E+025.0000000000E+01+
*       5.0000000000E+01               0
GRID*              97721               04.9000000000E+025.0000000000E+01+
*       5.0000000000E+01               0
GRID*              97722               04.8000000000E+025.0000000000E+01+
*       5.0000000000E+01               0
GRID*              97723               04.7000000000E+025.0000000000E+01+
*       5.0000000000E+01               0
GRID*              97724               04.6000000000E+025.0000000000E+01+
*       5.0000000000E+01               0
GRID*              97725               04.5000000000E+025.0000000000E+01+
*       5.0000000000E+01               0
GRID*              97726               04.4000000000E+025.0000000000E+01+
*       5.0000000000E+01               0
GRID*              97727               04.3000000000E+025.0000000000E+01+
*       5.0000000000E+01               0
GRID*              97728               04.2000000000E+025.0000000000E+01+
*       5.0000000000E+01               0
GRID*              97729               04.1000000000E+025.0000000000E+01+
*       5.0000000000E+01               0
GRID*              97730               04.0000000000E+025.0000000000E+01+
*       5.0000000000E+01               0
GRID*              97731               03.9000000000E+025.0000000000E+01+
*       5.0000000000E+01               0
GRID*              97732               03.8000000000E+025.0000000000E+01+
*       5.0000000000E+01               0
GRID*              97733               03.7000000000E+025.0000000000E+01+
*       5.0000000000E+01               0
GRID*              97734               03.6000000000E+025.0000000000E+01+
*       5.0000000000E+01               0
GRID*              97735               03.5000000000E+025.0000000000E+01+
*       5.0000000000E+01               0
GRID*              97736               03.4000000000E+025.0000000000E+01+
*       5.0000000000E+01               0
GRID*              97737               03.3000000000E+025.0000000000E+01+
*       5.0000000000E+01               0
GRID*              97738               03.2000000000E+025.0000000000E+01+
*       5.0000000000E+01               0
GRID*              97739               03.1000000000E+025.0000000000E+01+
*       5.0000000000E+01               0
GRID*              97740               03.0000000000E+025.0000000000E+01+
*       5.0000000000E+01               0
GRID*              97741               02.9000000000E+025.0000000000E+01+
*       5.0000000000E+01               0
GRID*              97742               02.8000000000E+025.0000000000E+01+
*       5.0000000000E+01               0
GRID*              97743               02.7000000000E+025.0000000000E+01+
*       5.0000000000E+01               0
GRID*              97744               02.6000000000E+025.0000000000E+01+
*       5.0000000000E+01               0
GRID*              97745               02.5000000000E+025.0000000000E+01+
*       5.0000000000E+01               0
GRID*              97746               02.4000000000E+025.0000000000E+01+
*       5.0000000000E+01               0
GRID*              97747               02.3000000000E+025.0000000000E+01+
*       5.0000000000E+01               0
GRID*              97748               02.2000000000E+025.0000000000E+01+
*       5.0000000000E+01               0
GRID*              97749               02.1000000000E+025.0000000000E+01+
*       5.0000000000E+01               0
GRID*              97750               02.0000000000E+025.0000000000E+01+
*       5.0000000000E+01               0
GRID*              97751               01.9000000000E+025.0000000000E+01+
*       5.0000000000E+01               0
GRID*              97752               01.8000000000E+025.0000000000E+01+
*       5.0000000000E+01               0
GRID*              97753               01.7000000000E+025.0000000000E+01+
*       5.0000000000E+01               0
GRID*              97754               01.6000000000E+025.0000000000E+01+
*       5.0000000000E+01               0
GRID*              97755               01.5000000000E+025.0000000000E+01+
*       5.0000000000E+01               0
GRID*              97756               01.4000000000E+025.0000000000E+01+
*       5.0000000000E+01               0
GRID*              97757               01.3000000000E+025.0000000000E+01+
*       5.0000000000E+01               0
GRID*              97758               01.2000000000E+025.0000000000E+01+
*       5.0000000000E+01               0
GRID*              97759               01.1000000000E+025.0000000000E+01+
*       5.0000000000E+01               0
GRID*              97760               01.0000000000E+025.0000000000E+01+
*       5.0000000000E+01               0
GRID*              97761               09.0000000000E+015.0000000000E+01+
*       5.0000000000E+01               0
GRID*              97762               08.0000000000E+015.0000000000E+01+
*       5.0000000000E+01               0
GRID*              97763               07.0000000000E+015.0000000000E+01+
*       5.0000000000E+01               0
GRID*              97764               06.0000000000E+015.0000000000E+01+
*       5.0000000000E+01               0
GRID*              97765               05.0000000000E+015.0000000000E+01+
*       5.0000000000E+01               0
GRID*              97766               04.0000000000E+015.0000000000E+01+
*       5.0000000000E+01               0
GRID*              97767               03.0000000000E+015.0000000000E+01+
*       5.0000000000E+01               0
GRID*              97768               02.0000000000E+015.0000000000E+01+
*       5.0000000000E+01               0
GRID*              97769               01.0000000000E+015.0000000000E+01+
*       5.0000000000E+01               0
GRID*              97770               00.0000000000E+001.6666666667E+01+
*       -1.666666667E+01               0
GRID*              97771               00.0000000000E+001.6666666667E+01+
*       1.6666666667E+01               0
GRID*              97772               00.0000000000E+00-1.666666667E+01+
*       1.6666666667E+01               0
GRID*              97773               00.0000000000E+00-1.666666667E+01+
*       -1.666666667E+01               0
GRID*              97774               01.9900000000E+03-5.000000000E+01+
*       1.6666666667E+01               0
GRID*              97775               01.9900000000E+03-5.000000000E+01+
*       -1.666666667E+01               0
GRID*              97776               01.9800000000E+03-5.000000000E+01+
*       1.6666666667E+01               0
GRID*              97777               01.9800000000E+03-5.000000000E+01+
*       -1.666666667E+01               0
GRID*              97778               01.9700000000E+03-5.000000000E+01+
*       1.6666666667E+01               0
GRID*              97779               01.9700000000E+03-5.000000000E+01+
*       -1.666666667E+01               0
GRID*              97780               01.9600000000E+03-5.000000000E+01+
*       1.6666666667E+01               0
GRID*              97781               01.9600000000E+03-5.000000000E+01+
*       -1.666666667E+01               0
GRID*              97782               01.9500000000E+03-5.000000000E+01+
*       1.6666666667E+01               0
GRID*              97783               01.9500000000E+03-5.000000000E+01+
*       -1.666666667E+01               0
GRID*              97784               01.9400000000E+03-5.000000000E+01+
*       1.6666666667E+01               0
GRID*              97785               01.9400000000E+03-5.000000000E+01+
*       -1.666666667E+01               0
GRID*              97786               01.9300000000E+03-5.000000000E+01+
*       1.6666666667E+01               0
GRID*              97787               01.9300000000E+03-5.000000000E+01+
*       -1.666666667E+01               0
GRID*              97788               01.9200000000E+03-5.000000000E+01+
*       1.6666666667E+01               0
GRID*              97789               01.9200000000E+03-5.000000000E+01+
*       -1.666666667E+01               0
GRID*              97790               01.9100000000E+03-5.000000000E+01+
*       1.6666666667E+01               0
GRID*              97791               01.9100000000E+03-5.000000000E+01+
*       -1.666666667E+01               0
GRID*              97792               01.9000000000E+03-5.000000000E+01+
*       1.6666666667E+01               0
GRID*              97793               01.9000000000E+03-5.000000000E+01+
*       -1.666666667E+01               0
GRID*              97794               01.8900000000E+03-5.000000000E+01+
*       1.6666666667E+01               0
GRID*              97795               01.8900000000E+03-5.000000000E+01+
*       -1.666666667E+01               0
GRID*              97796               01.8800000000E+03-5.000000000E+01+
*       1.6666666667E+01               0
GRID*              97797               01.8800000000E+03-5.000000000E+01+
*       -1.666666667E+01               0
GRID*              97798               01.8700000000E+03-5.000000000E+01+
*       1.6666666667E+01               0
GRID*              97799               01.8700000000E+03-5.000000000E+01+
*       -1.666666667E+01               0
GRID*              97800               01.8600000000E+03-5.000000000E+01+
*       1.6666666667E+01               0
GRID*              97801               01.8600000000E+03-5.000000000E+01+
*       -1.666666667E+01               0
GRID*              97802               01.8500000000E+03-5.000000000E+01+
*       1.6666666667E+01               0
GRID*              97803               01.8500000000E+03-5.000000000E+01+
*       -1.666666667E+01               0
GRID*              97804               01.8400000000E+03-5.000000000E+01+
*       1.6666666667E+01               0
GRID*              97805               01.8400000000E+03-5.000000000E+01+
*       -1.666666667E+01               0
GRID*              97806               01.8300000000E+03-5.000000000E+01+
*       1.6666666667E+01               0
GRID*              97807               01.8300000000E+03-5.000000000E+01+
*       -1.666666667E+01               0
GRID*              97808               01.8200000000E+03-5.000000000E+01+
*       1.6666666667E+01               0
GRID*              97809               01.8200000000E+03-5.000000000E+01+
*       -1.666666667E+01               0
GRID*              97810               01.8100000000E+03-5.000000000E+01+
*       1.6666666667E+01               0
GRID*              97811               01.8100000000E+03-5.000000000E+01+
*       -1.666666667E+01               0
GRID*              97812               01.8000000000E+03-5.000000000E+01+
*       1.6666666667E+01               0
GRID*              97813               01.8000000000E+03-5.000000000E+01+
*       -1.666666667E+01               0
GRID*              97814               01.7900000000E+03-5.000000000E+01+
*       1.6666666667E+01               0
GRID*              97815               01.7900000000E+03-5.000000000E+01+
*       -1.666666667E+01               0
GRID*              97816               01.7800000000E+03-5.000000000E+01+
*       1.6666666667E+01               0
GRID*              97817               01.7800000000E+03-5.000000000E+01+
*       -1.666666667E+01               0
GRID*              97818               01.7700000000E+03-5.000000000E+01+
*       1.6666666667E+01               0
GRID*              97819               01.7700000000E+03-5.000000000E+01+
*       -1.666666667E+01               0
GRID*              97820               01.7600000000E+03-5.000000000E+01+
*       1.6666666667E+01               0
GRID*              97821               01.7600000000E+03-5.000000000E+01+
*       -1.666666667E+01               0
GRID*              97822               01.7500000000E+03-5.000000000E+01+
*       1.6666666667E+01               0
GRID*              97823               01.7500000000E+03-5.000000000E+01+
*       -1.666666667E+01               0
GRID*              97824               01.7400000000E+03-5.000000000E+01+
*       1.6666666667E+01               0
GRID*              97825               01.7400000000E+03-5.000000000E+01+
*       -1.666666667E+01               0
GRID*              97826               01.7300000000E+03-5.000000000E+01+
*       1.6666666667E+01               0
GRID*              97827               01.7300000000E+03-5.000000000E+01+
*       -1.666666667E+01               0
GRID*              97828               01.7200000000E+03-5.000000000E+01+
*       1.6666666667E+01               0
GRID*              97829               01.7200000000E+03-5.000000000E+01+
*       -1.666666667E+01               0
GRID*              97830               01.7100000000E+03-5.000000000E+01+
*       1.6666666667E+01               0
GRID*              97831               01.7100000000E+03-5.000000000E+01+
*       -1.666666667E+01               0
GRID*              97832               01.7000000000E+03-5.000000000E+01+
*       1.6666666667E+01               0
GRID*              97833               01.7000000000E+03-5.000000000E+01+
*       -1.666666667E+01               0
GRID*              97834               01.6900000000E+03-5.000000000E+01+
*       1.6666666667E+01               0
GRID*              97835               01.6900000000E+03-5.000000000E+01+
*       -1.666666667E+01               0
GRID*              97836               01.6800000000E+03-5.000000000E+01+
*       1.6666666667E+01               0
GRID*              97837               01.6800000000E+03-5.000000000E+01+
*       -1.666666667E+01               0
GRID*              97838               01.6700000000E+03-5.000000000E+01+
*       1.6666666667E+01               0
GRID*              97839               01.6700000000E+03-5.000000000E+01+
*       -1.666666667E+01               0
GRID*              97840               01.6600000000E+03-5.000000000E+01+
*       1.6666666667E+01               0
GRID*              97841               01.6600000000E+03-5.000000000E+01+
*       -1.666666667E+01               0
GRID*              97842               01.6500000000E+03-5.000000000E+01+
*       1.6666666667E+01               0
GRID*              97843               01.6500000000E+03-5.000000000E+01+
*       -1.666666667E+01               0
GRID*              97844               01.6400000000E+03-5.000000000E+01+
*       1.6666666667E+01               0
GRID*              97845               01.6400000000E+03-5.000000000E+01+
*       -1.666666667E+01               0
GRID*              97846               01.6300000000E+03-5.000000000E+01+
*       1.6666666667E+01               0
GRID*              97847               01.6300000000E+03-5.000000000E+01+
*       -1.666666667E+01               0
GRID*              97848               01.6200000000E+03-5.000000000E+01+
*       1.6666666667E+01               0
GRID*              97849               01.6200000000E+03-5.000000000E+01+
*       -1.666666667E+01               0
GRID*              97850               01.6100000000E+03-5.000000000E+01+
*       1.6666666667E+01               0
GRID*              97851               01.6100000000E+03-5.000000000E+01+
*       -1.666666667E+01               0
GRID*              97852               01.6000000000E+03-5.000000000E+01+
*       1.6666666667E+01               0
GRID*              97853               01.6000000000E+03-5.000000000E+01+
*       -1.666666667E+01               0
GRID*              97854               01.5900000000E+03-5.000000000E+01+
*       1.6666666667E+01               0
GRID*              97855               01.5900000000E+03-5.000000000E+01+
*       -1.666666667E+01               0
GRID*              97856               01.5800000000E+03-5.000000000E+01+
*       1.6666666667E+01               0
GRID*              97857               01.5800000000E+03-5.000000000E+01+
*       -1.666666667E+01               0
GRID*              97858               01.5700000000E+03-5.000000000E+01+
*       1.6666666667E+01               0
GRID*              97859               01.5700000000E+03-5.000000000E+01+
*       -1.666666667E+01               0
GRID*              97860               01.5600000000E+03-5.000000000E+01+
*       1.6666666667E+01               0
GRID*              97861               01.5600000000E+03-5.000000000E+01+
*       -1.666666667E+01               0
GRID*              97862               01.5500000000E+03-5.000000000E+01+
*       1.6666666667E+01               0
GRID*              97863               01.5500000000E+03-5.000000000E+01+
*       -1.666666667E+01               0
GRID*              97864               01.5400000000E+03-5.000000000E+01+
*       1.6666666667E+01               0
GRID*              97865               01.5400000000E+03-5.000000000E+01+
*       -1.666666667E+01               0
GRID*              97866               01.5300000000E+03-5.000000000E+01+
*       1.6666666667E+01               0
GRID*              97867               01.5300000000E+03-5.000000000E+01+
*       -1.666666667E+01               0
GRID*              97868               01.5200000000E+03-5.000000000E+01+
*       1.6666666667E+01               0
GRID*              97869               01.5200000000E+03-5.000000000E+01+
*       -1.666666667E+01               0
GRID*              97870               01.5100000000E+03-5.000000000E+01+
*       1.6666666667E+01               0
GRID*              97871               01.5100000000E+03-5.000000000E+01+
*       -1.666666667E+01               0
GRID*              97872               01.5000000000E+03-5.000000000E+01+
*       1.6666666667E+01               0
GRID*              97873               01.5000000000E+03-5.000000000E+01+
*       -1.666666667E+01               0
GRID*              97874               01.4900000000E+03-5.000000000E+01+
*       1.6666666667E+01               0
GRID*              97875               01.4900000000E+03-5.000000000E+01+
*       -1.666666667E+01               0
GRID*              97876               01.4800000000E+03-5.000000000E+01+
*       1.6666666667E+01               0
GRID*              97877               01.4800000000E+03-5.000000000E+01+
*       -1.666666667E+01               0
GRID*              97878               01.4700000000E+03-5.000000000E+01+
*       1.6666666667E+01               0
GRID*              97879               01.4700000000E+03-5.000000000E+01+
*       -1.666666667E+01               0
GRID*              97880               01.4600000000E+03-5.000000000E+01+
*       1.6666666667E+01               0
GRID*              97881               01.4600000000E+03-5.000000000E+01+
*       -1.666666667E+01               0
GRID*              97882               01.4500000000E+03-5.000000000E+01+
*       1.6666666667E+01               0
GRID*              97883               01.4500000000E+03-5.000000000E+01+
*       -1.666666667E+01               0
GRID*              97884               01.4400000000E+03-5.000000000E+01+
*       1.6666666667E+01               0
GRID*              97885               01.4400000000E+03-5.000000000E+01+
*       -1.666666667E+01               0
GRID*              97886               01.4300000000E+03-5.000000000E+01+
*       1.6666666667E+01               0
GRID*              97887               01.4300000000E+03-5.000000000E+01+
*       -1.666666667E+01               0
GRID*              97888               01.4200000000E+03-5.000000000E+01+
*       1.6666666667E+01               0
GRID*              97889               01.4200000000E+03-5.000000000E+01+
*       -1.666666667E+01               0
GRID*              97890               01.4100000000E+03-5.000000000E+01+
*       1.6666666667E+01               0
GRID*              97891               01.4100000000E+03-5.000000000E+01+
*       -1.666666667E+01               0
GRID*              97892               01.4000000000E+03-5.000000000E+01+
*       1.6666666667E+01               0
GRID*              97893               01.4000000000E+03-5.000000000E+01+
*       -1.666666667E+01               0
GRID*              97894               01.3900000000E+03-5.000000000E+01+
*       1.6666666667E+01               0
GRID*              97895               01.3900000000E+03-5.000000000E+01+
*       -1.666666667E+01               0
GRID*              97896               01.3800000000E+03-5.000000000E+01+
*       1.6666666667E+01               0
GRID*              97897               01.3800000000E+03-5.000000000E+01+
*       -1.666666667E+01               0
GRID*              97898               01.3700000000E+03-5.000000000E+01+
*       1.6666666667E+01               0
GRID*              97899               01.3700000000E+03-5.000000000E+01+
*       -1.666666667E+01               0
GRID*              97900               01.3600000000E+03-5.000000000E+01+
*       1.6666666667E+01               0
GRID*              97901               01.3600000000E+03-5.000000000E+01+
*       -1.666666667E+01               0
GRID*              97902               01.3500000000E+03-5.000000000E+01+
*       1.6666666667E+01               0
GRID*              97903               01.3500000000E+03-5.000000000E+01+
*       -1.666666667E+01               0
GRID*              97904               01.3400000000E+03-5.000000000E+01+
*       1.6666666667E+01               0
GRID*              97905               01.3400000000E+03-5.000000000E+01+
*       -1.666666667E+01               0
GRID*              97906               01.3300000000E+03-5.000000000E+01+
*       1.6666666667E+01               0
GRID*              97907               01.3300000000E+03-5.000000000E+01+
*       -1.666666667E+01               0
GRID*              97908               01.3200000000E+03-5.000000000E+01+
*       1.6666666667E+01               0
GRID*              97909               01.3200000000E+03-5.000000000E+01+
*       -1.666666667E+01               0
GRID*              97910               01.3100000000E+03-5.000000000E+01+
*       1.6666666667E+01               0
GRID*              97911               01.3100000000E+03-5.000000000E+01+
*       -1.666666667E+01               0
GRID*              97912               01.3000000000E+03-5.000000000E+01+
*       1.6666666667E+01               0
GRID*              97913               01.3000000000E+03-5.000000000E+01+
*       -1.666666667E+01               0
GRID*              97914               01.2900000000E+03-5.000000000E+01+
*       1.6666666667E+01               0
GRID*              97915               01.2900000000E+03-5.000000000E+01+
*       -1.666666667E+01               0
GRID*              97916               01.2800000000E+03-5.000000000E+01+
*       1.6666666667E+01               0
GRID*              97917               01.2800000000E+03-5.000000000E+01+
*       -1.666666667E+01               0
GRID*              97918               01.2700000000E+03-5.000000000E+01+
*       1.6666666667E+01               0
GRID*              97919               01.2700000000E+03-5.000000000E+01+
*       -1.666666667E+01               0
GRID*              97920               01.2600000000E+03-5.000000000E+01+
*       1.6666666667E+01               0
GRID*              97921               01.2600000000E+03-5.000000000E+01+
*       -1.666666667E+01               0
GRID*              97922               01.2500000000E+03-5.000000000E+01+
*       1.6666666667E+01               0
GRID*              97923               01.2500000000E+03-5.000000000E+01+
*       -1.666666667E+01               0
GRID*              97924               01.2400000000E+03-5.000000000E+01+
*       1.6666666667E+01               0
GRID*              97925               01.2400000000E+03-5.000000000E+01+
*       -1.666666667E+01               0
GRID*              97926               01.2300000000E+03-5.000000000E+01+
*       1.6666666667E+01               0
GRID*              97927               01.2300000000E+03-5.000000000E+01+
*       -1.666666667E+01               0
GRID*              97928               01.2200000000E+03-5.000000000E+01+
*       1.6666666667E+01               0
GRID*              97929               01.2200000000E+03-5.000000000E+01+
*       -1.666666667E+01               0
GRID*              97930               01.2100000000E+03-5.000000000E+01+
*       1.6666666667E+01               0
GRID*              97931               01.2100000000E+03-5.000000000E+01+
*       -1.666666667E+01               0
GRID*              97932               01.2000000000E+03-5.000000000E+01+
*       1.6666666667E+01               0
GRID*              97933               01.2000000000E+03-5.000000000E+01+
*       -1.666666667E+01               0
GRID*              97934               01.1900000000E+03-5.000000000E+01+
*       1.6666666667E+01               0
GRID*              97935               01.1900000000E+03-5.000000000E+01+
*       -1.666666667E+01               0
GRID*              97936               01.1800000000E+03-5.000000000E+01+
*       1.6666666667E+01               0
GRID*              97937               01.1800000000E+03-5.000000000E+01+
*       -1.666666667E+01               0
GRID*              97938               01.1700000000E+03-5.000000000E+01+
*       1.6666666667E+01               0
GRID*              97939               01.1700000000E+03-5.000000000E+01+
*       -1.666666667E+01               0
GRID*              97940               01.1600000000E+03-5.000000000E+01+
*       1.6666666667E+01               0
GRID*              97941               01.1600000000E+03-5.000000000E+01+
*       -1.666666667E+01               0
GRID*              97942               01.1500000000E+03-5.000000000E+01+
*       1.6666666667E+01               0
GRID*              97943               01.1500000000E+03-5.000000000E+01+
*       -1.666666667E+01               0
GRID*              97944               01.1400000000E+03-5.000000000E+01+
*       1.6666666667E+01               0
GRID*              97945               01.1400000000E+03-5.000000000E+01+
*       -1.666666667E+01               0
GRID*              97946               01.1300000000E+03-5.000000000E+01+
*       1.6666666667E+01               0
GRID*              97947               01.1300000000E+03-5.000000000E+01+
*       -1.666666667E+01               0
GRID*              97948               01.1200000000E+03-5.000000000E+01+
*       1.6666666667E+01               0
GRID*              97949               01.1200000000E+03-5.000000000E+01+
*       -1.666666667E+01               0
GRID*              97950               01.1100000000E+03-5.000000000E+01+
*       1.6666666667E+01               0
GRID*              97951               01.1100000000E+03-5.000000000E+01+
*       -1.666666667E+01               0
GRID*              97952               01.1000000000E+03-5.000000000E+01+
*       1.6666666667E+01               0
GRID*              97953               01.1000000000E+03-5.000000000E+01+
*       -1.666666667E+01               0
GRID*              97954               01.0900000000E+03-5.000000000E+01+
*       1.6666666667E+01               0
GRID*              97955               01.0900000000E+03-5.000000000E+01+
*       -1.666666667E+01               0
GRID*              97956               01.0800000000E+03-5.000000000E+01+
*       1.6666666667E+01               0
GRID*              97957               01.0800000000E+03-5.000000000E+01+
*       -1.666666667E+01               0
GRID*              97958               01.0700000000E+03-5.000000000E+01+
*       1.6666666667E+01               0
GRID*              97959               01.0700000000E+03-5.000000000E+01+
*       -1.666666667E+01               0
GRID*              97960               01.0600000000E+03-5.000000000E+01+
*       1.6666666667E+01               0
GRID*              97961               01.0600000000E+03-5.000000000E+01+
*       -1.666666667E+01               0
GRID*              97962               01.0500000000E+03-5.000000000E+01+
*       1.6666666667E+01               0
GRID*              97963               01.0500000000E+03-5.000000000E+01+
*       -1.666666667E+01               0
GRID*              97964               01.0400000000E+03-5.000000000E+01+
*       1.6666666667E+01               0
GRID*              97965               01.0400000000E+03-5.000000000E+01+
*       -1.666666667E+01               0
GRID*              97966               01.0300000000E+03-5.000000000E+01+
*       1.6666666667E+01               0
GRID*              97967               01.0300000000E+03-5.000000000E+01+
*       -1.666666667E+01               0
GRID*              97968               01.0200000000E+03-5.000000000E+01+
*       1.6666666667E+01               0
GRID*              97969               01.0200000000E+03-5.000000000E+01+
*       -1.666666667E+01               0
GRID*              97970               01.0100000000E+03-5.000000000E+01+
*       1.6666666667E+01               0
GRID*              97971               01.0100000000E+03-5.000000000E+01+
*       -1.666666667E+01               0
GRID*              97972               01.0000000000E+03-5.000000000E+01+
*       1.6666666667E+01               0
GRID*              97973               01.0000000000E+03-5.000000000E+01+
*       -1.666666667E+01               0
GRID*              97974               09.9000000000E+02-5.000000000E+01+
*       1.6666666667E+01               0
GRID*              97975               09.9000000000E+02-5.000000000E+01+
*       -1.666666667E+01               0
GRID*              97976               09.8000000000E+02-5.000000000E+01+
*       1.6666666667E+01               0
GRID*              97977               09.8000000000E+02-5.000000000E+01+
*       -1.666666667E+01               0
GRID*              97978               09.7000000000E+02-5.000000000E+01+
*       1.6666666667E+01               0
GRID*              97979               09.7000000000E+02-5.000000000E+01+
*       -1.666666667E+01               0
GRID*              97980               09.6000000000E+02-5.000000000E+01+
*       1.6666666667E+01               0
GRID*              97981               09.6000000000E+02-5.000000000E+01+
*       -1.666666667E+01               0
GRID*              97982               09.5000000000E+02-5.000000000E+01+
*       1.6666666667E+01               0
GRID*              97983               09.5000000000E+02-5.000000000E+01+
*       -1.666666667E+01               0
GRID*              97984               09.4000000000E+02-5.000000000E+01+
*       1.6666666667E+01               0
GRID*              97985               09.4000000000E+02-5.000000000E+01+
*       -1.666666667E+01               0
GRID*              97986               09.3000000000E+02-5.000000000E+01+
*       1.6666666667E+01               0
GRID*              97987               09.3000000000E+02-5.000000000E+01+
*       -1.666666667E+01               0
GRID*              97988               09.2000000000E+02-5.000000000E+01+
*       1.6666666667E+01               0
GRID*              97989               09.2000000000E+02-5.000000000E+01+
*       -1.666666667E+01               0
GRID*              97990               09.1000000000E+02-5.000000000E+01+
*       1.6666666667E+01               0
GRID*              97991               09.1000000000E+02-5.000000000E+01+
*       -1.666666667E+01               0
GRID*              97992               09.0000000000E+02-5.000000000E+01+
*       1.6666666667E+01               0
GRID*              97993               09.0000000000E+02-5.000000000E+01+
*       -1.666666667E+01               0
GRID*              97994               08.9000000000E+02-5.000000000E+01+
*       1.6666666667E+01               0
GRID*              97995               08.9000000000E+02-5.000000000E+01+
*       -1.666666667E+01               0
GRID*              97996               08.8000000000E+02-5.000000000E+01+
*       1.6666666667E+01               0
GRID*              97997               08.8000000000E+02-5.000000000E+01+
*       -1.666666667E+01               0
GRID*              97998               08.7000000000E+02-5.000000000E+01+
*       1.6666666667E+01               0
GRID*              97999               08.7000000000E+02-5.000000000E+01+
*       -1.666666667E+01               0
GRID*              98000               08.6000000000E+02-5.000000000E+01+
*       1.6666666667E+01               0
GRID*              98001               08.6000000000E+02-5.000000000E+01+
*       -1.666666667E+01               0
GRID*              98002               08.5000000000E+02-5.000000000E+01+
*       1.6666666667E+01               0
GRID*              98003               08.5000000000E+02-5.000000000E+01+
*       -1.666666667E+01               0
GRID*              98004               08.4000000000E+02-5.000000000E+01+
*       1.6666666667E+01               0
GRID*              98005               08.4000000000E+02-5.000000000E+01+
*       -1.666666667E+01               0
GRID*              98006               08.3000000000E+02-5.000000000E+01+
*       1.6666666667E+01               0
GRID*              98007               08.3000000000E+02-5.000000000E+01+
*       -1.666666667E+01               0
GRID*              98008               08.2000000000E+02-5.000000000E+01+
*       1.6666666667E+01               0
GRID*              98009               08.2000000000E+02-5.000000000E+01+
*       -1.666666667E+01               0
GRID*              98010               08.1000000000E+02-5.000000000E+01+
*       1.6666666667E+01               0
GRID*              98011               08.1000000000E+02-5.000000000E+01+
*       -1.666666667E+01               0
GRID*              98012               08.0000000000E+02-5.000000000E+01+
*       1.6666666667E+01               0
GRID*              98013               08.0000000000E+02-5.000000000E+01+
*       -1.666666667E+01               0
GRID*              98014               07.9000000000E+02-5.000000000E+01+
*       1.6666666667E+01               0
GRID*              98015               07.9000000000E+02-5.000000000E+01+
*       -1.666666667E+01               0
GRID*              98016               07.8000000000E+02-5.000000000E+01+
*       1.6666666667E+01               0
GRID*              98017               07.8000000000E+02-5.000000000E+01+
*       -1.666666667E+01               0
GRID*              98018               07.7000000000E+02-5.000000000E+01+
*       1.6666666667E+01               0
GRID*              98019               07.7000000000E+02-5.000000000E+01+
*       -1.666666667E+01               0
GRID*              98020               07.6000000000E+02-5.000000000E+01+
*       1.6666666667E+01               0
GRID*              98021               07.6000000000E+02-5.000000000E+01+
*       -1.666666667E+01               0
GRID*              98022               07.5000000000E+02-5.000000000E+01+
*       1.6666666667E+01               0
GRID*              98023               07.5000000000E+02-5.000000000E+01+
*       -1.666666667E+01               0
GRID*              98024               07.4000000000E+02-5.000000000E+01+
*       1.6666666667E+01               0
GRID*              98025               07.4000000000E+02-5.000000000E+01+
*       -1.666666667E+01               0
GRID*              98026               07.3000000000E+02-5.000000000E+01+
*       1.6666666667E+01               0
GRID*              98027               07.3000000000E+02-5.000000000E+01+
*       -1.666666667E+01               0
GRID*              98028               07.2000000000E+02-5.000000000E+01+
*       1.6666666667E+01               0
GRID*              98029               07.2000000000E+02-5.000000000E+01+
*       -1.666666667E+01               0
GRID*              98030               07.1000000000E+02-5.000000000E+01+
*       1.6666666667E+01               0
GRID*              98031               07.1000000000E+02-5.000000000E+01+
*       -1.666666667E+01               0
GRID*              98032               07.0000000000E+02-5.000000000E+01+
*       1.6666666667E+01               0
GRID*              98033               07.0000000000E+02-5.000000000E+01+
*       -1.666666667E+01               0
GRID*              98034               06.9000000000E+02-5.000000000E+01+
*       1.6666666667E+01               0
GRID*              98035               06.9000000000E+02-5.000000000E+01+
*       -1.666666667E+01               0
GRID*              98036               06.8000000000E+02-5.000000000E+01+
*       1.6666666667E+01               0
GRID*              98037               06.8000000000E+02-5.000000000E+01+
*       -1.666666667E+01               0
GRID*              98038               06.7000000000E+02-5.000000000E+01+
*       1.6666666667E+01               0
GRID*              98039               06.7000000000E+02-5.000000000E+01+
*       -1.666666667E+01               0
GRID*              98040               06.6000000000E+02-5.000000000E+01+
*       1.6666666667E+01               0
GRID*              98041               06.6000000000E+02-5.000000000E+01+
*       -1.666666667E+01               0
GRID*              98042               06.5000000000E+02-5.000000000E+01+
*       1.6666666667E+01               0
GRID*              98043               06.5000000000E+02-5.000000000E+01+
*       -1.666666667E+01               0
GRID*              98044               06.4000000000E+02-5.000000000E+01+
*       1.6666666667E+01               0
GRID*              98045               06.4000000000E+02-5.000000000E+01+
*       -1.666666667E+01               0
GRID*              98046               06.3000000000E+02-5.000000000E+01+
*       1.6666666667E+01               0
GRID*              98047               06.3000000000E+02-5.000000000E+01+
*       -1.666666667E+01               0
GRID*              98048               06.2000000000E+02-5.000000000E+01+
*       1.6666666667E+01               0
GRID*              98049               06.2000000000E+02-5.000000000E+01+
*       -1.666666667E+01               0
GRID*              98050               06.1000000000E+02-5.000000000E+01+
*       1.6666666667E+01               0
GRID*              98051               06.1000000000E+02-5.000000000E+01+
*       -1.666666667E+01               0
GRID*              98052               06.0000000000E+02-5.000000000E+01+
*       1.6666666667E+01               0
GRID*              98053               06.0000000000E+02-5.000000000E+01+
*       -1.666666667E+01               0
GRID*              98054               05.9000000000E+02-5.000000000E+01+
*       1.6666666667E+01               0
GRID*              98055               05.9000000000E+02-5.000000000E+01+
*       -1.666666667E+01               0
GRID*              98056               05.8000000000E+02-5.000000000E+01+
*       1.6666666667E+01               0
GRID*              98057               05.8000000000E+02-5.000000000E+01+
*       -1.666666667E+01               0
GRID*              98058               05.7000000000E+02-5.000000000E+01+
*       1.6666666667E+01               0
GRID*              98059               05.7000000000E+02-5.000000000E+01+
*       -1.666666667E+01               0
GRID*              98060               05.6000000000E+02-5.000000000E+01+
*       1.6666666667E+01               0
GRID*              98061               05.6000000000E+02-5.000000000E+01+
*       -1.666666667E+01               0
GRID*              98062               05.5000000000E+02-5.000000000E+01+
*       1.6666666667E+01               0
GRID*              98063               05.5000000000E+02-5.000000000E+01+
*       -1.666666667E+01               0
GRID*              98064               05.4000000000E+02-5.000000000E+01+
*       1.6666666667E+01               0
GRID*              98065               05.4000000000E+02-5.000000000E+01+
*       -1.666666667E+01               0
GRID*              98066               05.3000000000E+02-5.000000000E+01+
*       1.6666666667E+01               0
GRID*              98067               05.3000000000E+02-5.000000000E+01+
*       -1.666666667E+01               0
GRID*              98068               05.2000000000E+02-5.000000000E+01+
*       1.6666666667E+01               0
GRID*              98069               05.2000000000E+02-5.000000000E+01+
*       -1.666666667E+01               0
GRID*              98070               05.1000000000E+02-5.000000000E+01+
*       1.6666666667E+01               0
GRID*              98071               05.1000000000E+02-5.000000000E+01+
*       -1.666666667E+01               0
GRID*              98072               05.0000000000E+02-5.000000000E+01+
*       1.6666666667E+01               0
GRID*              98073               05.0000000000E+02-5.000000000E+01+
*       -1.666666667E+01               0
GRID*              98074               04.9000000000E+02-5.000000000E+01+
*       1.6666666667E+01               0
GRID*              98075               04.9000000000E+02-5.000000000E+01+
*       -1.666666667E+01               0
GRID*              98076               04.8000000000E+02-5.000000000E+01+
*       1.6666666667E+01               0
GRID*              98077               04.8000000000E+02-5.000000000E+01+
*       -1.666666667E+01               0
GRID*              98078               04.7000000000E+02-5.000000000E+01+
*       1.6666666667E+01               0
GRID*              98079               04.7000000000E+02-5.000000000E+01+
*       -1.666666667E+01               0
GRID*              98080               04.6000000000E+02-5.000000000E+01+
*       1.6666666667E+01               0
GRID*              98081               04.6000000000E+02-5.000000000E+01+
*       -1.666666667E+01               0
GRID*              98082               04.5000000000E+02-5.000000000E+01+
*       1.6666666667E+01               0
GRID*              98083               04.5000000000E+02-5.000000000E+01+
*       -1.666666667E+01               0
GRID*              98084               04.4000000000E+02-5.000000000E+01+
*       1.6666666667E+01               0
GRID*              98085               04.4000000000E+02-5.000000000E+01+
*       -1.666666667E+01               0
GRID*              98086               04.3000000000E+02-5.000000000E+01+
*       1.6666666667E+01               0
GRID*              98087               04.3000000000E+02-5.000000000E+01+
*       -1.666666667E+01               0
GRID*              98088               04.2000000000E+02-5.000000000E+01+
*       1.6666666667E+01               0
GRID*              98089               04.2000000000E+02-5.000000000E+01+
*       -1.666666667E+01               0
GRID*              98090               04.1000000000E+02-5.000000000E+01+
*       1.6666666667E+01               0
GRID*              98091               04.1000000000E+02-5.000000000E+01+
*       -1.666666667E+01               0
GRID*              98092               04.0000000000E+02-5.000000000E+01+
*       1.6666666667E+01               0
GRID*              98093               04.0000000000E+02-5.000000000E+01+
*       -1.666666667E+01               0
GRID*              98094               03.9000000000E+02-5.000000000E+01+
*       1.6666666667E+01               0
GRID*              98095               03.9000000000E+02-5.000000000E+01+
*       -1.666666667E+01               0
GRID*              98096               03.8000000000E+02-5.000000000E+01+
*       1.6666666667E+01               0
GRID*              98097               03.8000000000E+02-5.000000000E+01+
*       -1.666666667E+01               0
GRID*              98098               03.7000000000E+02-5.000000000E+01+
*       1.6666666667E+01               0
GRID*              98099               03.7000000000E+02-5.000000000E+01+
*       -1.666666667E+01               0
GRID*              98100               03.6000000000E+02-5.000000000E+01+
*       1.6666666667E+01               0
GRID*              98101               03.6000000000E+02-5.000000000E+01+
*       -1.666666667E+01               0
GRID*              98102               03.5000000000E+02-5.000000000E+01+
*       1.6666666667E+01               0
GRID*              98103               03.5000000000E+02-5.000000000E+01+
*       -1.666666667E+01               0
GRID*              98104               03.4000000000E+02-5.000000000E+01+
*       1.6666666667E+01               0
GRID*              98105               03.4000000000E+02-5.000000000E+01+
*       -1.666666667E+01               0
GRID*              98106               03.3000000000E+02-5.000000000E+01+
*       1.6666666667E+01               0
GRID*              98107               03.3000000000E+02-5.000000000E+01+
*       -1.666666667E+01               0
GRID*              98108               03.2000000000E+02-5.000000000E+01+
*       1.6666666667E+01               0
GRID*              98109               03.2000000000E+02-5.000000000E+01+
*       -1.666666667E+01               0
GRID*              98110               03.1000000000E+02-5.000000000E+01+
*       1.6666666667E+01               0
GRID*              98111               03.1000000000E+02-5.000000000E+01+
*       -1.666666667E+01               0
GRID*              98112               03.0000000000E+02-5.000000000E+01+
*       1.6666666667E+01               0
GRID*              98113               03.0000000000E+02-5.000000000E+01+
*       -1.666666667E+01               0
GRID*              98114               02.9000000000E+02-5.000000000E+01+
*       1.6666666667E+01               0
GRID*              98115               02.9000000000E+02-5.000000000E+01+
*       -1.666666667E+01               0
GRID*              98116               02.8000000000E+02-5.000000000E+01+
*       1.6666666667E+01               0
GRID*              98117               02.8000000000E+02-5.000000000E+01+
*       -1.666666667E+01               0
GRID*              98118               02.7000000000E+02-5.000000000E+01+
*       1.6666666667E+01               0
GRID*              98119               02.7000000000E+02-5.000000000E+01+
*       -1.666666667E+01               0
GRID*              98120               02.6000000000E+02-5.000000000E+01+
*       1.6666666667E+01               0
GRID*              98121               02.6000000000E+02-5.000000000E+01+
*       -1.666666667E+01               0
GRID*              98122               02.5000000000E+02-5.000000000E+01+
*       1.6666666667E+01               0
GRID*              98123               02.5000000000E+02-5.000000000E+01+
*       -1.666666667E+01               0
GRID*              98124               02.4000000000E+02-5.000000000E+01+
*       1.6666666667E+01               0
GRID*              98125               02.4000000000E+02-5.000000000E+01+
*       -1.666666667E+01               0
GRID*              98126               02.3000000000E+02-5.000000000E+01+
*       1.6666666667E+01               0
GRID*              98127               02.3000000000E+02-5.000000000E+01+
*       -1.666666667E+01               0
GRID*              98128               02.2000000000E+02-5.000000000E+01+
*       1.6666666667E+01               0
GRID*              98129               02.2000000000E+02-5.000000000E+01+
*       -1.666666667E+01               0
GRID*              98130               02.1000000000E+02-5.000000000E+01+
*       1.6666666667E+01               0
GRID*              98131               02.1000000000E+02-5.000000000E+01+
*       -1.666666667E+01               0
GRID*              98132               02.0000000000E+02-5.000000000E+01+
*       1.6666666667E+01               0
GRID*              98133               02.0000000000E+02-5.000000000E+01+
*       -1.666666667E+01               0
GRID*              98134               01.9000000000E+02-5.000000000E+01+
*       1.6666666667E+01               0
GRID*              98135               01.9000000000E+02-5.000000000E+01+
*       -1.666666667E+01               0
GRID*              98136               01.8000000000E+02-5.000000000E+01+
*       1.6666666667E+01               0
GRID*              98137               01.8000000000E+02-5.000000000E+01+
*       -1.666666667E+01               0
GRID*              98138               01.7000000000E+02-5.000000000E+01+
*       1.6666666667E+01               0
GRID*              98139               01.7000000000E+02-5.000000000E+01+
*       -1.666666667E+01               0
GRID*              98140               01.6000000000E+02-5.000000000E+01+
*       1.6666666667E+01               0
GRID*              98141               01.6000000000E+02-5.000000000E+01+
*       -1.666666667E+01               0
GRID*              98142               01.5000000000E+02-5.000000000E+01+
*       1.6666666667E+01               0
GRID*              98143               01.5000000000E+02-5.000000000E+01+
*       -1.666666667E+01               0
GRID*              98144               01.4000000000E+02-5.000000000E+01+
*       1.6666666667E+01               0
GRID*              98145               01.4000000000E+02-5.000000000E+01+
*       -1.666666667E+01               0
GRID*              98146               01.3000000000E+02-5.000000000E+01+
*       1.6666666667E+01               0
GRID*              98147               01.3000000000E+02-5.000000000E+01+
*       -1.666666667E+01               0
GRID*              98148               01.2000000000E+02-5.000000000E+01+
*       1.6666666667E+01               0
GRID*              98149               01.2000000000E+02-5.000000000E+01+
*       -1.666666667E+01               0
GRID*              98150               01.1000000000E+02-5.000000000E+01+
*       1.6666666667E+01               0
GRID*              98151               01.1000000000E+02-5.000000000E+01+
*       -1.666666667E+01               0
GRID*              98152               01.0000000000E+02-5.000000000E+01+
*       1.6666666667E+01               0
GRID*              98153               01.0000000000E+02-5.000000000E+01+
*       -1.666666667E+01               0
GRID*              98154               09.0000000000E+01-5.000000000E+01+
*       1.6666666667E+01               0
GRID*              98155               09.0000000000E+01-5.000000000E+01+
*       -1.666666667E+01               0
GRID*              98156               08.0000000000E+01-5.000000000E+01+
*       1.6666666667E+01               0
GRID*              98157               08.0000000000E+01-5.000000000E+01+
*       -1.666666667E+01               0
GRID*              98158               07.0000000000E+01-5.000000000E+01+
*       1.6666666667E+01               0
GRID*              98159               07.0000000000E+01-5.000000000E+01+
*       -1.666666667E+01               0
GRID*              98160               06.0000000000E+01-5.000000000E+01+
*       1.6666666667E+01               0
GRID*              98161               06.0000000000E+01-5.000000000E+01+
*       -1.666666667E+01               0
GRID*              98162               05.0000000000E+01-5.000000000E+01+
*       1.6666666667E+01               0
GRID*              98163               05.0000000000E+01-5.000000000E+01+
*       -1.666666667E+01               0
GRID*              98164               04.0000000000E+01-5.000000000E+01+
*       1.6666666667E+01               0
GRID*              98165               04.0000000000E+01-5.000000000E+01+
*       -1.666666667E+01               0
GRID*              98166               03.0000000000E+01-5.000000000E+01+
*       1.6666666667E+01               0
GRID*              98167               03.0000000000E+01-5.000000000E+01+
*       -1.666666667E+01               0
GRID*              98168               02.0000000000E+01-5.000000000E+01+
*       1.6666666667E+01               0
GRID*              98169               02.0000000000E+01-5.000000000E+01+
*       -1.666666667E+01               0
GRID*              98170               01.0000000000E+01-5.000000000E+01+
*       1.6666666667E+01               0
GRID*              98171               01.0000000000E+01-5.000000000E+01+
*       -1.666666667E+01               0
GRID*              98172               01.0000000000E+011.6666666667E+01+
*       -5.000000000E+01               0
GRID*              98173               01.0000000000E+01-1.666666667E+01+
*       -5.000000000E+01               0
GRID*              98174               02.0000000000E+011.6666666667E+01+
*       -5.000000000E+01               0
GRID*              98175               02.0000000000E+01-1.666666667E+01+
*       -5.000000000E+01               0
GRID*              98176               03.0000000000E+011.6666666667E+01+
*       -5.000000000E+01               0
GRID*              98177               03.0000000000E+01-1.666666667E+01+
*       -5.000000000E+01               0
GRID*              98178               04.0000000000E+011.6666666667E+01+
*       -5.000000000E+01               0
GRID*              98179               04.0000000000E+01-1.666666667E+01+
*       -5.000000000E+01               0
GRID*              98180               05.0000000000E+011.6666666667E+01+
*       -5.000000000E+01               0
GRID*              98181               05.0000000000E+01-1.666666667E+01+
*       -5.000000000E+01               0
GRID*              98182               06.0000000000E+011.6666666667E+01+
*       -5.000000000E+01               0
GRID*              98183               06.0000000000E+01-1.666666667E+01+
*       -5.000000000E+01               0
GRID*              98184               07.0000000000E+011.6666666667E+01+
*       -5.000000000E+01               0
GRID*              98185               07.0000000000E+01-1.666666667E+01+
*       -5.000000000E+01               0
GRID*              98186               08.0000000000E+011.6666666667E+01+
*       -5.000000000E+01               0
GRID*              98187               08.0000000000E+01-1.666666667E+01+
*       -5.000000000E+01               0
GRID*              98188               09.0000000000E+011.6666666667E+01+
*       -5.000000000E+01               0
GRID*              98189               09.0000000000E+01-1.666666667E+01+
*       -5.000000000E+01               0
GRID*              98190               01.0000000000E+021.6666666667E+01+
*       -5.000000000E+01               0
GRID*              98191               01.0000000000E+02-1.666666667E+01+
*       -5.000000000E+01               0
GRID*              98192               01.1000000000E+021.6666666667E+01+
*       -5.000000000E+01               0
GRID*              98193               01.1000000000E+02-1.666666667E+01+
*       -5.000000000E+01               0
GRID*              98194               01.2000000000E+021.6666666667E+01+
*       -5.000000000E+01               0
GRID*              98195               01.2000000000E+02-1.666666667E+01+
*       -5.000000000E+01               0
GRID*              98196               01.3000000000E+021.6666666667E+01+
*       -5.000000000E+01               0
GRID*              98197               01.3000000000E+02-1.666666667E+01+
*       -5.000000000E+01               0
GRID*              98198               01.4000000000E+021.6666666667E+01+
*       -5.000000000E+01               0
GRID*              98199               01.4000000000E+02-1.666666667E+01+
*       -5.000000000E+01               0
GRID*              98200               01.5000000000E+021.6666666667E+01+
*       -5.000000000E+01               0
GRID*              98201               01.5000000000E+02-1.666666667E+01+
*       -5.000000000E+01               0
GRID*              98202               01.6000000000E+021.6666666667E+01+
*       -5.000000000E+01               0
GRID*              98203               01.6000000000E+02-1.666666667E+01+
*       -5.000000000E+01               0
GRID*              98204               01.7000000000E+021.6666666667E+01+
*       -5.000000000E+01               0
GRID*              98205               01.7000000000E+02-1.666666667E+01+
*       -5.000000000E+01               0
GRID*              98206               01.8000000000E+021.6666666667E+01+
*       -5.000000000E+01               0
GRID*              98207               01.8000000000E+02-1.666666667E+01+
*       -5.000000000E+01               0
GRID*              98208               01.9000000000E+021.6666666667E+01+
*       -5.000000000E+01               0
GRID*              98209               01.9000000000E+02-1.666666667E+01+
*       -5.000000000E+01               0
GRID*              98210               02.0000000000E+021.6666666667E+01+
*       -5.000000000E+01               0
GRID*              98211               02.0000000000E+02-1.666666667E+01+
*       -5.000000000E+01               0
GRID*              98212               02.1000000000E+021.6666666667E+01+
*       -5.000000000E+01               0
GRID*              98213               02.1000000000E+02-1.666666667E+01+
*       -5.000000000E+01               0
GRID*              98214               02.2000000000E+021.6666666667E+01+
*       -5.000000000E+01               0
GRID*              98215               02.2000000000E+02-1.666666667E+01+
*       -5.000000000E+01               0
GRID*              98216               02.3000000000E+021.6666666667E+01+
*       -5.000000000E+01               0
GRID*              98217               02.3000000000E+02-1.666666667E+01+
*       -5.000000000E+01               0
GRID*              98218               02.4000000000E+021.6666666667E+01+
*       -5.000000000E+01               0
GRID*              98219               02.4000000000E+02-1.666666667E+01+
*       -5.000000000E+01               0
GRID*              98220               02.5000000000E+021.6666666667E+01+
*       -5.000000000E+01               0
GRID*              98221               02.5000000000E+02-1.666666667E+01+
*       -5.000000000E+01               0
GRID*              98222               02.6000000000E+021.6666666667E+01+
*       -5.000000000E+01               0
GRID*              98223               02.6000000000E+02-1.666666667E+01+
*       -5.000000000E+01               0
GRID*              98224               02.7000000000E+021.6666666667E+01+
*       -5.000000000E+01               0
GRID*              98225               02.7000000000E+02-1.666666667E+01+
*       -5.000000000E+01               0
GRID*              98226               02.8000000000E+021.6666666667E+01+
*       -5.000000000E+01               0
GRID*              98227               02.8000000000E+02-1.666666667E+01+
*       -5.000000000E+01               0
GRID*              98228               02.9000000000E+021.6666666667E+01+
*       -5.000000000E+01               0
GRID*              98229               02.9000000000E+02-1.666666667E+01+
*       -5.000000000E+01               0
GRID*              98230               03.0000000000E+021.6666666667E+01+
*       -5.000000000E+01               0
GRID*              98231               03.0000000000E+02-1.666666667E+01+
*       -5.000000000E+01               0
GRID*              98232               03.1000000000E+021.6666666667E+01+
*       -5.000000000E+01               0
GRID*              98233               03.1000000000E+02-1.666666667E+01+
*       -5.000000000E+01               0
GRID*              98234               03.2000000000E+021.6666666667E+01+
*       -5.000000000E+01               0
GRID*              98235               03.2000000000E+02-1.666666667E+01+
*       -5.000000000E+01               0
GRID*              98236               03.3000000000E+021.6666666667E+01+
*       -5.000000000E+01               0
GRID*              98237               03.3000000000E+02-1.666666667E+01+
*       -5.000000000E+01               0
GRID*              98238               03.4000000000E+021.6666666667E+01+
*       -5.000000000E+01               0
GRID*              98239               03.4000000000E+02-1.666666667E+01+
*       -5.000000000E+01               0
GRID*              98240               03.5000000000E+021.6666666667E+01+
*       -5.000000000E+01               0
GRID*              98241               03.5000000000E+02-1.666666667E+01+
*       -5.000000000E+01               0
GRID*              98242               03.6000000000E+021.6666666667E+01+
*       -5.000000000E+01               0
GRID*              98243               03.6000000000E+02-1.666666667E+01+
*       -5.000000000E+01               0
GRID*              98244               03.7000000000E+021.6666666667E+01+
*       -5.000000000E+01               0
GRID*              98245               03.7000000000E+02-1.666666667E+01+
*       -5.000000000E+01               0
GRID*              98246               03.8000000000E+021.6666666667E+01+
*       -5.000000000E+01               0
GRID*              98247               03.8000000000E+02-1.666666667E+01+
*       -5.000000000E+01               0
GRID*              98248               03.9000000000E+021.6666666667E+01+
*       -5.000000000E+01               0
GRID*              98249               03.9000000000E+02-1.666666667E+01+
*       -5.000000000E+01               0
GRID*              98250               04.0000000000E+021.6666666667E+01+
*       -5.000000000E+01               0
GRID*              98251               04.0000000000E+02-1.666666667E+01+
*       -5.000000000E+01               0
GRID*              98252               04.1000000000E+021.6666666667E+01+
*       -5.000000000E+01               0
GRID*              98253               04.1000000000E+02-1.666666667E+01+
*       -5.000000000E+01               0
GRID*              98254               04.2000000000E+021.6666666667E+01+
*       -5.000000000E+01               0
GRID*              98255               04.2000000000E+02-1.666666667E+01+
*       -5.000000000E+01               0
GRID*              98256               04.3000000000E+021.6666666667E+01+
*       -5.000000000E+01               0
GRID*              98257               04.3000000000E+02-1.666666667E+01+
*       -5.000000000E+01               0
GRID*              98258               04.4000000000E+021.6666666667E+01+
*       -5.000000000E+01               0
GRID*              98259               04.4000000000E+02-1.666666667E+01+
*       -5.000000000E+01               0
GRID*              98260               04.5000000000E+021.6666666667E+01+
*       -5.000000000E+01               0
GRID*              98261               04.5000000000E+02-1.666666667E+01+
*       -5.000000000E+01               0
GRID*              98262               04.6000000000E+021.6666666667E+01+
*       -5.000000000E+01               0
GRID*              98263               04.6000000000E+02-1.666666667E+01+
*       -5.000000000E+01               0
GRID*              98264               04.7000000000E+021.6666666667E+01+
*       -5.000000000E+01               0
GRID*              98265               04.7000000000E+02-1.666666667E+01+
*       -5.000000000E+01               0
GRID*              98266               04.8000000000E+021.6666666667E+01+
*       -5.000000000E+01               0
GRID*              98267               04.8000000000E+02-1.666666667E+01+
*       -5.000000000E+01               0
GRID*              98268               04.9000000000E+021.6666666667E+01+
*       -5.000000000E+01               0
GRID*              98269               04.9000000000E+02-1.666666667E+01+
*       -5.000000000E+01               0
GRID*              98270               05.0000000000E+021.6666666667E+01+
*       -5.000000000E+01               0
GRID*              98271               05.0000000000E+02-1.666666667E+01+
*       -5.000000000E+01               0
GRID*              98272               05.1000000000E+021.6666666667E+01+
*       -5.000000000E+01               0
GRID*              98273               05.1000000000E+02-1.666666667E+01+
*       -5.000000000E+01               0
GRID*              98274               05.2000000000E+021.6666666667E+01+
*       -5.000000000E+01               0
GRID*              98275               05.2000000000E+02-1.666666667E+01+
*       -5.000000000E+01               0
GRID*              98276               05.3000000000E+021.6666666667E+01+
*       -5.000000000E+01               0
GRID*              98277               05.3000000000E+02-1.666666667E+01+
*       -5.000000000E+01               0
GRID*              98278               05.4000000000E+021.6666666667E+01+
*       -5.000000000E+01               0
GRID*              98279               05.4000000000E+02-1.666666667E+01+
*       -5.000000000E+01               0
GRID*              98280               05.5000000000E+021.6666666667E+01+
*       -5.000000000E+01               0
GRID*              98281               05.5000000000E+02-1.666666667E+01+
*       -5.000000000E+01               0
GRID*              98282               05.6000000000E+021.6666666667E+01+
*       -5.000000000E+01               0
GRID*              98283               05.6000000000E+02-1.666666667E+01+
*       -5.000000000E+01               0
GRID*              98284               05.7000000000E+021.6666666667E+01+
*       -5.000000000E+01               0
GRID*              98285               05.7000000000E+02-1.666666667E+01+
*       -5.000000000E+01               0
GRID*              98286               05.8000000000E+021.6666666667E+01+
*       -5.000000000E+01               0
GRID*              98287               05.8000000000E+02-1.666666667E+01+
*       -5.000000000E+01               0
GRID*              98288               05.9000000000E+021.6666666667E+01+
*       -5.000000000E+01               0
GRID*              98289               05.9000000000E+02-1.666666667E+01+
*       -5.000000000E+01               0
GRID*              98290               06.0000000000E+021.6666666667E+01+
*       -5.000000000E+01               0
GRID*              98291               06.0000000000E+02-1.666666667E+01+
*       -5.000000000E+01               0
GRID*              98292               06.1000000000E+021.6666666667E+01+
*       -5.000000000E+01               0
GRID*              98293               06.1000000000E+02-1.666666667E+01+
*       -5.000000000E+01               0
GRID*              98294               06.2000000000E+021.6666666667E+01+
*       -5.000000000E+01               0
GRID*              98295               06.2000000000E+02-1.666666667E+01+
*       -5.000000000E+01               0
GRID*              98296               06.3000000000E+021.6666666667E+01+
*       -5.000000000E+01               0
GRID*              98297               06.3000000000E+02-1.666666667E+01+
*       -5.000000000E+01               0
GRID*              98298               06.4000000000E+021.6666666667E+01+
*       -5.000000000E+01               0
GRID*              98299               06.4000000000E+02-1.666666667E+01+
*       -5.000000000E+01               0
GRID*              98300               06.5000000000E+021.6666666667E+01+
*       -5.000000000E+01               0
GRID*              98301               06.5000000000E+02-1.666666667E+01+
*       -5.000000000E+01               0
GRID*              98302               06.6000000000E+021.6666666667E+01+
*       -5.000000000E+01               0
GRID*              98303               06.6000000000E+02-1.666666667E+01+
*       -5.000000000E+01               0
GRID*              98304               06.7000000000E+021.6666666667E+01+
*       -5.000000000E+01               0
GRID*              98305               06.7000000000E+02-1.666666667E+01+
*       -5.000000000E+01               0
GRID*              98306               06.8000000000E+021.6666666667E+01+
*       -5.000000000E+01               0
GRID*              98307               06.8000000000E+02-1.666666667E+01+
*       -5.000000000E+01               0
GRID*              98308               06.9000000000E+021.6666666667E+01+
*       -5.000000000E+01               0
GRID*              98309               06.9000000000E+02-1.666666667E+01+
*       -5.000000000E+01               0
GRID*              98310               07.0000000000E+021.6666666667E+01+
*       -5.000000000E+01               0
GRID*              98311               07.0000000000E+02-1.666666667E+01+
*       -5.000000000E+01               0
GRID*              98312               07.1000000000E+021.6666666667E+01+
*       -5.000000000E+01               0
GRID*              98313               07.1000000000E+02-1.666666667E+01+
*       -5.000000000E+01               0
GRID*              98314               07.2000000000E+021.6666666667E+01+
*       -5.000000000E+01               0
GRID*              98315               07.2000000000E+02-1.666666667E+01+
*       -5.000000000E+01               0
GRID*              98316               07.3000000000E+021.6666666667E+01+
*       -5.000000000E+01               0
GRID*              98317               07.3000000000E+02-1.666666667E+01+
*       -5.000000000E+01               0
GRID*              98318               07.4000000000E+021.6666666667E+01+
*       -5.000000000E+01               0
GRID*              98319               07.4000000000E+02-1.666666667E+01+
*       -5.000000000E+01               0
GRID*              98320               07.5000000000E+021.6666666667E+01+
*       -5.000000000E+01               0
GRID*              98321               07.5000000000E+02-1.666666667E+01+
*       -5.000000000E+01               0
GRID*              98322               07.6000000000E+021.6666666667E+01+
*       -5.000000000E+01               0
GRID*              98323               07.6000000000E+02-1.666666667E+01+
*       -5.000000000E+01               0
GRID*              98324               07.7000000000E+021.6666666667E+01+
*       -5.000000000E+01               0
GRID*              98325               07.7000000000E+02-1.666666667E+01+
*       -5.000000000E+01               0
GRID*              98326               07.8000000000E+021.6666666667E+01+
*       -5.000000000E+01               0
GRID*              98327               07.8000000000E+02-1.666666667E+01+
*       -5.000000000E+01               0
GRID*              98328               07.9000000000E+021.6666666667E+01+
*       -5.000000000E+01               0
GRID*              98329               07.9000000000E+02-1.666666667E+01+
*       -5.000000000E+01               0
GRID*              98330               08.0000000000E+021.6666666667E+01+
*       -5.000000000E+01               0
GRID*              98331               08.0000000000E+02-1.666666667E+01+
*       -5.000000000E+01               0
GRID*              98332               08.1000000000E+021.6666666667E+01+
*       -5.000000000E+01               0
GRID*              98333               08.1000000000E+02-1.666666667E+01+
*       -5.000000000E+01               0
GRID*              98334               08.2000000000E+021.6666666667E+01+
*       -5.000000000E+01               0
GRID*              98335               08.2000000000E+02-1.666666667E+01+
*       -5.000000000E+01               0
GRID*              98336               08.3000000000E+021.6666666667E+01+
*       -5.000000000E+01               0
GRID*              98337               08.3000000000E+02-1.666666667E+01+
*       -5.000000000E+01               0
GRID*              98338               08.4000000000E+021.6666666667E+01+
*       -5.000000000E+01               0
GRID*              98339               08.4000000000E+02-1.666666667E+01+
*       -5.000000000E+01               0
GRID*              98340               08.5000000000E+021.6666666667E+01+
*       -5.000000000E+01               0
GRID*              98341               08.5000000000E+02-1.666666667E+01+
*       -5.000000000E+01               0
GRID*              98342               08.6000000000E+021.6666666667E+01+
*       -5.000000000E+01               0
GRID*              98343               08.6000000000E+02-1.666666667E+01+
*       -5.000000000E+01               0
GRID*              98344               08.7000000000E+021.6666666667E+01+
*       -5.000000000E+01               0
GRID*              98345               08.7000000000E+02-1.666666667E+01+
*       -5.000000000E+01               0
GRID*              98346               08.8000000000E+021.6666666667E+01+
*       -5.000000000E+01               0
GRID*              98347               08.8000000000E+02-1.666666667E+01+
*       -5.000000000E+01               0
GRID*              98348               08.9000000000E+021.6666666667E+01+
*       -5.000000000E+01               0
GRID*              98349               08.9000000000E+02-1.666666667E+01+
*       -5.000000000E+01               0
GRID*              98350               09.0000000000E+021.6666666667E+01+
*       -5.000000000E+01               0
GRID*              98351               09.0000000000E+02-1.666666667E+01+
*       -5.000000000E+01               0
GRID*              98352               09.1000000000E+021.6666666667E+01+
*       -5.000000000E+01               0
GRID*              98353               09.1000000000E+02-1.666666667E+01+
*       -5.000000000E+01               0
GRID*              98354               09.2000000000E+021.6666666667E+01+
*       -5.000000000E+01               0
GRID*              98355               09.2000000000E+02-1.666666667E+01+
*       -5.000000000E+01               0
GRID*              98356               09.3000000000E+021.6666666667E+01+
*       -5.000000000E+01               0
GRID*              98357               09.3000000000E+02-1.666666667E+01+
*       -5.000000000E+01               0
GRID*              98358               09.4000000000E+021.6666666667E+01+
*       -5.000000000E+01               0
GRID*              98359               09.4000000000E+02-1.666666667E+01+
*       -5.000000000E+01               0
GRID*              98360               09.5000000000E+021.6666666667E+01+
*       -5.000000000E+01               0
GRID*              98361               09.5000000000E+02-1.666666667E+01+
*       -5.000000000E+01               0
GRID*              98362               09.6000000000E+021.6666666667E+01+
*       -5.000000000E+01               0
GRID*              98363               09.6000000000E+02-1.666666667E+01+
*       -5.000000000E+01               0
GRID*              98364               09.7000000000E+021.6666666667E+01+
*       -5.000000000E+01               0
GRID*              98365               09.7000000000E+02-1.666666667E+01+
*       -5.000000000E+01               0
GRID*              98366               09.8000000000E+021.6666666667E+01+
*       -5.000000000E+01               0
GRID*              98367               09.8000000000E+02-1.666666667E+01+
*       -5.000000000E+01               0
GRID*              98368               09.9000000000E+021.6666666667E+01+
*       -5.000000000E+01               0
GRID*              98369               09.9000000000E+02-1.666666667E+01+
*       -5.000000000E+01               0
GRID*              98370               01.0000000000E+031.6666666667E+01+
*       -5.000000000E+01               0
GRID*              98371               01.0000000000E+03-1.666666667E+01+
*       -5.000000000E+01               0
GRID*              98372               01.0100000000E+031.6666666667E+01+
*       -5.000000000E+01               0
GRID*              98373               01.0100000000E+03-1.666666667E+01+
*       -5.000000000E+01               0
GRID*              98374               01.0200000000E+031.6666666667E+01+
*       -5.000000000E+01               0
GRID*              98375               01.0200000000E+03-1.666666667E+01+
*       -5.000000000E+01               0
GRID*              98376               01.0300000000E+031.6666666667E+01+
*       -5.000000000E+01               0
GRID*              98377               01.0300000000E+03-1.666666667E+01+
*       -5.000000000E+01               0
GRID*              98378               01.0400000000E+031.6666666667E+01+
*       -5.000000000E+01               0
GRID*              98379               01.0400000000E+03-1.666666667E+01+
*       -5.000000000E+01               0
GRID*              98380               01.0500000000E+031.6666666667E+01+
*       -5.000000000E+01               0
GRID*              98381               01.0500000000E+03-1.666666667E+01+
*       -5.000000000E+01               0
GRID*              98382               01.0600000000E+031.6666666667E+01+
*       -5.000000000E+01               0
GRID*              98383               01.0600000000E+03-1.666666667E+01+
*       -5.000000000E+01               0
GRID*              98384               01.0700000000E+031.6666666667E+01+
*       -5.000000000E+01               0
GRID*              98385               01.0700000000E+03-1.666666667E+01+
*       -5.000000000E+01               0
GRID*              98386               01.0800000000E+031.6666666667E+01+
*       -5.000000000E+01               0
GRID*              98387               01.0800000000E+03-1.666666667E+01+
*       -5.000000000E+01               0
GRID*              98388               01.0900000000E+031.6666666667E+01+
*       -5.000000000E+01               0
GRID*              98389               01.0900000000E+03-1.666666667E+01+
*       -5.000000000E+01               0
GRID*              98390               01.1000000000E+031.6666666667E+01+
*       -5.000000000E+01               0
GRID*              98391               01.1000000000E+03-1.666666667E+01+
*       -5.000000000E+01               0
GRID*              98392               01.1100000000E+031.6666666667E+01+
*       -5.000000000E+01               0
GRID*              98393               01.1100000000E+03-1.666666667E+01+
*       -5.000000000E+01               0
GRID*              98394               01.1200000000E+031.6666666667E+01+
*       -5.000000000E+01               0
GRID*              98395               01.1200000000E+03-1.666666667E+01+
*       -5.000000000E+01               0
GRID*              98396               01.1300000000E+031.6666666667E+01+
*       -5.000000000E+01               0
GRID*              98397               01.1300000000E+03-1.666666667E+01+
*       -5.000000000E+01               0
GRID*              98398               01.1400000000E+031.6666666667E+01+
*       -5.000000000E+01               0
GRID*              98399               01.1400000000E+03-1.666666667E+01+
*       -5.000000000E+01               0
GRID*              98400               01.1500000000E+031.6666666667E+01+
*       -5.000000000E+01               0
GRID*              98401               01.1500000000E+03-1.666666667E+01+
*       -5.000000000E+01               0
GRID*              98402               01.1600000000E+031.6666666667E+01+
*       -5.000000000E+01               0
GRID*              98403               01.1600000000E+03-1.666666667E+01+
*       -5.000000000E+01               0
GRID*              98404               01.1700000000E+031.6666666667E+01+
*       -5.000000000E+01               0
GRID*              98405               01.1700000000E+03-1.666666667E+01+
*       -5.000000000E+01               0
GRID*              98406               01.1800000000E+031.6666666667E+01+
*       -5.000000000E+01               0
GRID*              98407               01.1800000000E+03-1.666666667E+01+
*       -5.000000000E+01               0
GRID*              98408               01.1900000000E+031.6666666667E+01+
*       -5.000000000E+01               0
GRID*              98409               01.1900000000E+03-1.666666667E+01+
*       -5.000000000E+01               0
GRID*              98410               01.2000000000E+031.6666666667E+01+
*       -5.000000000E+01               0
GRID*              98411               01.2000000000E+03-1.666666667E+01+
*       -5.000000000E+01               0
GRID*              98412               01.2100000000E+031.6666666667E+01+
*       -5.000000000E+01               0
GRID*              98413               01.2100000000E+03-1.666666667E+01+
*       -5.000000000E+01               0
GRID*              98414               01.2200000000E+031.6666666667E+01+
*       -5.000000000E+01               0
GRID*              98415               01.2200000000E+03-1.666666667E+01+
*       -5.000000000E+01               0
GRID*              98416               01.2300000000E+031.6666666667E+01+
*       -5.000000000E+01               0
GRID*              98417               01.2300000000E+03-1.666666667E+01+
*       -5.000000000E+01               0
GRID*              98418               01.2400000000E+031.6666666667E+01+
*       -5.000000000E+01               0
GRID*              98419               01.2400000000E+03-1.666666667E+01+
*       -5.000000000E+01               0
GRID*              98420               01.2500000000E+031.6666666667E+01+
*       -5.000000000E+01               0
GRID*              98421               01.2500000000E+03-1.666666667E+01+
*       -5.000000000E+01               0
GRID*              98422               01.2600000000E+031.6666666667E+01+
*       -5.000000000E+01               0
GRID*              98423               01.2600000000E+03-1.666666667E+01+
*       -5.000000000E+01               0
GRID*              98424               01.2700000000E+031.6666666667E+01+
*       -5.000000000E+01               0
GRID*              98425               01.2700000000E+03-1.666666667E+01+
*       -5.000000000E+01               0
GRID*              98426               01.2800000000E+031.6666666667E+01+
*       -5.000000000E+01               0
GRID*              98427               01.2800000000E+03-1.666666667E+01+
*       -5.000000000E+01               0
GRID*              98428               01.2900000000E+031.6666666667E+01+
*       -5.000000000E+01               0
GRID*              98429               01.2900000000E+03-1.666666667E+01+
*       -5.000000000E+01               0
GRID*              98430               01.3000000000E+031.6666666667E+01+
*       -5.000000000E+01               0
GRID*              98431               01.3000000000E+03-1.666666667E+01+
*       -5.000000000E+01               0
GRID*              98432               01.3100000000E+031.6666666667E+01+
*       -5.000000000E+01               0
GRID*              98433               01.3100000000E+03-1.666666667E+01+
*       -5.000000000E+01               0
GRID*              98434               01.3200000000E+031.6666666667E+01+
*       -5.000000000E+01               0
GRID*              98435               01.3200000000E+03-1.666666667E+01+
*       -5.000000000E+01               0
GRID*              98436               01.3300000000E+031.6666666667E+01+
*       -5.000000000E+01               0
GRID*              98437               01.3300000000E+03-1.666666667E+01+
*       -5.000000000E+01               0
GRID*              98438               01.3400000000E+031.6666666667E+01+
*       -5.000000000E+01               0
GRID*              98439               01.3400000000E+03-1.666666667E+01+
*       -5.000000000E+01               0
GRID*              98440               01.3500000000E+031.6666666667E+01+
*       -5.000000000E+01               0
GRID*              98441               01.3500000000E+03-1.666666667E+01+
*       -5.000000000E+01               0
GRID*              98442               01.3600000000E+031.6666666667E+01+
*       -5.000000000E+01               0
GRID*              98443               01.3600000000E+03-1.666666667E+01+
*       -5.000000000E+01               0
GRID*              98444               01.3700000000E+031.6666666667E+01+
*       -5.000000000E+01               0
GRID*              98445               01.3700000000E+03-1.666666667E+01+
*       -5.000000000E+01               0
GRID*              98446               01.3800000000E+031.6666666667E+01+
*       -5.000000000E+01               0
GRID*              98447               01.3800000000E+03-1.666666667E+01+
*       -5.000000000E+01               0
GRID*              98448               01.3900000000E+031.6666666667E+01+
*       -5.000000000E+01               0
GRID*              98449               01.3900000000E+03-1.666666667E+01+
*       -5.000000000E+01               0
GRID*              98450               01.4000000000E+031.6666666667E+01+
*       -5.000000000E+01               0
GRID*              98451               01.4000000000E+03-1.666666667E+01+
*       -5.000000000E+01               0
GRID*              98452               01.4100000000E+031.6666666667E+01+
*       -5.000000000E+01               0
GRID*              98453               01.4100000000E+03-1.666666667E+01+
*       -5.000000000E+01               0
GRID*              98454               01.4200000000E+031.6666666667E+01+
*       -5.000000000E+01               0
GRID*              98455               01.4200000000E+03-1.666666667E+01+
*       -5.000000000E+01               0
GRID*              98456               01.4300000000E+031.6666666667E+01+
*       -5.000000000E+01               0
GRID*              98457               01.4300000000E+03-1.666666667E+01+
*       -5.000000000E+01               0
GRID*              98458               01.4400000000E+031.6666666667E+01+
*       -5.000000000E+01               0
GRID*              98459               01.4400000000E+03-1.666666667E+01+
*       -5.000000000E+01               0
GRID*              98460               01.4500000000E+031.6666666667E+01+
*       -5.000000000E+01               0
GRID*              98461               01.4500000000E+03-1.666666667E+01+
*       -5.000000000E+01               0
GRID*              98462               01.4600000000E+031.6666666667E+01+
*       -5.000000000E+01               0
GRID*              98463               01.4600000000E+03-1.666666667E+01+
*       -5.000000000E+01               0
GRID*              98464               01.4700000000E+031.6666666667E+01+
*       -5.000000000E+01               0
GRID*              98465               01.4700000000E+03-1.666666667E+01+
*       -5.000000000E+01               0
GRID*              98466               01.4800000000E+031.6666666667E+01+
*       -5.000000000E+01               0
GRID*              98467               01.4800000000E+03-1.666666667E+01+
*       -5.000000000E+01               0
GRID*              98468               01.4900000000E+031.6666666667E+01+
*       -5.000000000E+01               0
GRID*              98469               01.4900000000E+03-1.666666667E+01+
*       -5.000000000E+01               0
GRID*              98470               01.5000000000E+031.6666666667E+01+
*       -5.000000000E+01               0
GRID*              98471               01.5000000000E+03-1.666666667E+01+
*       -5.000000000E+01               0
GRID*              98472               01.5100000000E+031.6666666667E+01+
*       -5.000000000E+01               0
GRID*              98473               01.5100000000E+03-1.666666667E+01+
*       -5.000000000E+01               0
GRID*              98474               01.5200000000E+031.6666666667E+01+
*       -5.000000000E+01               0
GRID*              98475               01.5200000000E+03-1.666666667E+01+
*       -5.000000000E+01               0
GRID*              98476               01.5300000000E+031.6666666667E+01+
*       -5.000000000E+01               0
GRID*              98477               01.5300000000E+03-1.666666667E+01+
*       -5.000000000E+01               0
GRID*              98478               01.5400000000E+031.6666666667E+01+
*       -5.000000000E+01               0
GRID*              98479               01.5400000000E+03-1.666666667E+01+
*       -5.000000000E+01               0
GRID*              98480               01.5500000000E+031.6666666667E+01+
*       -5.000000000E+01               0
GRID*              98481               01.5500000000E+03-1.666666667E+01+
*       -5.000000000E+01               0
GRID*              98482               01.5600000000E+031.6666666667E+01+
*       -5.000000000E+01               0
GRID*              98483               01.5600000000E+03-1.666666667E+01+
*       -5.000000000E+01               0
GRID*              98484               01.5700000000E+031.6666666667E+01+
*       -5.000000000E+01               0
GRID*              98485               01.5700000000E+03-1.666666667E+01+
*       -5.000000000E+01               0
GRID*              98486               01.5800000000E+031.6666666667E+01+
*       -5.000000000E+01               0
GRID*              98487               01.5800000000E+03-1.666666667E+01+
*       -5.000000000E+01               0
GRID*              98488               01.5900000000E+031.6666666667E+01+
*       -5.000000000E+01               0
GRID*              98489               01.5900000000E+03-1.666666667E+01+
*       -5.000000000E+01               0
GRID*              98490               01.6000000000E+031.6666666667E+01+
*       -5.000000000E+01               0
GRID*              98491               01.6000000000E+03-1.666666667E+01+
*       -5.000000000E+01               0
GRID*              98492               01.6100000000E+031.6666666667E+01+
*       -5.000000000E+01               0
GRID*              98493               01.6100000000E+03-1.666666667E+01+
*       -5.000000000E+01               0
GRID*              98494               01.6200000000E+031.6666666667E+01+
*       -5.000000000E+01               0
GRID*              98495               01.6200000000E+03-1.666666667E+01+
*       -5.000000000E+01               0
GRID*              98496               01.6300000000E+031.6666666667E+01+
*       -5.000000000E+01               0
GRID*              98497               01.6300000000E+03-1.666666667E+01+
*       -5.000000000E+01               0
GRID*              98498               01.6400000000E+031.6666666667E+01+
*       -5.000000000E+01               0
GRID*              98499               01.6400000000E+03-1.666666667E+01+
*       -5.000000000E+01               0
GRID*              98500               01.6500000000E+031.6666666667E+01+
*       -5.000000000E+01               0
GRID*              98501               01.6500000000E+03-1.666666667E+01+
*       -5.000000000E+01               0
GRID*              98502               01.6600000000E+031.6666666667E+01+
*       -5.000000000E+01               0
GRID*              98503               01.6600000000E+03-1.666666667E+01+
*       -5.000000000E+01               0
GRID*              98504               01.6700000000E+031.6666666667E+01+
*       -5.000000000E+01               0
GRID*              98505               01.6700000000E+03-1.666666667E+01+
*       -5.000000000E+01               0
GRID*              98506               01.6800000000E+031.6666666667E+01+
*       -5.000000000E+01               0
GRID*              98507               01.6800000000E+03-1.666666667E+01+
*       -5.000000000E+01               0
GRID*              98508               01.6900000000E+031.6666666667E+01+
*       -5.000000000E+01               0
GRID*              98509               01.6900000000E+03-1.666666667E+01+
*       -5.000000000E+01               0
GRID*              98510               01.7000000000E+031.6666666667E+01+
*       -5.000000000E+01               0
GRID*              98511               01.7000000000E+03-1.666666667E+01+
*       -5.000000000E+01               0
GRID*              98512               01.7100000000E+031.6666666667E+01+
*       -5.000000000E+01               0
GRID*              98513               01.7100000000E+03-1.666666667E+01+
*       -5.000000000E+01               0
GRID*              98514               01.7200000000E+031.6666666667E+01+
*       -5.000000000E+01               0
GRID*              98515               01.7200000000E+03-1.666666667E+01+
*       -5.000000000E+01               0
GRID*              98516               01.7300000000E+031.6666666667E+01+
*       -5.000000000E+01               0
GRID*              98517               01.7300000000E+03-1.666666667E+01+
*       -5.000000000E+01               0
GRID*              98518               01.7400000000E+031.6666666667E+01+
*       -5.000000000E+01               0
GRID*              98519               01.7400000000E+03-1.666666667E+01+
*       -5.000000000E+01               0
GRID*              98520               01.7500000000E+031.6666666667E+01+
*       -5.000000000E+01               0
GRID*              98521               01.7500000000E+03-1.666666667E+01+
*       -5.000000000E+01               0
GRID*              98522               01.7600000000E+031.6666666667E+01+
*       -5.000000000E+01               0
GRID*              98523               01.7600000000E+03-1.666666667E+01+
*       -5.000000000E+01               0
GRID*              98524               01.7700000000E+031.6666666667E+01+
*       -5.000000000E+01               0
GRID*              98525               01.7700000000E+03-1.666666667E+01+
*       -5.000000000E+01               0
GRID*              98526               01.7800000000E+031.6666666667E+01+
*       -5.000000000E+01               0
GRID*              98527               01.7800000000E+03-1.666666667E+01+
*       -5.000000000E+01               0
GRID*              98528               01.7900000000E+031.6666666667E+01+
*       -5.000000000E+01               0
GRID*              98529               01.7900000000E+03-1.666666667E+01+
*       -5.000000000E+01               0
GRID*              98530               01.8000000000E+031.6666666667E+01+
*       -5.000000000E+01               0
GRID*              98531               01.8000000000E+03-1.666666667E+01+
*       -5.000000000E+01               0
GRID*              98532               01.8100000000E+031.6666666667E+01+
*       -5.000000000E+01               0
GRID*              98533               01.8100000000E+03-1.666666667E+01+
*       -5.000000000E+01               0
GRID*              98534               01.8200000000E+031.6666666667E+01+
*       -5.000000000E+01               0
GRID*              98535               01.8200000000E+03-1.666666667E+01+
*       -5.000000000E+01               0
GRID*              98536               01.8300000000E+031.6666666667E+01+
*       -5.000000000E+01               0
GRID*              98537               01.8300000000E+03-1.666666667E+01+
*       -5.000000000E+01               0
GRID*              98538               01.8400000000E+031.6666666667E+01+
*       -5.000000000E+01               0
GRID*              98539               01.8400000000E+03-1.666666667E+01+
*       -5.000000000E+01               0
GRID*              98540               01.8500000000E+031.6666666667E+01+
*       -5.000000000E+01               0
GRID*              98541               01.8500000000E+03-1.666666667E+01+
*       -5.000000000E+01               0
GRID*              98542               01.8600000000E+031.6666666667E+01+
*       -5.000000000E+01               0
GRID*              98543               01.8600000000E+03-1.666666667E+01+
*       -5.000000000E+01               0
GRID*              98544               01.8700000000E+031.6666666667E+01+
*       -5.000000000E+01               0
GRID*              98545               01.8700000000E+03-1.666666667E+01+
*       -5.000000000E+01               0
GRID*              98546               01.8800000000E+031.6666666667E+01+
*       -5.000000000E+01               0
GRID*              98547               01.8800000000E+03-1.666666667E+01+
*       -5.000000000E+01               0
GRID*              98548               01.8900000000E+031.6666666667E+01+
*       -5.000000000E+01               0
GRID*              98549               01.8900000000E+03-1.666666667E+01+
*       -5.000000000E+01               0
GRID*              98550               01.9000000000E+031.6666666667E+01+
*       -5.000000000E+01               0
GRID*              98551               01.9000000000E+03-1.666666667E+01+
*       -5.000000000E+01               0
GRID*              98552               01.9100000000E+031.6666666667E+01+
*       -5.000000000E+01               0
GRID*              98553               01.9100000000E+03-1.666666667E+01+
*       -5.000000000E+01               0
GRID*              98554               01.9200000000E+031.6666666667E+01+
*       -5.000000000E+01               0
GRID*              98555               01.9200000000E+03-1.666666667E+01+
*       -5.000000000E+01               0
GRID*              98556               01.9300000000E+031.6666666667E+01+
*       -5.000000000E+01               0
GRID*              98557               01.9300000000E+03-1.666666667E+01+
*       -5.000000000E+01               0
GRID*              98558               01.9400000000E+031.6666666667E+01+
*       -5.000000000E+01               0
GRID*              98559               01.9400000000E+03-1.666666667E+01+
*       -5.000000000E+01               0
GRID*              98560               01.9500000000E+031.6666666667E+01+
*       -5.000000000E+01               0
GRID*              98561               01.9500000000E+03-1.666666667E+01+
*       -5.000000000E+01               0
GRID*              98562               01.9600000000E+031.6666666667E+01+
*       -5.000000000E+01               0
GRID*              98563               01.9600000000E+03-1.666666667E+01+
*       -5.000000000E+01               0
GRID*              98564               01.9700000000E+031.6666666667E+01+
*       -5.000000000E+01               0
GRID*              98565               01.9700000000E+03-1.666666667E+01+
*       -5.000000000E+01               0
GRID*              98566               01.9800000000E+031.6666666667E+01+
*       -5.000000000E+01               0
GRID*              98567               01.9800000000E+03-1.666666667E+01+
*       -5.000000000E+01               0
GRID*              98568               01.9900000000E+031.6666666667E+01+
*       -5.000000000E+01               0
GRID*              98569               01.9900000000E+03-1.666666667E+01+
*       -5.000000000E+01               0
GRID*              98570               01.9900000000E+031.6666666667E+01+
*       5.0000000000E+01               0
GRID*              98571               01.9900000000E+03-1.666666667E+01+
*       5.0000000000E+01               0
GRID*              98572               01.9800000000E+031.6666666667E+01+
*       5.0000000000E+01               0
GRID*              98573               01.9800000000E+03-1.666666667E+01+
*       5.0000000000E+01               0
GRID*              98574               01.9700000000E+031.6666666667E+01+
*       5.0000000000E+01               0
GRID*              98575               01.9700000000E+03-1.666666667E+01+
*       5.0000000000E+01               0
GRID*              98576               01.9600000000E+031.6666666667E+01+
*       5.0000000000E+01               0
GRID*              98577               01.9600000000E+03-1.666666667E+01+
*       5.0000000000E+01               0
GRID*              98578               01.9500000000E+031.6666666667E+01+
*       5.0000000000E+01               0
GRID*              98579               01.9500000000E+03-1.666666667E+01+
*       5.0000000000E+01               0
GRID*              98580               01.9400000000E+031.6666666667E+01+
*       5.0000000000E+01               0
GRID*              98581               01.9400000000E+03-1.666666667E+01+
*       5.0000000000E+01               0
GRID*              98582               01.9300000000E+031.6666666667E+01+
*       5.0000000000E+01               0
GRID*              98583               01.9300000000E+03-1.666666667E+01+
*       5.0000000000E+01               0
GRID*              98584               01.9200000000E+031.6666666667E+01+
*       5.0000000000E+01               0
GRID*              98585               01.9200000000E+03-1.666666667E+01+
*       5.0000000000E+01               0
GRID*              98586               01.9100000000E+031.6666666667E+01+
*       5.0000000000E+01               0
GRID*              98587               01.9100000000E+03-1.666666667E+01+
*       5.0000000000E+01               0
GRID*              98588               01.9000000000E+031.6666666667E+01+
*       5.0000000000E+01               0
GRID*              98589               01.9000000000E+03-1.666666667E+01+
*       5.0000000000E+01               0
GRID*              98590               01.8900000000E+031.6666666667E+01+
*       5.0000000000E+01               0
GRID*              98591               01.8900000000E+03-1.666666667E+01+
*       5.0000000000E+01               0
GRID*              98592               01.8800000000E+031.6666666667E+01+
*       5.0000000000E+01               0
GRID*              98593               01.8800000000E+03-1.666666667E+01+
*       5.0000000000E+01               0
GRID*              98594               01.8700000000E+031.6666666667E+01+
*       5.0000000000E+01               0
GRID*              98595               01.8700000000E+03-1.666666667E+01+
*       5.0000000000E+01               0
GRID*              98596               01.8600000000E+031.6666666667E+01+
*       5.0000000000E+01               0
GRID*              98597               01.8600000000E+03-1.666666667E+01+
*       5.0000000000E+01               0
GRID*              98598               01.8500000000E+031.6666666667E+01+
*       5.0000000000E+01               0
GRID*              98599               01.8500000000E+03-1.666666667E+01+
*       5.0000000000E+01               0
GRID*              98600               01.8400000000E+031.6666666667E+01+
*       5.0000000000E+01               0
GRID*              98601               01.8400000000E+03-1.666666667E+01+
*       5.0000000000E+01               0
GRID*              98602               01.8300000000E+031.6666666667E+01+
*       5.0000000000E+01               0
GRID*              98603               01.8300000000E+03-1.666666667E+01+
*       5.0000000000E+01               0
GRID*              98604               01.8200000000E+031.6666666667E+01+
*       5.0000000000E+01               0
GRID*              98605               01.8200000000E+03-1.666666667E+01+
*       5.0000000000E+01               0
GRID*              98606               01.8100000000E+031.6666666667E+01+
*       5.0000000000E+01               0
GRID*              98607               01.8100000000E+03-1.666666667E+01+
*       5.0000000000E+01               0
GRID*              98608               01.8000000000E+031.6666666667E+01+
*       5.0000000000E+01               0
GRID*              98609               01.8000000000E+03-1.666666667E+01+
*       5.0000000000E+01               0
GRID*              98610               01.7900000000E+031.6666666667E+01+
*       5.0000000000E+01               0
GRID*              98611               01.7900000000E+03-1.666666667E+01+
*       5.0000000000E+01               0
GRID*              98612               01.7800000000E+031.6666666667E+01+
*       5.0000000000E+01               0
GRID*              98613               01.7800000000E+03-1.666666667E+01+
*       5.0000000000E+01               0
GRID*              98614               01.7700000000E+031.6666666667E+01+
*       5.0000000000E+01               0
GRID*              98615               01.7700000000E+03-1.666666667E+01+
*       5.0000000000E+01               0
GRID*              98616               01.7600000000E+031.6666666667E+01+
*       5.0000000000E+01               0
GRID*              98617               01.7600000000E+03-1.666666667E+01+
*       5.0000000000E+01               0
GRID*              98618               01.7500000000E+031.6666666667E+01+
*       5.0000000000E+01               0
GRID*              98619               01.7500000000E+03-1.666666667E+01+
*       5.0000000000E+01               0
GRID*              98620               01.7400000000E+031.6666666667E+01+
*       5.0000000000E+01               0
GRID*              98621               01.7400000000E+03-1.666666667E+01+
*       5.0000000000E+01               0
GRID*              98622               01.7300000000E+031.6666666667E+01+
*       5.0000000000E+01               0
GRID*              98623               01.7300000000E+03-1.666666667E+01+
*       5.0000000000E+01               0
GRID*              98624               01.7200000000E+031.6666666667E+01+
*       5.0000000000E+01               0
GRID*              98625               01.7200000000E+03-1.666666667E+01+
*       5.0000000000E+01               0
GRID*              98626               01.7100000000E+031.6666666667E+01+
*       5.0000000000E+01               0
GRID*              98627               01.7100000000E+03-1.666666667E+01+
*       5.0000000000E+01               0
GRID*              98628               01.7000000000E+031.6666666667E+01+
*       5.0000000000E+01               0
GRID*              98629               01.7000000000E+03-1.666666667E+01+
*       5.0000000000E+01               0
GRID*              98630               01.6900000000E+031.6666666667E+01+
*       5.0000000000E+01               0
GRID*              98631               01.6900000000E+03-1.666666667E+01+
*       5.0000000000E+01               0
GRID*              98632               01.6800000000E+031.6666666667E+01+
*       5.0000000000E+01               0
GRID*              98633               01.6800000000E+03-1.666666667E+01+
*       5.0000000000E+01               0
GRID*              98634               01.6700000000E+031.6666666667E+01+
*       5.0000000000E+01               0
GRID*              98635               01.6700000000E+03-1.666666667E+01+
*       5.0000000000E+01               0
GRID*              98636               01.6600000000E+031.6666666667E+01+
*       5.0000000000E+01               0
GRID*              98637               01.6600000000E+03-1.666666667E+01+
*       5.0000000000E+01               0
GRID*              98638               01.6500000000E+031.6666666667E+01+
*       5.0000000000E+01               0
GRID*              98639               01.6500000000E+03-1.666666667E+01+
*       5.0000000000E+01               0
GRID*              98640               01.6400000000E+031.6666666667E+01+
*       5.0000000000E+01               0
GRID*              98641               01.6400000000E+03-1.666666667E+01+
*       5.0000000000E+01               0
GRID*              98642               01.6300000000E+031.6666666667E+01+
*       5.0000000000E+01               0
GRID*              98643               01.6300000000E+03-1.666666667E+01+
*       5.0000000000E+01               0
GRID*              98644               01.6200000000E+031.6666666667E+01+
*       5.0000000000E+01               0
GRID*              98645               01.6200000000E+03-1.666666667E+01+
*       5.0000000000E+01               0
GRID*              98646               01.6100000000E+031.6666666667E+01+
*       5.0000000000E+01               0
GRID*              98647               01.6100000000E+03-1.666666667E+01+
*       5.0000000000E+01               0
GRID*              98648               01.6000000000E+031.6666666667E+01+
*       5.0000000000E+01               0
GRID*              98649               01.6000000000E+03-1.666666667E+01+
*       5.0000000000E+01               0
GRID*              98650               01.5900000000E+031.6666666667E+01+
*       5.0000000000E+01               0
GRID*              98651               01.5900000000E+03-1.666666667E+01+
*       5.0000000000E+01               0
GRID*              98652               01.5800000000E+031.6666666667E+01+
*       5.0000000000E+01               0
GRID*              98653               01.5800000000E+03-1.666666667E+01+
*       5.0000000000E+01               0
GRID*              98654               01.5700000000E+031.6666666667E+01+
*       5.0000000000E+01               0
GRID*              98655               01.5700000000E+03-1.666666667E+01+
*       5.0000000000E+01               0
GRID*              98656               01.5600000000E+031.6666666667E+01+
*       5.0000000000E+01               0
GRID*              98657               01.5600000000E+03-1.666666667E+01+
*       5.0000000000E+01               0
GRID*              98658               01.5500000000E+031.6666666667E+01+
*       5.0000000000E+01               0
GRID*              98659               01.5500000000E+03-1.666666667E+01+
*       5.0000000000E+01               0
GRID*              98660               01.5400000000E+031.6666666667E+01+
*       5.0000000000E+01               0
GRID*              98661               01.5400000000E+03-1.666666667E+01+
*       5.0000000000E+01               0
GRID*              98662               01.5300000000E+031.6666666667E+01+
*       5.0000000000E+01               0
GRID*              98663               01.5300000000E+03-1.666666667E+01+
*       5.0000000000E+01               0
GRID*              98664               01.5200000000E+031.6666666667E+01+
*       5.0000000000E+01               0
GRID*              98665               01.5200000000E+03-1.666666667E+01+
*       5.0000000000E+01               0
GRID*              98666               01.5100000000E+031.6666666667E+01+
*       5.0000000000E+01               0
GRID*              98667               01.5100000000E+03-1.666666667E+01+
*       5.0000000000E+01               0
GRID*              98668               01.5000000000E+031.6666666667E+01+
*       5.0000000000E+01               0
GRID*              98669               01.5000000000E+03-1.666666667E+01+
*       5.0000000000E+01               0
GRID*              98670               01.4900000000E+031.6666666667E+01+
*       5.0000000000E+01               0
GRID*              98671               01.4900000000E+03-1.666666667E+01+
*       5.0000000000E+01               0
GRID*              98672               01.4800000000E+031.6666666667E+01+
*       5.0000000000E+01               0
GRID*              98673               01.4800000000E+03-1.666666667E+01+
*       5.0000000000E+01               0
GRID*              98674               01.4700000000E+031.6666666667E+01+
*       5.0000000000E+01               0
GRID*              98675               01.4700000000E+03-1.666666667E+01+
*       5.0000000000E+01               0
GRID*              98676               01.4600000000E+031.6666666667E+01+
*       5.0000000000E+01               0
GRID*              98677               01.4600000000E+03-1.666666667E+01+
*       5.0000000000E+01               0
GRID*              98678               01.4500000000E+031.6666666667E+01+
*       5.0000000000E+01               0
GRID*              98679               01.4500000000E+03-1.666666667E+01+
*       5.0000000000E+01               0
GRID*              98680               01.4400000000E+031.6666666667E+01+
*       5.0000000000E+01               0
GRID*              98681               01.4400000000E+03-1.666666667E+01+
*       5.0000000000E+01               0
GRID*              98682               01.4300000000E+031.6666666667E+01+
*       5.0000000000E+01               0
GRID*              98683               01.4300000000E+03-1.666666667E+01+
*       5.0000000000E+01               0
GRID*              98684               01.4200000000E+031.6666666667E+01+
*       5.0000000000E+01               0
GRID*              98685               01.4200000000E+03-1.666666667E+01+
*       5.0000000000E+01               0
GRID*              98686               01.4100000000E+031.6666666667E+01+
*       5.0000000000E+01               0
GRID*              98687               01.4100000000E+03-1.666666667E+01+
*       5.0000000000E+01               0
GRID*              98688               01.4000000000E+031.6666666667E+01+
*       5.0000000000E+01               0
GRID*              98689               01.4000000000E+03-1.666666667E+01+
*       5.0000000000E+01               0
GRID*              98690               01.3900000000E+031.6666666667E+01+
*       5.0000000000E+01               0
GRID*              98691               01.3900000000E+03-1.666666667E+01+
*       5.0000000000E+01               0
GRID*              98692               01.3800000000E+031.6666666667E+01+
*       5.0000000000E+01               0
GRID*              98693               01.3800000000E+03-1.666666667E+01+
*       5.0000000000E+01               0
GRID*              98694               01.3700000000E+031.6666666667E+01+
*       5.0000000000E+01               0
GRID*              98695               01.3700000000E+03-1.666666667E+01+
*       5.0000000000E+01               0
GRID*              98696               01.3600000000E+031.6666666667E+01+
*       5.0000000000E+01               0
GRID*              98697               01.3600000000E+03-1.666666667E+01+
*       5.0000000000E+01               0
GRID*              98698               01.3500000000E+031.6666666667E+01+
*       5.0000000000E+01               0
GRID*              98699               01.3500000000E+03-1.666666667E+01+
*       5.0000000000E+01               0
GRID*              98700               01.3400000000E+031.6666666667E+01+
*       5.0000000000E+01               0
GRID*              98701               01.3400000000E+03-1.666666667E+01+
*       5.0000000000E+01               0
GRID*              98702               01.3300000000E+031.6666666667E+01+
*       5.0000000000E+01               0
GRID*              98703               01.3300000000E+03-1.666666667E+01+
*       5.0000000000E+01               0
GRID*              98704               01.3200000000E+031.6666666667E+01+
*       5.0000000000E+01               0
GRID*              98705               01.3200000000E+03-1.666666667E+01+
*       5.0000000000E+01               0
GRID*              98706               01.3100000000E+031.6666666667E+01+
*       5.0000000000E+01               0
GRID*              98707               01.3100000000E+03-1.666666667E+01+
*       5.0000000000E+01               0
GRID*              98708               01.3000000000E+031.6666666667E+01+
*       5.0000000000E+01               0
GRID*              98709               01.3000000000E+03-1.666666667E+01+
*       5.0000000000E+01               0
GRID*              98710               01.2900000000E+031.6666666667E+01+
*       5.0000000000E+01               0
GRID*              98711               01.2900000000E+03-1.666666667E+01+
*       5.0000000000E+01               0
GRID*              98712               01.2800000000E+031.6666666667E+01+
*       5.0000000000E+01               0
GRID*              98713               01.2800000000E+03-1.666666667E+01+
*       5.0000000000E+01               0
GRID*              98714               01.2700000000E+031.6666666667E+01+
*       5.0000000000E+01               0
GRID*              98715               01.2700000000E+03-1.666666667E+01+
*       5.0000000000E+01               0
GRID*              98716               01.2600000000E+031.6666666667E+01+
*       5.0000000000E+01               0
GRID*              98717               01.2600000000E+03-1.666666667E+01+
*       5.0000000000E+01               0
GRID*              98718               01.2500000000E+031.6666666667E+01+
*       5.0000000000E+01               0
GRID*              98719               01.2500000000E+03-1.666666667E+01+
*       5.0000000000E+01               0
GRID*              98720               01.2400000000E+031.6666666667E+01+
*       5.0000000000E+01               0
GRID*              98721               01.2400000000E+03-1.666666667E+01+
*       5.0000000000E+01               0
GRID*              98722               01.2300000000E+031.6666666667E+01+
*       5.0000000000E+01               0
GRID*              98723               01.2300000000E+03-1.666666667E+01+
*       5.0000000000E+01               0
GRID*              98724               01.2200000000E+031.6666666667E+01+
*       5.0000000000E+01               0
GRID*              98725               01.2200000000E+03-1.666666667E+01+
*       5.0000000000E+01               0
GRID*              98726               01.2100000000E+031.6666666667E+01+
*       5.0000000000E+01               0
GRID*              98727               01.2100000000E+03-1.666666667E+01+
*       5.0000000000E+01               0
GRID*              98728               01.2000000000E+031.6666666667E+01+
*       5.0000000000E+01               0
GRID*              98729               01.2000000000E+03-1.666666667E+01+
*       5.0000000000E+01               0
GRID*              98730               01.1900000000E+031.6666666667E+01+
*       5.0000000000E+01               0
GRID*              98731               01.1900000000E+03-1.666666667E+01+
*       5.0000000000E+01               0
GRID*              98732               01.1800000000E+031.6666666667E+01+
*       5.0000000000E+01               0
GRID*              98733               01.1800000000E+03-1.666666667E+01+
*       5.0000000000E+01               0
GRID*              98734               01.1700000000E+031.6666666667E+01+
*       5.0000000000E+01               0
GRID*              98735               01.1700000000E+03-1.666666667E+01+
*       5.0000000000E+01               0
GRID*              98736               01.1600000000E+031.6666666667E+01+
*       5.0000000000E+01               0
GRID*              98737               01.1600000000E+03-1.666666667E+01+
*       5.0000000000E+01               0
GRID*              98738               01.1500000000E+031.6666666667E+01+
*       5.0000000000E+01               0
GRID*              98739               01.1500000000E+03-1.666666667E+01+
*       5.0000000000E+01               0
GRID*              98740               01.1400000000E+031.6666666667E+01+
*       5.0000000000E+01               0
GRID*              98741               01.1400000000E+03-1.666666667E+01+
*       5.0000000000E+01               0
GRID*              98742               01.1300000000E+031.6666666667E+01+
*       5.0000000000E+01               0
GRID*              98743               01.1300000000E+03-1.666666667E+01+
*       5.0000000000E+01               0
GRID*              98744               01.1200000000E+031.6666666667E+01+
*       5.0000000000E+01               0
GRID*              98745               01.1200000000E+03-1.666666667E+01+
*       5.0000000000E+01               0
GRID*              98746               01.1100000000E+031.6666666667E+01+
*       5.0000000000E+01               0
GRID*              98747               01.1100000000E+03-1.666666667E+01+
*       5.0000000000E+01               0
GRID*              98748               01.1000000000E+031.6666666667E+01+
*       5.0000000000E+01               0
GRID*              98749               01.1000000000E+03-1.666666667E+01+
*       5.0000000000E+01               0
GRID*              98750               01.0900000000E+031.6666666667E+01+
*       5.0000000000E+01               0
GRID*              98751               01.0900000000E+03-1.666666667E+01+
*       5.0000000000E+01               0
GRID*              98752               01.0800000000E+031.6666666667E+01+
*       5.0000000000E+01               0
GRID*              98753               01.0800000000E+03-1.666666667E+01+
*       5.0000000000E+01               0
GRID*              98754               01.0700000000E+031.6666666667E+01+
*       5.0000000000E+01               0
GRID*              98755               01.0700000000E+03-1.666666667E+01+
*       5.0000000000E+01               0
GRID*              98756               01.0600000000E+031.6666666667E+01+
*       5.0000000000E+01               0
GRID*              98757               01.0600000000E+03-1.666666667E+01+
*       5.0000000000E+01               0
GRID*              98758               01.0500000000E+031.6666666667E+01+
*       5.0000000000E+01               0
GRID*              98759               01.0500000000E+03-1.666666667E+01+
*       5.0000000000E+01               0
GRID*              98760               01.0400000000E+031.6666666667E+01+
*       5.0000000000E+01               0
GRID*              98761               01.0400000000E+03-1.666666667E+01+
*       5.0000000000E+01               0
GRID*              98762               01.0300000000E+031.6666666667E+01+
*       5.0000000000E+01               0
GRID*              98763               01.0300000000E+03-1.666666667E+01+
*       5.0000000000E+01               0
GRID*              98764               01.0200000000E+031.6666666667E+01+
*       5.0000000000E+01               0
GRID*              98765               01.0200000000E+03-1.666666667E+01+
*       5.0000000000E+01               0
GRID*              98766               01.0100000000E+031.6666666667E+01+
*       5.0000000000E+01               0
GRID*              98767               01.0100000000E+03-1.666666667E+01+
*       5.0000000000E+01               0
GRID*              98768               01.0000000000E+031.6666666667E+01+
*       5.0000000000E+01               0
GRID*              98769               01.0000000000E+03-1.666666667E+01+
*       5.0000000000E+01               0
GRID*              98770               09.9000000000E+021.6666666667E+01+
*       5.0000000000E+01               0
GRID*              98771               09.9000000000E+02-1.666666667E+01+
*       5.0000000000E+01               0
GRID*              98772               09.8000000000E+021.6666666667E+01+
*       5.0000000000E+01               0
GRID*              98773               09.8000000000E+02-1.666666667E+01+
*       5.0000000000E+01               0
GRID*              98774               09.7000000000E+021.6666666667E+01+
*       5.0000000000E+01               0
GRID*              98775               09.7000000000E+02-1.666666667E+01+
*       5.0000000000E+01               0
GRID*              98776               09.6000000000E+021.6666666667E+01+
*       5.0000000000E+01               0
GRID*              98777               09.6000000000E+02-1.666666667E+01+
*       5.0000000000E+01               0
GRID*              98778               09.5000000000E+021.6666666667E+01+
*       5.0000000000E+01               0
GRID*              98779               09.5000000000E+02-1.666666667E+01+
*       5.0000000000E+01               0
GRID*              98780               09.4000000000E+021.6666666667E+01+
*       5.0000000000E+01               0
GRID*              98781               09.4000000000E+02-1.666666667E+01+
*       5.0000000000E+01               0
GRID*              98782               09.3000000000E+021.6666666667E+01+
*       5.0000000000E+01               0
GRID*              98783               09.3000000000E+02-1.666666667E+01+
*       5.0000000000E+01               0
GRID*              98784               09.2000000000E+021.6666666667E+01+
*       5.0000000000E+01               0
GRID*              98785               09.2000000000E+02-1.666666667E+01+
*       5.0000000000E+01               0
GRID*              98786               09.1000000000E+021.6666666667E+01+
*       5.0000000000E+01               0
GRID*              98787               09.1000000000E+02-1.666666667E+01+
*       5.0000000000E+01               0
GRID*              98788               09.0000000000E+021.6666666667E+01+
*       5.0000000000E+01               0
GRID*              98789               09.0000000000E+02-1.666666667E+01+
*       5.0000000000E+01               0
GRID*              98790               08.9000000000E+021.6666666667E+01+
*       5.0000000000E+01               0
GRID*              98791               08.9000000000E+02-1.666666667E+01+
*       5.0000000000E+01               0
GRID*              98792               08.8000000000E+021.6666666667E+01+
*       5.0000000000E+01               0
GRID*              98793               08.8000000000E+02-1.666666667E+01+
*       5.0000000000E+01               0
GRID*              98794               08.7000000000E+021.6666666667E+01+
*       5.0000000000E+01               0
GRID*              98795               08.7000000000E+02-1.666666667E+01+
*       5.0000000000E+01               0
GRID*              98796               08.6000000000E+021.6666666667E+01+
*       5.0000000000E+01               0
GRID*              98797               08.6000000000E+02-1.666666667E+01+
*       5.0000000000E+01               0
GRID*              98798               08.5000000000E+021.6666666667E+01+
*       5.0000000000E+01               0
GRID*              98799               08.5000000000E+02-1.666666667E+01+
*       5.0000000000E+01               0
GRID*              98800               08.4000000000E+021.6666666667E+01+
*       5.0000000000E+01               0
GRID*              98801               08.4000000000E+02-1.666666667E+01+
*       5.0000000000E+01               0
GRID*              98802               08.3000000000E+021.6666666667E+01+
*       5.0000000000E+01               0
GRID*              98803               08.3000000000E+02-1.666666667E+01+
*       5.0000000000E+01               0
GRID*              98804               08.2000000000E+021.6666666667E+01+
*       5.0000000000E+01               0
GRID*              98805               08.2000000000E+02-1.666666667E+01+
*       5.0000000000E+01               0
GRID*              98806               08.1000000000E+021.6666666667E+01+
*       5.0000000000E+01               0
GRID*              98807               08.1000000000E+02-1.666666667E+01+
*       5.0000000000E+01               0
GRID*              98808               08.0000000000E+021.6666666667E+01+
*       5.0000000000E+01               0
GRID*              98809               08.0000000000E+02-1.666666667E+01+
*       5.0000000000E+01               0
GRID*              98810               07.9000000000E+021.6666666667E+01+
*       5.0000000000E+01               0
GRID*              98811               07.9000000000E+02-1.666666667E+01+
*       5.0000000000E+01               0
GRID*              98812               07.8000000000E+021.6666666667E+01+
*       5.0000000000E+01               0
GRID*              98813               07.8000000000E+02-1.666666667E+01+
*       5.0000000000E+01               0
GRID*              98814               07.7000000000E+021.6666666667E+01+
*       5.0000000000E+01               0
GRID*              98815               07.7000000000E+02-1.666666667E+01+
*       5.0000000000E+01               0
GRID*              98816               07.6000000000E+021.6666666667E+01+
*       5.0000000000E+01               0
GRID*              98817               07.6000000000E+02-1.666666667E+01+
*       5.0000000000E+01               0
GRID*              98818               07.5000000000E+021.6666666667E+01+
*       5.0000000000E+01               0
GRID*              98819               07.5000000000E+02-1.666666667E+01+
*       5.0000000000E+01               0
GRID*              98820               07.4000000000E+021.6666666667E+01+
*       5.0000000000E+01               0
GRID*              98821               07.4000000000E+02-1.666666667E+01+
*       5.0000000000E+01               0
GRID*              98822               07.3000000000E+021.6666666667E+01+
*       5.0000000000E+01               0
GRID*              98823               07.3000000000E+02-1.666666667E+01+
*       5.0000000000E+01               0
GRID*              98824               07.2000000000E+021.6666666667E+01+
*       5.0000000000E+01               0
GRID*              98825               07.2000000000E+02-1.666666667E+01+
*       5.0000000000E+01               0
GRID*              98826               07.1000000000E+021.6666666667E+01+
*       5.0000000000E+01               0
GRID*              98827               07.1000000000E+02-1.666666667E+01+
*       5.0000000000E+01               0
GRID*              98828               07.0000000000E+021.6666666667E+01+
*       5.0000000000E+01               0
GRID*              98829               07.0000000000E+02-1.666666667E+01+
*       5.0000000000E+01               0
GRID*              98830               06.9000000000E+021.6666666667E+01+
*       5.0000000000E+01               0
GRID*              98831               06.9000000000E+02-1.666666667E+01+
*       5.0000000000E+01               0
GRID*              98832               06.8000000000E+021.6666666667E+01+
*       5.0000000000E+01               0
GRID*              98833               06.8000000000E+02-1.666666667E+01+
*       5.0000000000E+01               0
GRID*              98834               06.7000000000E+021.6666666667E+01+
*       5.0000000000E+01               0
GRID*              98835               06.7000000000E+02-1.666666667E+01+
*       5.0000000000E+01               0
GRID*              98836               06.6000000000E+021.6666666667E+01+
*       5.0000000000E+01               0
GRID*              98837               06.6000000000E+02-1.666666667E+01+
*       5.0000000000E+01               0
GRID*              98838               06.5000000000E+021.6666666667E+01+
*       5.0000000000E+01               0
GRID*              98839               06.5000000000E+02-1.666666667E+01+
*       5.0000000000E+01               0
GRID*              98840               06.4000000000E+021.6666666667E+01+
*       5.0000000000E+01               0
GRID*              98841               06.4000000000E+02-1.666666667E+01+
*       5.0000000000E+01               0
GRID*              98842               06.3000000000E+021.6666666667E+01+
*       5.0000000000E+01               0
GRID*              98843               06.3000000000E+02-1.666666667E+01+
*       5.0000000000E+01               0
GRID*              98844               06.2000000000E+021.6666666667E+01+
*       5.0000000000E+01               0
GRID*              98845               06.2000000000E+02-1.666666667E+01+
*       5.0000000000E+01               0
GRID*              98846               06.1000000000E+021.6666666667E+01+
*       5.0000000000E+01               0
GRID*              98847               06.1000000000E+02-1.666666667E+01+
*       5.0000000000E+01               0
GRID*              98848               06.0000000000E+021.6666666667E+01+
*       5.0000000000E+01               0
GRID*              98849               06.0000000000E+02-1.666666667E+01+
*       5.0000000000E+01               0
GRID*              98850               05.9000000000E+021.6666666667E+01+
*       5.0000000000E+01               0
GRID*              98851               05.9000000000E+02-1.666666667E+01+
*       5.0000000000E+01               0
GRID*              98852               05.8000000000E+021.6666666667E+01+
*       5.0000000000E+01               0
GRID*              98853               05.8000000000E+02-1.666666667E+01+
*       5.0000000000E+01               0
GRID*              98854               05.7000000000E+021.6666666667E+01+
*       5.0000000000E+01               0
GRID*              98855               05.7000000000E+02-1.666666667E+01+
*       5.0000000000E+01               0
GRID*              98856               05.6000000000E+021.6666666667E+01+
*       5.0000000000E+01               0
GRID*              98857               05.6000000000E+02-1.666666667E+01+
*       5.0000000000E+01               0
GRID*              98858               05.5000000000E+021.6666666667E+01+
*       5.0000000000E+01               0
GRID*              98859               05.5000000000E+02-1.666666667E+01+
*       5.0000000000E+01               0
GRID*              98860               05.4000000000E+021.6666666667E+01+
*       5.0000000000E+01               0
GRID*              98861               05.4000000000E+02-1.666666667E+01+
*       5.0000000000E+01               0
GRID*              98862               05.3000000000E+021.6666666667E+01+
*       5.0000000000E+01               0
GRID*              98863               05.3000000000E+02-1.666666667E+01+
*       5.0000000000E+01               0
GRID*              98864               05.2000000000E+021.6666666667E+01+
*       5.0000000000E+01               0
GRID*              98865               05.2000000000E+02-1.666666667E+01+
*       5.0000000000E+01               0
GRID*              98866               05.1000000000E+021.6666666667E+01+
*       5.0000000000E+01               0
GRID*              98867               05.1000000000E+02-1.666666667E+01+
*       5.0000000000E+01               0
GRID*              98868               05.0000000000E+021.6666666667E+01+
*       5.0000000000E+01               0
GRID*              98869               05.0000000000E+02-1.666666667E+01+
*       5.0000000000E+01               0
GRID*              98870               04.9000000000E+021.6666666667E+01+
*       5.0000000000E+01               0
GRID*              98871               04.9000000000E+02-1.666666667E+01+
*       5.0000000000E+01               0
GRID*              98872               04.8000000000E+021.6666666667E+01+
*       5.0000000000E+01               0
GRID*              98873               04.8000000000E+02-1.666666667E+01+
*       5.0000000000E+01               0
GRID*              98874               04.7000000000E+021.6666666667E+01+
*       5.0000000000E+01               0
GRID*              98875               04.7000000000E+02-1.666666667E+01+
*       5.0000000000E+01               0
GRID*              98876               04.6000000000E+021.6666666667E+01+
*       5.0000000000E+01               0
GRID*              98877               04.6000000000E+02-1.666666667E+01+
*       5.0000000000E+01               0
GRID*              98878               04.5000000000E+021.6666666667E+01+
*       5.0000000000E+01               0
GRID*              98879               04.5000000000E+02-1.666666667E+01+
*       5.0000000000E+01               0
GRID*              98880               04.4000000000E+021.6666666667E+01+
*       5.0000000000E+01               0
GRID*              98881               04.4000000000E+02-1.666666667E+01+
*       5.0000000000E+01               0
GRID*              98882               04.3000000000E+021.6666666667E+01+
*       5.0000000000E+01               0
GRID*              98883               04.3000000000E+02-1.666666667E+01+
*       5.0000000000E+01               0
GRID*              98884               04.2000000000E+021.6666666667E+01+
*       5.0000000000E+01               0
GRID*              98885               04.2000000000E+02-1.666666667E+01+
*       5.0000000000E+01               0
GRID*              98886               04.1000000000E+021.6666666667E+01+
*       5.0000000000E+01               0
GRID*              98887               04.1000000000E+02-1.666666667E+01+
*       5.0000000000E+01               0
GRID*              98888               04.0000000000E+021.6666666667E+01+
*       5.0000000000E+01               0
GRID*              98889               04.0000000000E+02-1.666666667E+01+
*       5.0000000000E+01               0
GRID*              98890               03.9000000000E+021.6666666667E+01+
*       5.0000000000E+01               0
GRID*              98891               03.9000000000E+02-1.666666667E+01+
*       5.0000000000E+01               0
GRID*              98892               03.8000000000E+021.6666666667E+01+
*       5.0000000000E+01               0
GRID*              98893               03.8000000000E+02-1.666666667E+01+
*       5.0000000000E+01               0
GRID*              98894               03.7000000000E+021.6666666667E+01+
*       5.0000000000E+01               0
GRID*              98895               03.7000000000E+02-1.666666667E+01+
*       5.0000000000E+01               0
GRID*              98896               03.6000000000E+021.6666666667E+01+
*       5.0000000000E+01               0
GRID*              98897               03.6000000000E+02-1.666666667E+01+
*       5.0000000000E+01               0
GRID*              98898               03.5000000000E+021.6666666667E+01+
*       5.0000000000E+01               0
GRID*              98899               03.5000000000E+02-1.666666667E+01+
*       5.0000000000E+01               0
GRID*              98900               03.4000000000E+021.6666666667E+01+
*       5.0000000000E+01               0
GRID*              98901               03.4000000000E+02-1.666666667E+01+
*       5.0000000000E+01               0
GRID*              98902               03.3000000000E+021.6666666667E+01+
*       5.0000000000E+01               0
GRID*              98903               03.3000000000E+02-1.666666667E+01+
*       5.0000000000E+01               0
GRID*              98904               03.2000000000E+021.6666666667E+01+
*       5.0000000000E+01               0
GRID*              98905               03.2000000000E+02-1.666666667E+01+
*       5.0000000000E+01               0
GRID*              98906               03.1000000000E+021.6666666667E+01+
*       5.0000000000E+01               0
GRID*              98907               03.1000000000E+02-1.666666667E+01+
*       5.0000000000E+01               0
GRID*              98908               03.0000000000E+021.6666666667E+01+
*       5.0000000000E+01               0
GRID*              98909               03.0000000000E+02-1.666666667E+01+
*       5.0000000000E+01               0
GRID*              98910               02.9000000000E+021.6666666667E+01+
*       5.0000000000E+01               0
GRID*              98911               02.9000000000E+02-1.666666667E+01+
*       5.0000000000E+01               0
GRID*              98912               02.8000000000E+021.6666666667E+01+
*       5.0000000000E+01               0
GRID*              98913               02.8000000000E+02-1.666666667E+01+
*       5.0000000000E+01               0
GRID*              98914               02.7000000000E+021.6666666667E+01+
*       5.0000000000E+01               0
GRID*              98915               02.7000000000E+02-1.666666667E+01+
*       5.0000000000E+01               0
GRID*              98916               02.6000000000E+021.6666666667E+01+
*       5.0000000000E+01               0
GRID*              98917               02.6000000000E+02-1.666666667E+01+
*       5.0000000000E+01               0
GRID*              98918               02.5000000000E+021.6666666667E+01+
*       5.0000000000E+01               0
GRID*              98919               02.5000000000E+02-1.666666667E+01+
*       5.0000000000E+01               0
GRID*              98920               02.4000000000E+021.6666666667E+01+
*       5.0000000000E+01               0
GRID*              98921               02.4000000000E+02-1.666666667E+01+
*       5.0000000000E+01               0
GRID*              98922               02.3000000000E+021.6666666667E+01+
*       5.0000000000E+01               0
GRID*              98923               02.3000000000E+02-1.666666667E+01+
*       5.0000000000E+01               0
GRID*              98924               02.2000000000E+021.6666666667E+01+
*       5.0000000000E+01               0
GRID*              98925               02.2000000000E+02-1.666666667E+01+
*       5.0000000000E+01               0
GRID*              98926               02.1000000000E+021.6666666667E+01+
*       5.0000000000E+01               0
GRID*              98927               02.1000000000E+02-1.666666667E+01+
*       5.0000000000E+01               0
GRID*              98928               02.0000000000E+021.6666666667E+01+
*       5.0000000000E+01               0
GRID*              98929               02.0000000000E+02-1.666666667E+01+
*       5.0000000000E+01               0
GRID*              98930               01.9000000000E+021.6666666667E+01+
*       5.0000000000E+01               0
GRID*              98931               01.9000000000E+02-1.666666667E+01+
*       5.0000000000E+01               0
GRID*              98932               01.8000000000E+021.6666666667E+01+
*       5.0000000000E+01               0
GRID*              98933               01.8000000000E+02-1.666666667E+01+
*       5.0000000000E+01               0
GRID*              98934               01.7000000000E+021.6666666667E+01+
*       5.0000000000E+01               0
GRID*              98935               01.7000000000E+02-1.666666667E+01+
*       5.0000000000E+01               0
GRID*              98936               01.6000000000E+021.6666666667E+01+
*       5.0000000000E+01               0
GRID*              98937               01.6000000000E+02-1.666666667E+01+
*       5.0000000000E+01               0
GRID*              98938               01.5000000000E+021.6666666667E+01+
*       5.0000000000E+01               0
GRID*              98939               01.5000000000E+02-1.666666667E+01+
*       5.0000000000E+01               0
GRID*              98940               01.4000000000E+021.6666666667E+01+
*       5.0000000000E+01               0
GRID*              98941               01.4000000000E+02-1.666666667E+01+
*       5.0000000000E+01               0
GRID*              98942               01.3000000000E+021.6666666667E+01+
*       5.0000000000E+01               0
GRID*              98943               01.3000000000E+02-1.666666667E+01+
*       5.0000000000E+01               0
GRID*              98944               01.2000000000E+021.6666666667E+01+
*       5.0000000000E+01               0
GRID*              98945               01.2000000000E+02-1.666666667E+01+
*       5.0000000000E+01               0
GRID*              98946               01.1000000000E+021.6666666667E+01+
*       5.0000000000E+01               0
GRID*              98947               01.1000000000E+02-1.666666667E+01+
*       5.0000000000E+01               0
GRID*              98948               01.0000000000E+021.6666666667E+01+
*       5.0000000000E+01               0
GRID*              98949               01.0000000000E+02-1.666666667E+01+
*       5.0000000000E+01               0
GRID*              98950               09.0000000000E+011.6666666667E+01+
*       5.0000000000E+01               0
GRID*              98951               09.0000000000E+01-1.666666667E+01+
*       5.0000000000E+01               0
GRID*              98952               08.0000000000E+011.6666666667E+01+
*       5.0000000000E+01               0
GRID*              98953               08.0000000000E+01-1.666666667E+01+
*       5.0000000000E+01               0
GRID*              98954               07.0000000000E+011.6666666667E+01+
*       5.0000000000E+01               0
GRID*              98955               07.0000000000E+01-1.666666667E+01+
*       5.0000000000E+01               0
GRID*              98956               06.0000000000E+011.6666666667E+01+
*       5.0000000000E+01               0
GRID*              98957               06.0000000000E+01-1.666666667E+01+
*       5.0000000000E+01               0
GRID*              98958               05.0000000000E+011.6666666667E+01+
*       5.0000000000E+01               0
GRID*              98959               05.0000000000E+01-1.666666667E+01+
*       5.0000000000E+01               0
GRID*              98960               04.0000000000E+011.6666666667E+01+
*       5.0000000000E+01               0
GRID*              98961               04.0000000000E+01-1.666666667E+01+
*       5.0000000000E+01               0
GRID*              98962               03.0000000000E+011.6666666667E+01+
*       5.0000000000E+01               0
GRID*              98963               03.0000000000E+01-1.666666667E+01+
*       5.0000000000E+01               0
GRID*              98964               02.0000000000E+011.6666666667E+01+
*       5.0000000000E+01               0
GRID*              98965               02.0000000000E+01-1.666666667E+01+
*       5.0000000000E+01               0
GRID*              98966               01.0000000000E+011.6666666667E+01+
*       5.0000000000E+01               0
GRID*              98967               01.0000000000E+01-1.666666667E+01+
*       5.0000000000E+01               0
GRID*              98968               01.0000000000E+015.0000000000E+01+
*       1.6666666667E+01               0
GRID*              98969               01.0000000000E+015.0000000000E+01+
*       -1.666666667E+01               0
GRID*              98970               02.0000000000E+015.0000000000E+01+
*       1.6666666667E+01               0
GRID*              98971               02.0000000000E+015.0000000000E+01+
*       -1.666666667E+01               0
GRID*              98972               03.0000000000E+015.0000000000E+01+
*       1.6666666667E+01               0
GRID*              98973               03.0000000000E+015.0000000000E+01+
*       -1.666666667E+01               0
GRID*              98974               04.0000000000E+015.0000000000E+01+
*       1.6666666667E+01               0
GRID*              98975               04.0000000000E+015.0000000000E+01+
*       -1.666666667E+01               0
GRID*              98976               05.0000000000E+015.0000000000E+01+
*       1.6666666667E+01               0
GRID*              98977               05.0000000000E+015.0000000000E+01+
*       -1.666666667E+01               0
GRID*              98978               06.0000000000E+015.0000000000E+01+
*       1.6666666667E+01               0
GRID*              98979               06.0000000000E+015.0000000000E+01+
*       -1.666666667E+01               0
GRID*              98980               07.0000000000E+015.0000000000E+01+
*       1.6666666667E+01               0
GRID*              98981               07.0000000000E+015.0000000000E+01+
*       -1.666666667E+01               0
GRID*              98982               08.0000000000E+015.0000000000E+01+
*       1.6666666667E+01               0
GRID*              98983               08.0000000000E+015.0000000000E+01+
*       -1.666666667E+01               0
GRID*              98984               09.0000000000E+015.0000000000E+01+
*       1.6666666667E+01               0
GRID*              98985               09.0000000000E+015.0000000000E+01+
*       -1.666666667E+01               0
GRID*              98986               01.0000000000E+025.0000000000E+01+
*       1.6666666667E+01               0
GRID*              98987               01.0000000000E+025.0000000000E+01+
*       -1.666666667E+01               0
GRID*              98988               01.1000000000E+025.0000000000E+01+
*       1.6666666667E+01               0
GRID*              98989               01.1000000000E+025.0000000000E+01+
*       -1.666666667E+01               0
GRID*              98990               01.2000000000E+025.0000000000E+01+
*       1.6666666667E+01               0
GRID*              98991               01.2000000000E+025.0000000000E+01+
*       -1.666666667E+01               0
GRID*              98992               01.3000000000E+025.0000000000E+01+
*       1.6666666667E+01               0
GRID*              98993               01.3000000000E+025.0000000000E+01+
*       -1.666666667E+01               0
GRID*              98994               01.4000000000E+025.0000000000E+01+
*       1.6666666667E+01               0
GRID*              98995               01.4000000000E+025.0000000000E+01+
*       -1.666666667E+01               0
GRID*              98996               01.5000000000E+025.0000000000E+01+
*       1.6666666667E+01               0
GRID*              98997               01.5000000000E+025.0000000000E+01+
*       -1.666666667E+01               0
GRID*              98998               01.6000000000E+025.0000000000E+01+
*       1.6666666667E+01               0
GRID*              98999               01.6000000000E+025.0000000000E+01+
*       -1.666666667E+01               0
GRID*              99000               01.7000000000E+025.0000000000E+01+
*       1.6666666667E+01               0
GRID*              99001               01.7000000000E+025.0000000000E+01+
*       -1.666666667E+01               0
GRID*              99002               01.8000000000E+025.0000000000E+01+
*       1.6666666667E+01               0
GRID*              99003               01.8000000000E+025.0000000000E+01+
*       -1.666666667E+01               0
GRID*              99004               01.9000000000E+025.0000000000E+01+
*       1.6666666667E+01               0
GRID*              99005               01.9000000000E+025.0000000000E+01+
*       -1.666666667E+01               0
GRID*              99006               02.0000000000E+025.0000000000E+01+
*       1.6666666667E+01               0
GRID*              99007               02.0000000000E+025.0000000000E+01+
*       -1.666666667E+01               0
GRID*              99008               02.1000000000E+025.0000000000E+01+
*       1.6666666667E+01               0
GRID*              99009               02.1000000000E+025.0000000000E+01+
*       -1.666666667E+01               0
GRID*              99010               02.2000000000E+025.0000000000E+01+
*       1.6666666667E+01               0
GRID*              99011               02.2000000000E+025.0000000000E+01+
*       -1.666666667E+01               0
GRID*              99012               02.3000000000E+025.0000000000E+01+
*       1.6666666667E+01               0
GRID*              99013               02.3000000000E+025.0000000000E+01+
*       -1.666666667E+01               0
GRID*              99014               02.4000000000E+025.0000000000E+01+
*       1.6666666667E+01               0
GRID*              99015               02.4000000000E+025.0000000000E+01+
*       -1.666666667E+01               0
GRID*              99016               02.5000000000E+025.0000000000E+01+
*       1.6666666667E+01               0
GRID*              99017               02.5000000000E+025.0000000000E+01+
*       -1.666666667E+01               0
GRID*              99018               02.6000000000E+025.0000000000E+01+
*       1.6666666667E+01               0
GRID*              99019               02.6000000000E+025.0000000000E+01+
*       -1.666666667E+01               0
GRID*              99020               02.7000000000E+025.0000000000E+01+
*       1.6666666667E+01               0
GRID*              99021               02.7000000000E+025.0000000000E+01+
*       -1.666666667E+01               0
GRID*              99022               02.8000000000E+025.0000000000E+01+
*       1.6666666667E+01               0
GRID*              99023               02.8000000000E+025.0000000000E+01+
*       -1.666666667E+01               0
GRID*              99024               02.9000000000E+025.0000000000E+01+
*       1.6666666667E+01               0
GRID*              99025               02.9000000000E+025.0000000000E+01+
*       -1.666666667E+01               0
GRID*              99026               03.0000000000E+025.0000000000E+01+
*       1.6666666667E+01               0
GRID*              99027               03.0000000000E+025.0000000000E+01+
*       -1.666666667E+01               0
GRID*              99028               03.1000000000E+025.0000000000E+01+
*       1.6666666667E+01               0
GRID*              99029               03.1000000000E+025.0000000000E+01+
*       -1.666666667E+01               0
GRID*              99030               03.2000000000E+025.0000000000E+01+
*       1.6666666667E+01               0
GRID*              99031               03.2000000000E+025.0000000000E+01+
*       -1.666666667E+01               0
GRID*              99032               03.3000000000E+025.0000000000E+01+
*       1.6666666667E+01               0
GRID*              99033               03.3000000000E+025.0000000000E+01+
*       -1.666666667E+01               0
GRID*              99034               03.4000000000E+025.0000000000E+01+
*       1.6666666667E+01               0
GRID*              99035               03.4000000000E+025.0000000000E+01+
*       -1.666666667E+01               0
GRID*              99036               03.5000000000E+025.0000000000E+01+
*       1.6666666667E+01               0
GRID*              99037               03.5000000000E+025.0000000000E+01+
*       -1.666666667E+01               0
GRID*              99038               03.6000000000E+025.0000000000E+01+
*       1.6666666667E+01               0
GRID*              99039               03.6000000000E+025.0000000000E+01+
*       -1.666666667E+01               0
GRID*              99040               03.7000000000E+025.0000000000E+01+
*       1.6666666667E+01               0
GRID*              99041               03.7000000000E+025.0000000000E+01+
*       -1.666666667E+01               0
GRID*              99042               03.8000000000E+025.0000000000E+01+
*       1.6666666667E+01               0
GRID*              99043               03.8000000000E+025.0000000000E+01+
*       -1.666666667E+01               0
GRID*              99044               03.9000000000E+025.0000000000E+01+
*       1.6666666667E+01               0
GRID*              99045               03.9000000000E+025.0000000000E+01+
*       -1.666666667E+01               0
GRID*              99046               04.0000000000E+025.0000000000E+01+
*       1.6666666667E+01               0
GRID*              99047               04.0000000000E+025.0000000000E+01+
*       -1.666666667E+01               0
GRID*              99048               04.1000000000E+025.0000000000E+01+
*       1.6666666667E+01               0
GRID*              99049               04.1000000000E+025.0000000000E+01+
*       -1.666666667E+01               0
GRID*              99050               04.2000000000E+025.0000000000E+01+
*       1.6666666667E+01               0
GRID*              99051               04.2000000000E+025.0000000000E+01+
*       -1.666666667E+01               0
GRID*              99052               04.3000000000E+025.0000000000E+01+
*       1.6666666667E+01               0
GRID*              99053               04.3000000000E+025.0000000000E+01+
*       -1.666666667E+01               0
GRID*              99054               04.4000000000E+025.0000000000E+01+
*       1.6666666667E+01               0
GRID*              99055               04.4000000000E+025.0000000000E+01+
*       -1.666666667E+01               0
GRID*              99056               04.5000000000E+025.0000000000E+01+
*       1.6666666667E+01               0
GRID*              99057               04.5000000000E+025.0000000000E+01+
*       -1.666666667E+01               0
GRID*              99058               04.6000000000E+025.0000000000E+01+
*       1.6666666667E+01               0
GRID*              99059               04.6000000000E+025.0000000000E+01+
*       -1.666666667E+01               0
GRID*              99060               04.7000000000E+025.0000000000E+01+
*       1.6666666667E+01               0
GRID*              99061               04.7000000000E+025.0000000000E+01+
*       -1.666666667E+01               0
GRID*              99062               04.8000000000E+025.0000000000E+01+
*       1.6666666667E+01               0
GRID*              99063               04.8000000000E+025.0000000000E+01+
*       -1.666666667E+01               0
GRID*              99064               04.9000000000E+025.0000000000E+01+
*       1.6666666667E+01               0
GRID*              99065               04.9000000000E+025.0000000000E+01+
*       -1.666666667E+01               0
GRID*              99066               05.0000000000E+025.0000000000E+01+
*       1.6666666667E+01               0
GRID*              99067               05.0000000000E+025.0000000000E+01+
*       -1.666666667E+01               0
GRID*              99068               05.1000000000E+025.0000000000E+01+
*       1.6666666667E+01               0
GRID*              99069               05.1000000000E+025.0000000000E+01+
*       -1.666666667E+01               0
GRID*              99070               05.2000000000E+025.0000000000E+01+
*       1.6666666667E+01               0
GRID*              99071               05.2000000000E+025.0000000000E+01+
*       -1.666666667E+01               0
GRID*              99072               05.3000000000E+025.0000000000E+01+
*       1.6666666667E+01               0
GRID*              99073               05.3000000000E+025.0000000000E+01+
*       -1.666666667E+01               0
GRID*              99074               05.4000000000E+025.0000000000E+01+
*       1.6666666667E+01               0
GRID*              99075               05.4000000000E+025.0000000000E+01+
*       -1.666666667E+01               0
GRID*              99076               05.5000000000E+025.0000000000E+01+
*       1.6666666667E+01               0
GRID*              99077               05.5000000000E+025.0000000000E+01+
*       -1.666666667E+01               0
GRID*              99078               05.6000000000E+025.0000000000E+01+
*       1.6666666667E+01               0
GRID*              99079               05.6000000000E+025.0000000000E+01+
*       -1.666666667E+01               0
GRID*              99080               05.7000000000E+025.0000000000E+01+
*       1.6666666667E+01               0
GRID*              99081               05.7000000000E+025.0000000000E+01+
*       -1.666666667E+01               0
GRID*              99082               05.8000000000E+025.0000000000E+01+
*       1.6666666667E+01               0
GRID*              99083               05.8000000000E+025.0000000000E+01+
*       -1.666666667E+01               0
GRID*              99084               05.9000000000E+025.0000000000E+01+
*       1.6666666667E+01               0
GRID*              99085               05.9000000000E+025.0000000000E+01+
*       -1.666666667E+01               0
GRID*              99086               06.0000000000E+025.0000000000E+01+
*       1.6666666667E+01               0
GRID*              99087               06.0000000000E+025.0000000000E+01+
*       -1.666666667E+01               0
GRID*              99088               06.1000000000E+025.0000000000E+01+
*       1.6666666667E+01               0
GRID*              99089               06.1000000000E+025.0000000000E+01+
*       -1.666666667E+01               0
GRID*              99090               06.2000000000E+025.0000000000E+01+
*       1.6666666667E+01               0
GRID*              99091               06.2000000000E+025.0000000000E+01+
*       -1.666666667E+01               0
GRID*              99092               06.3000000000E+025.0000000000E+01+
*       1.6666666667E+01               0
GRID*              99093               06.3000000000E+025.0000000000E+01+
*       -1.666666667E+01               0
GRID*              99094               06.4000000000E+025.0000000000E+01+
*       1.6666666667E+01               0
GRID*              99095               06.4000000000E+025.0000000000E+01+
*       -1.666666667E+01               0
GRID*              99096               06.5000000000E+025.0000000000E+01+
*       1.6666666667E+01               0
GRID*              99097               06.5000000000E+025.0000000000E+01+
*       -1.666666667E+01               0
GRID*              99098               06.6000000000E+025.0000000000E+01+
*       1.6666666667E+01               0
GRID*              99099               06.6000000000E+025.0000000000E+01+
*       -1.666666667E+01               0
GRID*              99100               06.7000000000E+025.0000000000E+01+
*       1.6666666667E+01               0
GRID*              99101               06.7000000000E+025.0000000000E+01+
*       -1.666666667E+01               0
GRID*              99102               06.8000000000E+025.0000000000E+01+
*       1.6666666667E+01               0
GRID*              99103               06.8000000000E+025.0000000000E+01+
*       -1.666666667E+01               0
GRID*              99104               06.9000000000E+025.0000000000E+01+
*       1.6666666667E+01               0
GRID*              99105               06.9000000000E+025.0000000000E+01+
*       -1.666666667E+01               0
GRID*              99106               07.0000000000E+025.0000000000E+01+
*       1.6666666667E+01               0
GRID*              99107               07.0000000000E+025.0000000000E+01+
*       -1.666666667E+01               0
GRID*              99108               07.1000000000E+025.0000000000E+01+
*       1.6666666667E+01               0
GRID*              99109               07.1000000000E+025.0000000000E+01+
*       -1.666666667E+01               0
GRID*              99110               07.2000000000E+025.0000000000E+01+
*       1.6666666667E+01               0
GRID*              99111               07.2000000000E+025.0000000000E+01+
*       -1.666666667E+01               0
GRID*              99112               07.3000000000E+025.0000000000E+01+
*       1.6666666667E+01               0
GRID*              99113               07.3000000000E+025.0000000000E+01+
*       -1.666666667E+01               0
GRID*              99114               07.4000000000E+025.0000000000E+01+
*       1.6666666667E+01               0
GRID*              99115               07.4000000000E+025.0000000000E+01+
*       -1.666666667E+01               0
GRID*              99116               07.5000000000E+025.0000000000E+01+
*       1.6666666667E+01               0
GRID*              99117               07.5000000000E+025.0000000000E+01+
*       -1.666666667E+01               0
GRID*              99118               07.6000000000E+025.0000000000E+01+
*       1.6666666667E+01               0
GRID*              99119               07.6000000000E+025.0000000000E+01+
*       -1.666666667E+01               0
GRID*              99120               07.7000000000E+025.0000000000E+01+
*       1.6666666667E+01               0
GRID*              99121               07.7000000000E+025.0000000000E+01+
*       -1.666666667E+01               0
GRID*              99122               07.8000000000E+025.0000000000E+01+
*       1.6666666667E+01               0
GRID*              99123               07.8000000000E+025.0000000000E+01+
*       -1.666666667E+01               0
GRID*              99124               07.9000000000E+025.0000000000E+01+
*       1.6666666667E+01               0
GRID*              99125               07.9000000000E+025.0000000000E+01+
*       -1.666666667E+01               0
GRID*              99126               08.0000000000E+025.0000000000E+01+
*       1.6666666667E+01               0
GRID*              99127               08.0000000000E+025.0000000000E+01+
*       -1.666666667E+01               0
GRID*              99128               08.1000000000E+025.0000000000E+01+
*       1.6666666667E+01               0
GRID*              99129               08.1000000000E+025.0000000000E+01+
*       -1.666666667E+01               0
GRID*              99130               08.2000000000E+025.0000000000E+01+
*       1.6666666667E+01               0
GRID*              99131               08.2000000000E+025.0000000000E+01+
*       -1.666666667E+01               0
GRID*              99132               08.3000000000E+025.0000000000E+01+
*       1.6666666667E+01               0
GRID*              99133               08.3000000000E+025.0000000000E+01+
*       -1.666666667E+01               0
GRID*              99134               08.4000000000E+025.0000000000E+01+
*       1.6666666667E+01               0
GRID*              99135               08.4000000000E+025.0000000000E+01+
*       -1.666666667E+01               0
GRID*              99136               08.5000000000E+025.0000000000E+01+
*       1.6666666667E+01               0
GRID*              99137               08.5000000000E+025.0000000000E+01+
*       -1.666666667E+01               0
GRID*              99138               08.6000000000E+025.0000000000E+01+
*       1.6666666667E+01               0
GRID*              99139               08.6000000000E+025.0000000000E+01+
*       -1.666666667E+01               0
GRID*              99140               08.7000000000E+025.0000000000E+01+
*       1.6666666667E+01               0
GRID*              99141               08.7000000000E+025.0000000000E+01+
*       -1.666666667E+01               0
GRID*              99142               08.8000000000E+025.0000000000E+01+
*       1.6666666667E+01               0
GRID*              99143               08.8000000000E+025.0000000000E+01+
*       -1.666666667E+01               0
GRID*              99144               08.9000000000E+025.0000000000E+01+
*       1.6666666667E+01               0
GRID*              99145               08.9000000000E+025.0000000000E+01+
*       -1.666666667E+01               0
GRID*              99146               09.0000000000E+025.0000000000E+01+
*       1.6666666667E+01               0
GRID*              99147               09.0000000000E+025.0000000000E+01+
*       -1.666666667E+01               0
GRID*              99148               09.1000000000E+025.0000000000E+01+
*       1.6666666667E+01               0
GRID*              99149               09.1000000000E+025.0000000000E+01+
*       -1.666666667E+01               0
GRID*              99150               09.2000000000E+025.0000000000E+01+
*       1.6666666667E+01               0
GRID*              99151               09.2000000000E+025.0000000000E+01+
*       -1.666666667E+01               0
GRID*              99152               09.3000000000E+025.0000000000E+01+
*       1.6666666667E+01               0
GRID*              99153               09.3000000000E+025.0000000000E+01+
*       -1.666666667E+01               0
GRID*              99154               09.4000000000E+025.0000000000E+01+
*       1.6666666667E+01               0
GRID*              99155               09.4000000000E+025.0000000000E+01+
*       -1.666666667E+01               0
GRID*              99156               09.5000000000E+025.0000000000E+01+
*       1.6666666667E+01               0
GRID*              99157               09.5000000000E+025.0000000000E+01+
*       -1.666666667E+01               0
GRID*              99158               09.6000000000E+025.0000000000E+01+
*       1.6666666667E+01               0
GRID*              99159               09.6000000000E+025.0000000000E+01+
*       -1.666666667E+01               0
GRID*              99160               09.7000000000E+025.0000000000E+01+
*       1.6666666667E+01               0
GRID*              99161               09.7000000000E+025.0000000000E+01+
*       -1.666666667E+01               0
GRID*              99162               09.8000000000E+025.0000000000E+01+
*       1.6666666667E+01               0
GRID*              99163               09.8000000000E+025.0000000000E+01+
*       -1.666666667E+01               0
GRID*              99164               09.9000000000E+025.0000000000E+01+
*       1.6666666667E+01               0
GRID*              99165               09.9000000000E+025.0000000000E+01+
*       -1.666666667E+01               0
GRID*              99166               01.0000000000E+035.0000000000E+01+
*       1.6666666667E+01               0
GRID*              99167               01.0000000000E+035.0000000000E+01+
*       -1.666666667E+01               0
GRID*              99168               01.0100000000E+035.0000000000E+01+
*       1.6666666667E+01               0
GRID*              99169               01.0100000000E+035.0000000000E+01+
*       -1.666666667E+01               0
GRID*              99170               01.0200000000E+035.0000000000E+01+
*       1.6666666667E+01               0
GRID*              99171               01.0200000000E+035.0000000000E+01+
*       -1.666666667E+01               0
GRID*              99172               01.0300000000E+035.0000000000E+01+
*       1.6666666667E+01               0
GRID*              99173               01.0300000000E+035.0000000000E+01+
*       -1.666666667E+01               0
GRID*              99174               01.0400000000E+035.0000000000E+01+
*       1.6666666667E+01               0
GRID*              99175               01.0400000000E+035.0000000000E+01+
*       -1.666666667E+01               0
GRID*              99176               01.0500000000E+035.0000000000E+01+
*       1.6666666667E+01               0
GRID*              99177               01.0500000000E+035.0000000000E+01+
*       -1.666666667E+01               0
GRID*              99178               01.0600000000E+035.0000000000E+01+
*       1.6666666667E+01               0
GRID*              99179               01.0600000000E+035.0000000000E+01+
*       -1.666666667E+01               0
GRID*              99180               01.0700000000E+035.0000000000E+01+
*       1.6666666667E+01               0
GRID*              99181               01.0700000000E+035.0000000000E+01+
*       -1.666666667E+01               0
GRID*              99182               01.0800000000E+035.0000000000E+01+
*       1.6666666667E+01               0
GRID*              99183               01.0800000000E+035.0000000000E+01+
*       -1.666666667E+01               0
GRID*              99184               01.0900000000E+035.0000000000E+01+
*       1.6666666667E+01               0
GRID*              99185               01.0900000000E+035.0000000000E+01+
*       -1.666666667E+01               0
GRID*              99186               01.1000000000E+035.0000000000E+01+
*       1.6666666667E+01               0
GRID*              99187               01.1000000000E+035.0000000000E+01+
*       -1.666666667E+01               0
GRID*              99188               01.1100000000E+035.0000000000E+01+
*       1.6666666667E+01               0
GRID*              99189               01.1100000000E+035.0000000000E+01+
*       -1.666666667E+01               0
GRID*              99190               01.1200000000E+035.0000000000E+01+
*       1.6666666667E+01               0
GRID*              99191               01.1200000000E+035.0000000000E+01+
*       -1.666666667E+01               0
GRID*              99192               01.1300000000E+035.0000000000E+01+
*       1.6666666667E+01               0
GRID*              99193               01.1300000000E+035.0000000000E+01+
*       -1.666666667E+01               0
GRID*              99194               01.1400000000E+035.0000000000E+01+
*       1.6666666667E+01               0
GRID*              99195               01.1400000000E+035.0000000000E+01+
*       -1.666666667E+01               0
GRID*              99196               01.1500000000E+035.0000000000E+01+
*       1.6666666667E+01               0
GRID*              99197               01.1500000000E+035.0000000000E+01+
*       -1.666666667E+01               0
GRID*              99198               01.1600000000E+035.0000000000E+01+
*       1.6666666667E+01               0
GRID*              99199               01.1600000000E+035.0000000000E+01+
*       -1.666666667E+01               0
GRID*              99200               01.1700000000E+035.0000000000E+01+
*       1.6666666667E+01               0
GRID*              99201               01.1700000000E+035.0000000000E+01+
*       -1.666666667E+01               0
GRID*              99202               01.1800000000E+035.0000000000E+01+
*       1.6666666667E+01               0
GRID*              99203               01.1800000000E+035.0000000000E+01+
*       -1.666666667E+01               0
GRID*              99204               01.1900000000E+035.0000000000E+01+
*       1.6666666667E+01               0
GRID*              99205               01.1900000000E+035.0000000000E+01+
*       -1.666666667E+01               0
GRID*              99206               01.2000000000E+035.0000000000E+01+
*       1.6666666667E+01               0
GRID*              99207               01.2000000000E+035.0000000000E+01+
*       -1.666666667E+01               0
GRID*              99208               01.2100000000E+035.0000000000E+01+
*       1.6666666667E+01               0
GRID*              99209               01.2100000000E+035.0000000000E+01+
*       -1.666666667E+01               0
GRID*              99210               01.2200000000E+035.0000000000E+01+
*       1.6666666667E+01               0
GRID*              99211               01.2200000000E+035.0000000000E+01+
*       -1.666666667E+01               0
GRID*              99212               01.2300000000E+035.0000000000E+01+
*       1.6666666667E+01               0
GRID*              99213               01.2300000000E+035.0000000000E+01+
*       -1.666666667E+01               0
GRID*              99214               01.2400000000E+035.0000000000E+01+
*       1.6666666667E+01               0
GRID*              99215               01.2400000000E+035.0000000000E+01+
*       -1.666666667E+01               0
GRID*              99216               01.2500000000E+035.0000000000E+01+
*       1.6666666667E+01               0
GRID*              99217               01.2500000000E+035.0000000000E+01+
*       -1.666666667E+01               0
GRID*              99218               01.2600000000E+035.0000000000E+01+
*       1.6666666667E+01               0
GRID*              99219               01.2600000000E+035.0000000000E+01+
*       -1.666666667E+01               0
GRID*              99220               01.2700000000E+035.0000000000E+01+
*       1.6666666667E+01               0
GRID*              99221               01.2700000000E+035.0000000000E+01+
*       -1.666666667E+01               0
GRID*              99222               01.2800000000E+035.0000000000E+01+
*       1.6666666667E+01               0
GRID*              99223               01.2800000000E+035.0000000000E+01+
*       -1.666666667E+01               0
GRID*              99224               01.2900000000E+035.0000000000E+01+
*       1.6666666667E+01               0
GRID*              99225               01.2900000000E+035.0000000000E+01+
*       -1.666666667E+01               0
GRID*              99226               01.3000000000E+035.0000000000E+01+
*       1.6666666667E+01               0
GRID*              99227               01.3000000000E+035.0000000000E+01+
*       -1.666666667E+01               0
GRID*              99228               01.3100000000E+035.0000000000E+01+
*       1.6666666667E+01               0
GRID*              99229               01.3100000000E+035.0000000000E+01+
*       -1.666666667E+01               0
GRID*              99230               01.3200000000E+035.0000000000E+01+
*       1.6666666667E+01               0
GRID*              99231               01.3200000000E+035.0000000000E+01+
*       -1.666666667E+01               0
GRID*              99232               01.3300000000E+035.0000000000E+01+
*       1.6666666667E+01               0
GRID*              99233               01.3300000000E+035.0000000000E+01+
*       -1.666666667E+01               0
GRID*              99234               01.3400000000E+035.0000000000E+01+
*       1.6666666667E+01               0
GRID*              99235               01.3400000000E+035.0000000000E+01+
*       -1.666666667E+01               0
GRID*              99236               01.3500000000E+035.0000000000E+01+
*       1.6666666667E+01               0
GRID*              99237               01.3500000000E+035.0000000000E+01+
*       -1.666666667E+01               0
GRID*              99238               01.3600000000E+035.0000000000E+01+
*       1.6666666667E+01               0
GRID*              99239               01.3600000000E+035.0000000000E+01+
*       -1.666666667E+01               0
GRID*              99240               01.3700000000E+035.0000000000E+01+
*       1.6666666667E+01               0
GRID*              99241               01.3700000000E+035.0000000000E+01+
*       -1.666666667E+01               0
GRID*              99242               01.3800000000E+035.0000000000E+01+
*       1.6666666667E+01               0
GRID*              99243               01.3800000000E+035.0000000000E+01+
*       -1.666666667E+01               0
GRID*              99244               01.3900000000E+035.0000000000E+01+
*       1.6666666667E+01               0
GRID*              99245               01.3900000000E+035.0000000000E+01+
*       -1.666666667E+01               0
GRID*              99246               01.4000000000E+035.0000000000E+01+
*       1.6666666667E+01               0
GRID*              99247               01.4000000000E+035.0000000000E+01+
*       -1.666666667E+01               0
GRID*              99248               01.4100000000E+035.0000000000E+01+
*       1.6666666667E+01               0
GRID*              99249               01.4100000000E+035.0000000000E+01+
*       -1.666666667E+01               0
GRID*              99250               01.4200000000E+035.0000000000E+01+
*       1.6666666667E+01               0
GRID*              99251               01.4200000000E+035.0000000000E+01+
*       -1.666666667E+01               0
GRID*              99252               01.4300000000E+035.0000000000E+01+
*       1.6666666667E+01               0
GRID*              99253               01.4300000000E+035.0000000000E+01+
*       -1.666666667E+01               0
GRID*              99254               01.4400000000E+035.0000000000E+01+
*       1.6666666667E+01               0
GRID*              99255               01.4400000000E+035.0000000000E+01+
*       -1.666666667E+01               0
GRID*              99256               01.4500000000E+035.0000000000E+01+
*       1.6666666667E+01               0
GRID*              99257               01.4500000000E+035.0000000000E+01+
*       -1.666666667E+01               0
GRID*              99258               01.4600000000E+035.0000000000E+01+
*       1.6666666667E+01               0
GRID*              99259               01.4600000000E+035.0000000000E+01+
*       -1.666666667E+01               0
GRID*              99260               01.4700000000E+035.0000000000E+01+
*       1.6666666667E+01               0
GRID*              99261               01.4700000000E+035.0000000000E+01+
*       -1.666666667E+01               0
GRID*              99262               01.4800000000E+035.0000000000E+01+
*       1.6666666667E+01               0
GRID*              99263               01.4800000000E+035.0000000000E+01+
*       -1.666666667E+01               0
GRID*              99264               01.4900000000E+035.0000000000E+01+
*       1.6666666667E+01               0
GRID*              99265               01.4900000000E+035.0000000000E+01+
*       -1.666666667E+01               0
GRID*              99266               01.5000000000E+035.0000000000E+01+
*       1.6666666667E+01               0
GRID*              99267               01.5000000000E+035.0000000000E+01+
*       -1.666666667E+01               0
GRID*              99268               01.5100000000E+035.0000000000E+01+
*       1.6666666667E+01               0
GRID*              99269               01.5100000000E+035.0000000000E+01+
*       -1.666666667E+01               0
GRID*              99270               01.5200000000E+035.0000000000E+01+
*       1.6666666667E+01               0
GRID*              99271               01.5200000000E+035.0000000000E+01+
*       -1.666666667E+01               0
GRID*              99272               01.5300000000E+035.0000000000E+01+
*       1.6666666667E+01               0
GRID*              99273               01.5300000000E+035.0000000000E+01+
*       -1.666666667E+01               0
GRID*              99274               01.5400000000E+035.0000000000E+01+
*       1.6666666667E+01               0
GRID*              99275               01.5400000000E+035.0000000000E+01+
*       -1.666666667E+01               0
GRID*              99276               01.5500000000E+035.0000000000E+01+
*       1.6666666667E+01               0
GRID*              99277               01.5500000000E+035.0000000000E+01+
*       -1.666666667E+01               0
GRID*              99278               01.5600000000E+035.0000000000E+01+
*       1.6666666667E+01               0
GRID*              99279               01.5600000000E+035.0000000000E+01+
*       -1.666666667E+01               0
GRID*              99280               01.5700000000E+035.0000000000E+01+
*       1.6666666667E+01               0
GRID*              99281               01.5700000000E+035.0000000000E+01+
*       -1.666666667E+01               0
GRID*              99282               01.5800000000E+035.0000000000E+01+
*       1.6666666667E+01               0
GRID*              99283               01.5800000000E+035.0000000000E+01+
*       -1.666666667E+01               0
GRID*              99284               01.5900000000E+035.0000000000E+01+
*       1.6666666667E+01               0
GRID*              99285               01.5900000000E+035.0000000000E+01+
*       -1.666666667E+01               0
GRID*              99286               01.6000000000E+035.0000000000E+01+
*       1.6666666667E+01               0
GRID*              99287               01.6000000000E+035.0000000000E+01+
*       -1.666666667E+01               0
GRID*              99288               01.6100000000E+035.0000000000E+01+
*       1.6666666667E+01               0
GRID*              99289               01.6100000000E+035.0000000000E+01+
*       -1.666666667E+01               0
GRID*              99290               01.6200000000E+035.0000000000E+01+
*       1.6666666667E+01               0
GRID*              99291               01.6200000000E+035.0000000000E+01+
*       -1.666666667E+01               0
GRID*              99292               01.6300000000E+035.0000000000E+01+
*       1.6666666667E+01               0
GRID*              99293               01.6300000000E+035.0000000000E+01+
*       -1.666666667E+01               0
GRID*              99294               01.6400000000E+035.0000000000E+01+
*       1.6666666667E+01               0
GRID*              99295               01.6400000000E+035.0000000000E+01+
*       -1.666666667E+01               0
GRID*              99296               01.6500000000E+035.0000000000E+01+
*       1.6666666667E+01               0
GRID*              99297               01.6500000000E+035.0000000000E+01+
*       -1.666666667E+01               0
GRID*              99298               01.6600000000E+035.0000000000E+01+
*       1.6666666667E+01               0
GRID*              99299               01.6600000000E+035.0000000000E+01+
*       -1.666666667E+01               0
GRID*              99300               01.6700000000E+035.0000000000E+01+
*       1.6666666667E+01               0
GRID*              99301               01.6700000000E+035.0000000000E+01+
*       -1.666666667E+01               0
GRID*              99302               01.6800000000E+035.0000000000E+01+
*       1.6666666667E+01               0
GRID*              99303               01.6800000000E+035.0000000000E+01+
*       -1.666666667E+01               0
GRID*              99304               01.6900000000E+035.0000000000E+01+
*       1.6666666667E+01               0
GRID*              99305               01.6900000000E+035.0000000000E+01+
*       -1.666666667E+01               0
GRID*              99306               01.7000000000E+035.0000000000E+01+
*       1.6666666667E+01               0
GRID*              99307               01.7000000000E+035.0000000000E+01+
*       -1.666666667E+01               0
GRID*              99308               01.7100000000E+035.0000000000E+01+
*       1.6666666667E+01               0
GRID*              99309               01.7100000000E+035.0000000000E+01+
*       -1.666666667E+01               0
GRID*              99310               01.7200000000E+035.0000000000E+01+
*       1.6666666667E+01               0
GRID*              99311               01.7200000000E+035.0000000000E+01+
*       -1.666666667E+01               0
GRID*              99312               01.7300000000E+035.0000000000E+01+
*       1.6666666667E+01               0
GRID*              99313               01.7300000000E+035.0000000000E+01+
*       -1.666666667E+01               0
GRID*              99314               01.7400000000E+035.0000000000E+01+
*       1.6666666667E+01               0
GRID*              99315               01.7400000000E+035.0000000000E+01+
*       -1.666666667E+01               0
GRID*              99316               01.7500000000E+035.0000000000E+01+
*       1.6666666667E+01               0
GRID*              99317               01.7500000000E+035.0000000000E+01+
*       -1.666666667E+01               0
GRID*              99318               01.7600000000E+035.0000000000E+01+
*       1.6666666667E+01               0
GRID*              99319               01.7600000000E+035.0000000000E+01+
*       -1.666666667E+01               0
GRID*              99320               01.7700000000E+035.0000000000E+01+
*       1.6666666667E+01               0
GRID*              99321               01.7700000000E+035.0000000000E+01+
*       -1.666666667E+01               0
GRID*              99322               01.7800000000E+035.0000000000E+01+
*       1.6666666667E+01               0
GRID*              99323               01.7800000000E+035.0000000000E+01+
*       -1.666666667E+01               0
GRID*              99324               01.7900000000E+035.0000000000E+01+
*       1.6666666667E+01               0
GRID*              99325               01.7900000000E+035.0000000000E+01+
*       -1.666666667E+01               0
GRID*              99326               01.8000000000E+035.0000000000E+01+
*       1.6666666667E+01               0
GRID*              99327               01.8000000000E+035.0000000000E+01+
*       -1.666666667E+01               0
GRID*              99328               01.8100000000E+035.0000000000E+01+
*       1.6666666667E+01               0
GRID*              99329               01.8100000000E+035.0000000000E+01+
*       -1.666666667E+01               0
GRID*              99330               01.8200000000E+035.0000000000E+01+
*       1.6666666667E+01               0
GRID*              99331               01.8200000000E+035.0000000000E+01+
*       -1.666666667E+01               0
GRID*              99332               01.8300000000E+035.0000000000E+01+
*       1.6666666667E+01               0
GRID*              99333               01.8300000000E+035.0000000000E+01+
*       -1.666666667E+01               0
GRID*              99334               01.8400000000E+035.0000000000E+01+
*       1.6666666667E+01               0
GRID*              99335               01.8400000000E+035.0000000000E+01+
*       -1.666666667E+01               0
GRID*              99336               01.8500000000E+035.0000000000E+01+
*       1.6666666667E+01               0
GRID*              99337               01.8500000000E+035.0000000000E+01+
*       -1.666666667E+01               0
GRID*              99338               01.8600000000E+035.0000000000E+01+
*       1.6666666667E+01               0
GRID*              99339               01.8600000000E+035.0000000000E+01+
*       -1.666666667E+01               0
GRID*              99340               01.8700000000E+035.0000000000E+01+
*       1.6666666667E+01               0
GRID*              99341               01.8700000000E+035.0000000000E+01+
*       -1.666666667E+01               0
GRID*              99342               01.8800000000E+035.0000000000E+01+
*       1.6666666667E+01               0
GRID*              99343               01.8800000000E+035.0000000000E+01+
*       -1.666666667E+01               0
GRID*              99344               01.8900000000E+035.0000000000E+01+
*       1.6666666667E+01               0
GRID*              99345               01.8900000000E+035.0000000000E+01+
*       -1.666666667E+01               0
GRID*              99346               01.9000000000E+035.0000000000E+01+
*       1.6666666667E+01               0
GRID*              99347               01.9000000000E+035.0000000000E+01+
*       -1.666666667E+01               0
GRID*              99348               01.9100000000E+035.0000000000E+01+
*       1.6666666667E+01               0
GRID*              99349               01.9100000000E+035.0000000000E+01+
*       -1.666666667E+01               0
GRID*              99350               01.9200000000E+035.0000000000E+01+
*       1.6666666667E+01               0
GRID*              99351               01.9200000000E+035.0000000000E+01+
*       -1.666666667E+01               0
GRID*              99352               01.9300000000E+035.0000000000E+01+
*       1.6666666667E+01               0
GRID*              99353               01.9300000000E+035.0000000000E+01+
*       -1.666666667E+01               0
GRID*              99354               01.9400000000E+035.0000000000E+01+
*       1.6666666667E+01               0
GRID*              99355               01.9400000000E+035.0000000000E+01+
*       -1.666666667E+01               0
GRID*              99356               01.9500000000E+035.0000000000E+01+
*       1.6666666667E+01               0
GRID*              99357               01.9500000000E+035.0000000000E+01+
*       -1.666666667E+01               0
GRID*              99358               01.9600000000E+035.0000000000E+01+
*       1.6666666667E+01               0
GRID*              99359               01.9600000000E+035.0000000000E+01+
*       -1.666666667E+01               0
GRID*              99360               01.9700000000E+035.0000000000E+01+
*       1.6666666667E+01               0
GRID*              99361               01.9700000000E+035.0000000000E+01+
*       -1.666666667E+01               0
GRID*              99362               01.9800000000E+035.0000000000E+01+
*       1.6666666667E+01               0
GRID*              99363               01.9800000000E+035.0000000000E+01+
*       -1.666666667E+01               0
GRID*              99364               01.9900000000E+035.0000000000E+01+
*       1.6666666667E+01               0
GRID*              99365               01.9900000000E+035.0000000000E+01+
*       -1.666666667E+01               0
GRID*              99366               01.9900000000E+031.6666666667E+01+
*       -1.666666667E+01               0
GRID*              99367               01.9900000000E+031.6666666667E+01+
*       1.6666666667E+01               0
GRID*              99368               01.9900000000E+03-1.666666667E+01+
*       1.6666666667E+01               0
GRID*              99369               01.9900000000E+03-1.666666667E+01+
*       -1.666666667E+01               0
GRID*              99370               01.9800000000E+031.6666666667E+01+
*       -1.666666667E+01               0
GRID*              99371               01.9800000000E+031.6666666667E+01+
*       1.6666666667E+01               0
GRID*              99372               01.9800000000E+03-1.666666667E+01+
*       1.6666666667E+01               0
GRID*              99373               01.9800000000E+03-1.666666667E+01+
*       -1.666666667E+01               0
GRID*              99374               01.9700000000E+031.6666666667E+01+
*       -1.666666667E+01               0
GRID*              99375               01.9700000000E+031.6666666667E+01+
*       1.6666666667E+01               0
GRID*              99376               01.9700000000E+03-1.666666667E+01+
*       1.6666666667E+01               0
GRID*              99377               01.9700000000E+03-1.666666667E+01+
*       -1.666666667E+01               0
GRID*              99378               01.9600000000E+031.6666666667E+01+
*       -1.666666667E+01               0
GRID*              99379               01.9600000000E+031.6666666667E+01+
*       1.6666666667E+01               0
GRID*              99380               01.9600000000E+03-1.666666667E+01+
*       1.6666666667E+01               0
GRID*              99381               01.9600000000E+03-1.666666667E+01+
*       -1.666666667E+01               0
GRID*              99382               01.9500000000E+031.6666666667E+01+
*       -1.666666667E+01               0
GRID*              99383               01.9500000000E+031.6666666667E+01+
*       1.6666666667E+01               0
GRID*              99384               01.9500000000E+03-1.666666667E+01+
*       1.6666666667E+01               0
GRID*              99385               01.9500000000E+03-1.666666667E+01+
*       -1.666666667E+01               0
GRID*              99386               01.9400000000E+031.6666666667E+01+
*       -1.666666667E+01               0
GRID*              99387               01.9400000000E+031.6666666667E+01+
*       1.6666666667E+01               0
GRID*              99388               01.9400000000E+03-1.666666667E+01+
*       1.6666666667E+01               0
GRID*              99389               01.9400000000E+03-1.666666667E+01+
*       -1.666666667E+01               0
GRID*              99390               01.9300000000E+031.6666666667E+01+
*       -1.666666667E+01               0
GRID*              99391               01.9300000000E+031.6666666667E+01+
*       1.6666666667E+01               0
GRID*              99392               01.9300000000E+03-1.666666667E+01+
*       1.6666666667E+01               0
GRID*              99393               01.9300000000E+03-1.666666667E+01+
*       -1.666666667E+01               0
GRID*              99394               01.9200000000E+031.6666666667E+01+
*       -1.666666667E+01               0
GRID*              99395               01.9200000000E+031.6666666667E+01+
*       1.6666666667E+01               0
GRID*              99396               01.9200000000E+03-1.666666667E+01+
*       1.6666666667E+01               0
GRID*              99397               01.9200000000E+03-1.666666667E+01+
*       -1.666666667E+01               0
GRID*              99398               01.9100000000E+031.6666666667E+01+
*       -1.666666667E+01               0
GRID*              99399               01.9100000000E+031.6666666667E+01+
*       1.6666666667E+01               0
GRID*              99400               01.9100000000E+03-1.666666667E+01+
*       1.6666666667E+01               0
GRID*              99401               01.9100000000E+03-1.666666667E+01+
*       -1.666666667E+01               0
GRID*              99402               01.9000000000E+031.6666666667E+01+
*       -1.666666667E+01               0
GRID*              99403               01.9000000000E+031.6666666667E+01+
*       1.6666666667E+01               0
GRID*              99404               01.9000000000E+03-1.666666667E+01+
*       1.6666666667E+01               0
GRID*              99405               01.9000000000E+03-1.666666667E+01+
*       -1.666666667E+01               0
GRID*              99406               01.8900000000E+031.6666666667E+01+
*       -1.666666667E+01               0
GRID*              99407               01.8900000000E+031.6666666667E+01+
*       1.6666666667E+01               0
GRID*              99408               01.8900000000E+03-1.666666667E+01+
*       1.6666666667E+01               0
GRID*              99409               01.8900000000E+03-1.666666667E+01+
*       -1.666666667E+01               0
GRID*              99410               01.8800000000E+031.6666666667E+01+
*       -1.666666667E+01               0
GRID*              99411               01.8800000000E+031.6666666667E+01+
*       1.6666666667E+01               0
GRID*              99412               01.8800000000E+03-1.666666667E+01+
*       1.6666666667E+01               0
GRID*              99413               01.8800000000E+03-1.666666667E+01+
*       -1.666666667E+01               0
GRID*              99414               01.8700000000E+031.6666666667E+01+
*       -1.666666667E+01               0
GRID*              99415               01.8700000000E+031.6666666667E+01+
*       1.6666666667E+01               0
GRID*              99416               01.8700000000E+03-1.666666667E+01+
*       1.6666666667E+01               0
GRID*              99417               01.8700000000E+03-1.666666667E+01+
*       -1.666666667E+01               0
GRID*              99418               01.8600000000E+031.6666666667E+01+
*       -1.666666667E+01               0
GRID*              99419               01.8600000000E+031.6666666667E+01+
*       1.6666666667E+01               0
GRID*              99420               01.8600000000E+03-1.666666667E+01+
*       1.6666666667E+01               0
GRID*              99421               01.8600000000E+03-1.666666667E+01+
*       -1.666666667E+01               0
GRID*              99422               01.8500000000E+031.6666666667E+01+
*       -1.666666667E+01               0
GRID*              99423               01.8500000000E+031.6666666667E+01+
*       1.6666666667E+01               0
GRID*              99424               01.8500000000E+03-1.666666667E+01+
*       1.6666666667E+01               0
GRID*              99425               01.8500000000E+03-1.666666667E+01+
*       -1.666666667E+01               0
GRID*              99426               01.8400000000E+031.6666666667E+01+
*       -1.666666667E+01               0
GRID*              99427               01.8400000000E+031.6666666667E+01+
*       1.6666666667E+01               0
GRID*              99428               01.8400000000E+03-1.666666667E+01+
*       1.6666666667E+01               0
GRID*              99429               01.8400000000E+03-1.666666667E+01+
*       -1.666666667E+01               0
GRID*              99430               01.8300000000E+031.6666666667E+01+
*       -1.666666667E+01               0
GRID*              99431               01.8300000000E+031.6666666667E+01+
*       1.6666666667E+01               0
GRID*              99432               01.8300000000E+03-1.666666667E+01+
*       1.6666666667E+01               0
GRID*              99433               01.8300000000E+03-1.666666667E+01+
*       -1.666666667E+01               0
GRID*              99434               01.8200000000E+031.6666666667E+01+
*       -1.666666667E+01               0
GRID*              99435               01.8200000000E+031.6666666667E+01+
*       1.6666666667E+01               0
GRID*              99436               01.8200000000E+03-1.666666667E+01+
*       1.6666666667E+01               0
GRID*              99437               01.8200000000E+03-1.666666667E+01+
*       -1.666666667E+01               0
GRID*              99438               01.8100000000E+031.6666666667E+01+
*       -1.666666667E+01               0
GRID*              99439               01.8100000000E+031.6666666667E+01+
*       1.6666666667E+01               0
GRID*              99440               01.8100000000E+03-1.666666667E+01+
*       1.6666666667E+01               0
GRID*              99441               01.8100000000E+03-1.666666667E+01+
*       -1.666666667E+01               0
GRID*              99442               01.8000000000E+031.6666666667E+01+
*       -1.666666667E+01               0
GRID*              99443               01.8000000000E+031.6666666667E+01+
*       1.6666666667E+01               0
GRID*              99444               01.8000000000E+03-1.666666667E+01+
*       1.6666666667E+01               0
GRID*              99445               01.8000000000E+03-1.666666667E+01+
*       -1.666666667E+01               0
GRID*              99446               01.7900000000E+031.6666666667E+01+
*       -1.666666667E+01               0
GRID*              99447               01.7900000000E+031.6666666667E+01+
*       1.6666666667E+01               0
GRID*              99448               01.7900000000E+03-1.666666667E+01+
*       1.6666666667E+01               0
GRID*              99449               01.7900000000E+03-1.666666667E+01+
*       -1.666666667E+01               0
GRID*              99450               01.7800000000E+031.6666666667E+01+
*       -1.666666667E+01               0
GRID*              99451               01.7800000000E+031.6666666667E+01+
*       1.6666666667E+01               0
GRID*              99452               01.7800000000E+03-1.666666667E+01+
*       1.6666666667E+01               0
GRID*              99453               01.7800000000E+03-1.666666667E+01+
*       -1.666666667E+01               0
GRID*              99454               01.7700000000E+031.6666666667E+01+
*       -1.666666667E+01               0
GRID*              99455               01.7700000000E+031.6666666667E+01+
*       1.6666666667E+01               0
GRID*              99456               01.7700000000E+03-1.666666667E+01+
*       1.6666666667E+01               0
GRID*              99457               01.7700000000E+03-1.666666667E+01+
*       -1.666666667E+01               0
GRID*              99458               01.7600000000E+031.6666666667E+01+
*       -1.666666667E+01               0
GRID*              99459               01.7600000000E+031.6666666667E+01+
*       1.6666666667E+01               0
GRID*              99460               01.7600000000E+03-1.666666667E+01+
*       1.6666666667E+01               0
GRID*              99461               01.7600000000E+03-1.666666667E+01+
*       -1.666666667E+01               0
GRID*              99462               01.7500000000E+031.6666666667E+01+
*       -1.666666667E+01               0
GRID*              99463               01.7500000000E+031.6666666667E+01+
*       1.6666666667E+01               0
GRID*              99464               01.7500000000E+03-1.666666667E+01+
*       1.6666666667E+01               0
GRID*              99465               01.7500000000E+03-1.666666667E+01+
*       -1.666666667E+01               0
GRID*              99466               01.7400000000E+031.6666666667E+01+
*       -1.666666667E+01               0
GRID*              99467               01.7400000000E+031.6666666667E+01+
*       1.6666666667E+01               0
GRID*              99468               01.7400000000E+03-1.666666667E+01+
*       1.6666666667E+01               0
GRID*              99469               01.7400000000E+03-1.666666667E+01+
*       -1.666666667E+01               0
GRID*              99470               01.7300000000E+031.6666666667E+01+
*       -1.666666667E+01               0
GRID*              99471               01.7300000000E+031.6666666667E+01+
*       1.6666666667E+01               0
GRID*              99472               01.7300000000E+03-1.666666667E+01+
*       1.6666666667E+01               0
GRID*              99473               01.7300000000E+03-1.666666667E+01+
*       -1.666666667E+01               0
GRID*              99474               01.7200000000E+031.6666666667E+01+
*       -1.666666667E+01               0
GRID*              99475               01.7200000000E+031.6666666667E+01+
*       1.6666666667E+01               0
GRID*              99476               01.7200000000E+03-1.666666667E+01+
*       1.6666666667E+01               0
GRID*              99477               01.7200000000E+03-1.666666667E+01+
*       -1.666666667E+01               0
GRID*              99478               01.7100000000E+031.6666666667E+01+
*       -1.666666667E+01               0
GRID*              99479               01.7100000000E+031.6666666667E+01+
*       1.6666666667E+01               0
GRID*              99480               01.7100000000E+03-1.666666667E+01+
*       1.6666666667E+01               0
GRID*              99481               01.7100000000E+03-1.666666667E+01+
*       -1.666666667E+01               0
GRID*              99482               01.7000000000E+031.6666666667E+01+
*       -1.666666667E+01               0
GRID*              99483               01.7000000000E+031.6666666667E+01+
*       1.6666666667E+01               0
GRID*              99484               01.7000000000E+03-1.666666667E+01+
*       1.6666666667E+01               0
GRID*              99485               01.7000000000E+03-1.666666667E+01+
*       -1.666666667E+01               0
GRID*              99486               01.6900000000E+031.6666666667E+01+
*       -1.666666667E+01               0
GRID*              99487               01.6900000000E+031.6666666667E+01+
*       1.6666666667E+01               0
GRID*              99488               01.6900000000E+03-1.666666667E+01+
*       1.6666666667E+01               0
GRID*              99489               01.6900000000E+03-1.666666667E+01+
*       -1.666666667E+01               0
GRID*              99490               01.6800000000E+031.6666666667E+01+
*       -1.666666667E+01               0
GRID*              99491               01.6800000000E+031.6666666667E+01+
*       1.6666666667E+01               0
GRID*              99492               01.6800000000E+03-1.666666667E+01+
*       1.6666666667E+01               0
GRID*              99493               01.6800000000E+03-1.666666667E+01+
*       -1.666666667E+01               0
GRID*              99494               01.6700000000E+031.6666666667E+01+
*       -1.666666667E+01               0
GRID*              99495               01.6700000000E+031.6666666667E+01+
*       1.6666666667E+01               0
GRID*              99496               01.6700000000E+03-1.666666667E+01+
*       1.6666666667E+01               0
GRID*              99497               01.6700000000E+03-1.666666667E+01+
*       -1.666666667E+01               0
GRID*              99498               01.6600000000E+031.6666666667E+01+
*       -1.666666667E+01               0
GRID*              99499               01.6600000000E+031.6666666667E+01+
*       1.6666666667E+01               0
GRID*              99500               01.6600000000E+03-1.666666667E+01+
*       1.6666666667E+01               0
GRID*              99501               01.6600000000E+03-1.666666667E+01+
*       -1.666666667E+01               0
GRID*              99502               01.6500000000E+031.6666666667E+01+
*       -1.666666667E+01               0
GRID*              99503               01.6500000000E+031.6666666667E+01+
*       1.6666666667E+01               0
GRID*              99504               01.6500000000E+03-1.666666667E+01+
*       1.6666666667E+01               0
GRID*              99505               01.6500000000E+03-1.666666667E+01+
*       -1.666666667E+01               0
GRID*              99506               01.6400000000E+031.6666666667E+01+
*       -1.666666667E+01               0
GRID*              99507               01.6400000000E+031.6666666667E+01+
*       1.6666666667E+01               0
GRID*              99508               01.6400000000E+03-1.666666667E+01+
*       1.6666666667E+01               0
GRID*              99509               01.6400000000E+03-1.666666667E+01+
*       -1.666666667E+01               0
GRID*              99510               01.6300000000E+031.6666666667E+01+
*       -1.666666667E+01               0
GRID*              99511               01.6300000000E+031.6666666667E+01+
*       1.6666666667E+01               0
GRID*              99512               01.6300000000E+03-1.666666667E+01+
*       1.6666666667E+01               0
GRID*              99513               01.6300000000E+03-1.666666667E+01+
*       -1.666666667E+01               0
GRID*              99514               01.6200000000E+031.6666666667E+01+
*       -1.666666667E+01               0
GRID*              99515               01.6200000000E+031.6666666667E+01+
*       1.6666666667E+01               0
GRID*              99516               01.6200000000E+03-1.666666667E+01+
*       1.6666666667E+01               0
GRID*              99517               01.6200000000E+03-1.666666667E+01+
*       -1.666666667E+01               0
GRID*              99518               01.6100000000E+031.6666666667E+01+
*       -1.666666667E+01               0
GRID*              99519               01.6100000000E+031.6666666667E+01+
*       1.6666666667E+01               0
GRID*              99520               01.6100000000E+03-1.666666667E+01+
*       1.6666666667E+01               0
GRID*              99521               01.6100000000E+03-1.666666667E+01+
*       -1.666666667E+01               0
GRID*              99522               01.6000000000E+031.6666666667E+01+
*       -1.666666667E+01               0
GRID*              99523               01.6000000000E+031.6666666667E+01+
*       1.6666666667E+01               0
GRID*              99524               01.6000000000E+03-1.666666667E+01+
*       1.6666666667E+01               0
GRID*              99525               01.6000000000E+03-1.666666667E+01+
*       -1.666666667E+01               0
GRID*              99526               01.5900000000E+031.6666666667E+01+
*       -1.666666667E+01               0
GRID*              99527               01.5900000000E+031.6666666667E+01+
*       1.6666666667E+01               0
GRID*              99528               01.5900000000E+03-1.666666667E+01+
*       1.6666666667E+01               0
GRID*              99529               01.5900000000E+03-1.666666667E+01+
*       -1.666666667E+01               0
GRID*              99530               01.5800000000E+031.6666666667E+01+
*       -1.666666667E+01               0
GRID*              99531               01.5800000000E+031.6666666667E+01+
*       1.6666666667E+01               0
GRID*              99532               01.5800000000E+03-1.666666667E+01+
*       1.6666666667E+01               0
GRID*              99533               01.5800000000E+03-1.666666667E+01+
*       -1.666666667E+01               0
GRID*              99534               01.5700000000E+031.6666666667E+01+
*       -1.666666667E+01               0
GRID*              99535               01.5700000000E+031.6666666667E+01+
*       1.6666666667E+01               0
GRID*              99536               01.5700000000E+03-1.666666667E+01+
*       1.6666666667E+01               0
GRID*              99537               01.5700000000E+03-1.666666667E+01+
*       -1.666666667E+01               0
GRID*              99538               01.5600000000E+031.6666666667E+01+
*       -1.666666667E+01               0
GRID*              99539               01.5600000000E+031.6666666667E+01+
*       1.6666666667E+01               0
GRID*              99540               01.5600000000E+03-1.666666667E+01+
*       1.6666666667E+01               0
GRID*              99541               01.5600000000E+03-1.666666667E+01+
*       -1.666666667E+01               0
GRID*              99542               01.5500000000E+031.6666666667E+01+
*       -1.666666667E+01               0
GRID*              99543               01.5500000000E+031.6666666667E+01+
*       1.6666666667E+01               0
GRID*              99544               01.5500000000E+03-1.666666667E+01+
*       1.6666666667E+01               0
GRID*              99545               01.5500000000E+03-1.666666667E+01+
*       -1.666666667E+01               0
GRID*              99546               01.5400000000E+031.6666666667E+01+
*       -1.666666667E+01               0
GRID*              99547               01.5400000000E+031.6666666667E+01+
*       1.6666666667E+01               0
GRID*              99548               01.5400000000E+03-1.666666667E+01+
*       1.6666666667E+01               0
GRID*              99549               01.5400000000E+03-1.666666667E+01+
*       -1.666666667E+01               0
GRID*              99550               01.5300000000E+031.6666666667E+01+
*       -1.666666667E+01               0
GRID*              99551               01.5300000000E+031.6666666667E+01+
*       1.6666666667E+01               0
GRID*              99552               01.5300000000E+03-1.666666667E+01+
*       1.6666666667E+01               0
GRID*              99553               01.5300000000E+03-1.666666667E+01+
*       -1.666666667E+01               0
GRID*              99554               01.5200000000E+031.6666666667E+01+
*       -1.666666667E+01               0
GRID*              99555               01.5200000000E+031.6666666667E+01+
*       1.6666666667E+01               0
GRID*              99556               01.5200000000E+03-1.666666667E+01+
*       1.6666666667E+01               0
GRID*              99557               01.5200000000E+03-1.666666667E+01+
*       -1.666666667E+01               0
GRID*              99558               01.5100000000E+031.6666666667E+01+
*       -1.666666667E+01               0
GRID*              99559               01.5100000000E+031.6666666667E+01+
*       1.6666666667E+01               0
GRID*              99560               01.5100000000E+03-1.666666667E+01+
*       1.6666666667E+01               0
GRID*              99561               01.5100000000E+03-1.666666667E+01+
*       -1.666666667E+01               0
GRID*              99562               01.5000000000E+031.6666666667E+01+
*       -1.666666667E+01               0
GRID*              99563               01.5000000000E+031.6666666667E+01+
*       1.6666666667E+01               0
GRID*              99564               01.5000000000E+03-1.666666667E+01+
*       1.6666666667E+01               0
GRID*              99565               01.5000000000E+03-1.666666667E+01+
*       -1.666666667E+01               0
GRID*              99566               01.4900000000E+031.6666666667E+01+
*       -1.666666667E+01               0
GRID*              99567               01.4900000000E+031.6666666667E+01+
*       1.6666666667E+01               0
GRID*              99568               01.4900000000E+03-1.666666667E+01+
*       1.6666666667E+01               0
GRID*              99569               01.4900000000E+03-1.666666667E+01+
*       -1.666666667E+01               0
GRID*              99570               01.4800000000E+031.6666666667E+01+
*       -1.666666667E+01               0
GRID*              99571               01.4800000000E+031.6666666667E+01+
*       1.6666666667E+01               0
GRID*              99572               01.4800000000E+03-1.666666667E+01+
*       1.6666666667E+01               0
GRID*              99573               01.4800000000E+03-1.666666667E+01+
*       -1.666666667E+01               0
GRID*              99574               01.4700000000E+031.6666666667E+01+
*       -1.666666667E+01               0
GRID*              99575               01.4700000000E+031.6666666667E+01+
*       1.6666666667E+01               0
GRID*              99576               01.4700000000E+03-1.666666667E+01+
*       1.6666666667E+01               0
GRID*              99577               01.4700000000E+03-1.666666667E+01+
*       -1.666666667E+01               0
GRID*              99578               01.4600000000E+031.6666666667E+01+
*       -1.666666667E+01               0
GRID*              99579               01.4600000000E+031.6666666667E+01+
*       1.6666666667E+01               0
GRID*              99580               01.4600000000E+03-1.666666667E+01+
*       1.6666666667E+01               0
GRID*              99581               01.4600000000E+03-1.666666667E+01+
*       -1.666666667E+01               0
GRID*              99582               01.4500000000E+031.6666666667E+01+
*       -1.666666667E+01               0
GRID*              99583               01.4500000000E+031.6666666667E+01+
*       1.6666666667E+01               0
GRID*              99584               01.4500000000E+03-1.666666667E+01+
*       1.6666666667E+01               0
GRID*              99585               01.4500000000E+03-1.666666667E+01+
*       -1.666666667E+01               0
GRID*              99586               01.4400000000E+031.6666666667E+01+
*       -1.666666667E+01               0
GRID*              99587               01.4400000000E+031.6666666667E+01+
*       1.6666666667E+01               0
GRID*              99588               01.4400000000E+03-1.666666667E+01+
*       1.6666666667E+01               0
GRID*              99589               01.4400000000E+03-1.666666667E+01+
*       -1.666666667E+01               0
GRID*              99590               01.4300000000E+031.6666666667E+01+
*       -1.666666667E+01               0
GRID*              99591               01.4300000000E+031.6666666667E+01+
*       1.6666666667E+01               0
GRID*              99592               01.4300000000E+03-1.666666667E+01+
*       1.6666666667E+01               0
GRID*              99593               01.4300000000E+03-1.666666667E+01+
*       -1.666666667E+01               0
GRID*              99594               01.4200000000E+031.6666666667E+01+
*       -1.666666667E+01               0
GRID*              99595               01.4200000000E+031.6666666667E+01+
*       1.6666666667E+01               0
GRID*              99596               01.4200000000E+03-1.666666667E+01+
*       1.6666666667E+01               0
GRID*              99597               01.4200000000E+03-1.666666667E+01+
*       -1.666666667E+01               0
GRID*              99598               01.4100000000E+031.6666666667E+01+
*       -1.666666667E+01               0
GRID*              99599               01.4100000000E+031.6666666667E+01+
*       1.6666666667E+01               0
GRID*              99600               01.4100000000E+03-1.666666667E+01+
*       1.6666666667E+01               0
GRID*              99601               01.4100000000E+03-1.666666667E+01+
*       -1.666666667E+01               0
GRID*              99602               01.4000000000E+031.6666666667E+01+
*       -1.666666667E+01               0
GRID*              99603               01.4000000000E+031.6666666667E+01+
*       1.6666666667E+01               0
GRID*              99604               01.4000000000E+03-1.666666667E+01+
*       1.6666666667E+01               0
GRID*              99605               01.4000000000E+03-1.666666667E+01+
*       -1.666666667E+01               0
GRID*              99606               01.3900000000E+031.6666666667E+01+
*       -1.666666667E+01               0
GRID*              99607               01.3900000000E+031.6666666667E+01+
*       1.6666666667E+01               0
GRID*              99608               01.3900000000E+03-1.666666667E+01+
*       1.6666666667E+01               0
GRID*              99609               01.3900000000E+03-1.666666667E+01+
*       -1.666666667E+01               0
GRID*              99610               01.3800000000E+031.6666666667E+01+
*       -1.666666667E+01               0
GRID*              99611               01.3800000000E+031.6666666667E+01+
*       1.6666666667E+01               0
GRID*              99612               01.3800000000E+03-1.666666667E+01+
*       1.6666666667E+01               0
GRID*              99613               01.3800000000E+03-1.666666667E+01+
*       -1.666666667E+01               0
GRID*              99614               01.3700000000E+031.6666666667E+01+
*       -1.666666667E+01               0
GRID*              99615               01.3700000000E+031.6666666667E+01+
*       1.6666666667E+01               0
GRID*              99616               01.3700000000E+03-1.666666667E+01+
*       1.6666666667E+01               0
GRID*              99617               01.3700000000E+03-1.666666667E+01+
*       -1.666666667E+01               0
GRID*              99618               01.3600000000E+031.6666666667E+01+
*       -1.666666667E+01               0
GRID*              99619               01.3600000000E+031.6666666667E+01+
*       1.6666666667E+01               0
GRID*              99620               01.3600000000E+03-1.666666667E+01+
*       1.6666666667E+01               0
GRID*              99621               01.3600000000E+03-1.666666667E+01+
*       -1.666666667E+01               0
GRID*              99622               01.3500000000E+031.6666666667E+01+
*       -1.666666667E+01               0
GRID*              99623               01.3500000000E+031.6666666667E+01+
*       1.6666666667E+01               0
GRID*              99624               01.3500000000E+03-1.666666667E+01+
*       1.6666666667E+01               0
GRID*              99625               01.3500000000E+03-1.666666667E+01+
*       -1.666666667E+01               0
GRID*              99626               01.3400000000E+031.6666666667E+01+
*       -1.666666667E+01               0
GRID*              99627               01.3400000000E+031.6666666667E+01+
*       1.6666666667E+01               0
GRID*              99628               01.3400000000E+03-1.666666667E+01+
*       1.6666666667E+01               0
GRID*              99629               01.3400000000E+03-1.666666667E+01+
*       -1.666666667E+01               0
GRID*              99630               01.3300000000E+031.6666666667E+01+
*       -1.666666667E+01               0
GRID*              99631               01.3300000000E+031.6666666667E+01+
*       1.6666666667E+01               0
GRID*              99632               01.3300000000E+03-1.666666667E+01+
*       1.6666666667E+01               0
GRID*              99633               01.3300000000E+03-1.666666667E+01+
*       -1.666666667E+01               0
GRID*              99634               01.3200000000E+031.6666666667E+01+
*       -1.666666667E+01               0
GRID*              99635               01.3200000000E+031.6666666667E+01+
*       1.6666666667E+01               0
GRID*              99636               01.3200000000E+03-1.666666667E+01+
*       1.6666666667E+01               0
GRID*              99637               01.3200000000E+03-1.666666667E+01+
*       -1.666666667E+01               0
GRID*              99638               01.3100000000E+031.6666666667E+01+
*       -1.666666667E+01               0
GRID*              99639               01.3100000000E+031.6666666667E+01+
*       1.6666666667E+01               0
GRID*              99640               01.3100000000E+03-1.666666667E+01+
*       1.6666666667E+01               0
GRID*              99641               01.3100000000E+03-1.666666667E+01+
*       -1.666666667E+01               0
GRID*              99642               01.3000000000E+031.6666666667E+01+
*       -1.666666667E+01               0
GRID*              99643               01.3000000000E+031.6666666667E+01+
*       1.6666666667E+01               0
GRID*              99644               01.3000000000E+03-1.666666667E+01+
*       1.6666666667E+01               0
GRID*              99645               01.3000000000E+03-1.666666667E+01+
*       -1.666666667E+01               0
GRID*              99646               01.2900000000E+031.6666666667E+01+
*       -1.666666667E+01               0
GRID*              99647               01.2900000000E+031.6666666667E+01+
*       1.6666666667E+01               0
GRID*              99648               01.2900000000E+03-1.666666667E+01+
*       1.6666666667E+01               0
GRID*              99649               01.2900000000E+03-1.666666667E+01+
*       -1.666666667E+01               0
GRID*              99650               01.2800000000E+031.6666666667E+01+
*       -1.666666667E+01               0
GRID*              99651               01.2800000000E+031.6666666667E+01+
*       1.6666666667E+01               0
GRID*              99652               01.2800000000E+03-1.666666667E+01+
*       1.6666666667E+01               0
GRID*              99653               01.2800000000E+03-1.666666667E+01+
*       -1.666666667E+01               0
GRID*              99654               01.2700000000E+031.6666666667E+01+
*       -1.666666667E+01               0
GRID*              99655               01.2700000000E+031.6666666667E+01+
*       1.6666666667E+01               0
GRID*              99656               01.2700000000E+03-1.666666667E+01+
*       1.6666666667E+01               0
GRID*              99657               01.2700000000E+03-1.666666667E+01+
*       -1.666666667E+01               0
GRID*              99658               01.2600000000E+031.6666666667E+01+
*       -1.666666667E+01               0
GRID*              99659               01.2600000000E+031.6666666667E+01+
*       1.6666666667E+01               0
GRID*              99660               01.2600000000E+03-1.666666667E+01+
*       1.6666666667E+01               0
GRID*              99661               01.2600000000E+03-1.666666667E+01+
*       -1.666666667E+01               0
GRID*              99662               01.2500000000E+031.6666666667E+01+
*       -1.666666667E+01               0
GRID*              99663               01.2500000000E+031.6666666667E+01+
*       1.6666666667E+01               0
GRID*              99664               01.2500000000E+03-1.666666667E+01+
*       1.6666666667E+01               0
GRID*              99665               01.2500000000E+03-1.666666667E+01+
*       -1.666666667E+01               0
GRID*              99666               01.2400000000E+031.6666666667E+01+
*       -1.666666667E+01               0
GRID*              99667               01.2400000000E+031.6666666667E+01+
*       1.6666666667E+01               0
GRID*              99668               01.2400000000E+03-1.666666667E+01+
*       1.6666666667E+01               0
GRID*              99669               01.2400000000E+03-1.666666667E+01+
*       -1.666666667E+01               0
GRID*              99670               01.2300000000E+031.6666666667E+01+
*       -1.666666667E+01               0
GRID*              99671               01.2300000000E+031.6666666667E+01+
*       1.6666666667E+01               0
GRID*              99672               01.2300000000E+03-1.666666667E+01+
*       1.6666666667E+01               0
GRID*              99673               01.2300000000E+03-1.666666667E+01+
*       -1.666666667E+01               0
GRID*              99674               01.2200000000E+031.6666666667E+01+
*       -1.666666667E+01               0
GRID*              99675               01.2200000000E+031.6666666667E+01+
*       1.6666666667E+01               0
GRID*              99676               01.2200000000E+03-1.666666667E+01+
*       1.6666666667E+01               0
GRID*              99677               01.2200000000E+03-1.666666667E+01+
*       -1.666666667E+01               0
GRID*              99678               01.2100000000E+031.6666666667E+01+
*       -1.666666667E+01               0
GRID*              99679               01.2100000000E+031.6666666667E+01+
*       1.6666666667E+01               0
GRID*              99680               01.2100000000E+03-1.666666667E+01+
*       1.6666666667E+01               0
GRID*              99681               01.2100000000E+03-1.666666667E+01+
*       -1.666666667E+01               0
GRID*              99682               01.2000000000E+031.6666666667E+01+
*       -1.666666667E+01               0
GRID*              99683               01.2000000000E+031.6666666667E+01+
*       1.6666666667E+01               0
GRID*              99684               01.2000000000E+03-1.666666667E+01+
*       1.6666666667E+01               0
GRID*              99685               01.2000000000E+03-1.666666667E+01+
*       -1.666666667E+01               0
GRID*              99686               01.1900000000E+031.6666666667E+01+
*       -1.666666667E+01               0
GRID*              99687               01.1900000000E+031.6666666667E+01+
*       1.6666666667E+01               0
GRID*              99688               01.1900000000E+03-1.666666667E+01+
*       1.6666666667E+01               0
GRID*              99689               01.1900000000E+03-1.666666667E+01+
*       -1.666666667E+01               0
GRID*              99690               01.1800000000E+031.6666666667E+01+
*       -1.666666667E+01               0
GRID*              99691               01.1800000000E+031.6666666667E+01+
*       1.6666666667E+01               0
GRID*              99692               01.1800000000E+03-1.666666667E+01+
*       1.6666666667E+01               0
GRID*              99693               01.1800000000E+03-1.666666667E+01+
*       -1.666666667E+01               0
GRID*              99694               01.1700000000E+031.6666666667E+01+
*       -1.666666667E+01               0
GRID*              99695               01.1700000000E+031.6666666667E+01+
*       1.6666666667E+01               0
GRID*              99696               01.1700000000E+03-1.666666667E+01+
*       1.6666666667E+01               0
GRID*              99697               01.1700000000E+03-1.666666667E+01+
*       -1.666666667E+01               0
GRID*              99698               01.1600000000E+031.6666666667E+01+
*       -1.666666667E+01               0
GRID*              99699               01.1600000000E+031.6666666667E+01+
*       1.6666666667E+01               0
GRID*              99700               01.1600000000E+03-1.666666667E+01+
*       1.6666666667E+01               0
GRID*              99701               01.1600000000E+03-1.666666667E+01+
*       -1.666666667E+01               0
GRID*              99702               01.1500000000E+031.6666666667E+01+
*       -1.666666667E+01               0
GRID*              99703               01.1500000000E+031.6666666667E+01+
*       1.6666666667E+01               0
GRID*              99704               01.1500000000E+03-1.666666667E+01+
*       1.6666666667E+01               0
GRID*              99705               01.1500000000E+03-1.666666667E+01+
*       -1.666666667E+01               0
GRID*              99706               01.1400000000E+031.6666666667E+01+
*       -1.666666667E+01               0
GRID*              99707               01.1400000000E+031.6666666667E+01+
*       1.6666666667E+01               0
GRID*              99708               01.1400000000E+03-1.666666667E+01+
*       1.6666666667E+01               0
GRID*              99709               01.1400000000E+03-1.666666667E+01+
*       -1.666666667E+01               0
GRID*              99710               01.1300000000E+031.6666666667E+01+
*       -1.666666667E+01               0
GRID*              99711               01.1300000000E+031.6666666667E+01+
*       1.6666666667E+01               0
GRID*              99712               01.1300000000E+03-1.666666667E+01+
*       1.6666666667E+01               0
GRID*              99713               01.1300000000E+03-1.666666667E+01+
*       -1.666666667E+01               0
GRID*              99714               01.1200000000E+031.6666666667E+01+
*       -1.666666667E+01               0
GRID*              99715               01.1200000000E+031.6666666667E+01+
*       1.6666666667E+01               0
GRID*              99716               01.1200000000E+03-1.666666667E+01+
*       1.6666666667E+01               0
GRID*              99717               01.1200000000E+03-1.666666667E+01+
*       -1.666666667E+01               0
GRID*              99718               01.1100000000E+031.6666666667E+01+
*       -1.666666667E+01               0
GRID*              99719               01.1100000000E+031.6666666667E+01+
*       1.6666666667E+01               0
GRID*              99720               01.1100000000E+03-1.666666667E+01+
*       1.6666666667E+01               0
GRID*              99721               01.1100000000E+03-1.666666667E+01+
*       -1.666666667E+01               0
GRID*              99722               01.1000000000E+031.6666666667E+01+
*       -1.666666667E+01               0
GRID*              99723               01.1000000000E+031.6666666667E+01+
*       1.6666666667E+01               0
GRID*              99724               01.1000000000E+03-1.666666667E+01+
*       1.6666666667E+01               0
GRID*              99725               01.1000000000E+03-1.666666667E+01+
*       -1.666666667E+01               0
GRID*              99726               01.0900000000E+031.6666666667E+01+
*       -1.666666667E+01               0
GRID*              99727               01.0900000000E+031.6666666667E+01+
*       1.6666666667E+01               0
GRID*              99728               01.0900000000E+03-1.666666667E+01+
*       1.6666666667E+01               0
GRID*              99729               01.0900000000E+03-1.666666667E+01+
*       -1.666666667E+01               0
GRID*              99730               01.0800000000E+031.6666666667E+01+
*       -1.666666667E+01               0
GRID*              99731               01.0800000000E+031.6666666667E+01+
*       1.6666666667E+01               0
GRID*              99732               01.0800000000E+03-1.666666667E+01+
*       1.6666666667E+01               0
GRID*              99733               01.0800000000E+03-1.666666667E+01+
*       -1.666666667E+01               0
GRID*              99734               01.0700000000E+031.6666666667E+01+
*       -1.666666667E+01               0
GRID*              99735               01.0700000000E+031.6666666667E+01+
*       1.6666666667E+01               0
GRID*              99736               01.0700000000E+03-1.666666667E+01+
*       1.6666666667E+01               0
GRID*              99737               01.0700000000E+03-1.666666667E+01+
*       -1.666666667E+01               0
GRID*              99738               01.0600000000E+031.6666666667E+01+
*       -1.666666667E+01               0
GRID*              99739               01.0600000000E+031.6666666667E+01+
*       1.6666666667E+01               0
GRID*              99740               01.0600000000E+03-1.666666667E+01+
*       1.6666666667E+01               0
GRID*              99741               01.0600000000E+03-1.666666667E+01+
*       -1.666666667E+01               0
GRID*              99742               01.0500000000E+031.6666666667E+01+
*       -1.666666667E+01               0
GRID*              99743               01.0500000000E+031.6666666667E+01+
*       1.6666666667E+01               0
GRID*              99744               01.0500000000E+03-1.666666667E+01+
*       1.6666666667E+01               0
GRID*              99745               01.0500000000E+03-1.666666667E+01+
*       -1.666666667E+01               0
GRID*              99746               01.0400000000E+031.6666666667E+01+
*       -1.666666667E+01               0
GRID*              99747               01.0400000000E+031.6666666667E+01+
*       1.6666666667E+01               0
GRID*              99748               01.0400000000E+03-1.666666667E+01+
*       1.6666666667E+01               0
GRID*              99749               01.0400000000E+03-1.666666667E+01+
*       -1.666666667E+01               0
GRID*              99750               01.0300000000E+031.6666666667E+01+
*       -1.666666667E+01               0
GRID*              99751               01.0300000000E+031.6666666667E+01+
*       1.6666666667E+01               0
GRID*              99752               01.0300000000E+03-1.666666667E+01+
*       1.6666666667E+01               0
GRID*              99753               01.0300000000E+03-1.666666667E+01+
*       -1.666666667E+01               0
GRID*              99754               01.0200000000E+031.6666666667E+01+
*       -1.666666667E+01               0
GRID*              99755               01.0200000000E+031.6666666667E+01+
*       1.6666666667E+01               0
GRID*              99756               01.0200000000E+03-1.666666667E+01+
*       1.6666666667E+01               0
GRID*              99757               01.0200000000E+03-1.666666667E+01+
*       -1.666666667E+01               0
GRID*              99758               01.0100000000E+031.6666666667E+01+
*       -1.666666667E+01               0
GRID*              99759               01.0100000000E+031.6666666667E+01+
*       1.6666666667E+01               0
GRID*              99760               01.0100000000E+03-1.666666667E+01+
*       1.6666666667E+01               0
GRID*              99761               01.0100000000E+03-1.666666667E+01+
*       -1.666666667E+01               0
GRID*              99762               01.0000000000E+031.6666666667E+01+
*       -1.666666667E+01               0
GRID*              99763               01.0000000000E+031.6666666667E+01+
*       1.6666666667E+01               0
GRID*              99764               01.0000000000E+03-1.666666667E+01+
*       1.6666666667E+01               0
GRID*              99765               01.0000000000E+03-1.666666667E+01+
*       -1.666666667E+01               0
GRID*              99766               09.9000000000E+021.6666666667E+01+
*       -1.666666667E+01               0
GRID*              99767               09.9000000000E+021.6666666667E+01+
*       1.6666666667E+01               0
GRID*              99768               09.9000000000E+02-1.666666667E+01+
*       1.6666666667E+01               0
GRID*              99769               09.9000000000E+02-1.666666667E+01+
*       -1.666666667E+01               0
GRID*              99770               09.8000000000E+021.6666666667E+01+
*       -1.666666667E+01               0
GRID*              99771               09.8000000000E+021.6666666667E+01+
*       1.6666666667E+01               0
GRID*              99772               09.8000000000E+02-1.666666667E+01+
*       1.6666666667E+01               0
GRID*              99773               09.8000000000E+02-1.666666667E+01+
*       -1.666666667E+01               0
GRID*              99774               09.7000000000E+021.6666666667E+01+
*       -1.666666667E+01               0
GRID*              99775               09.7000000000E+021.6666666667E+01+
*       1.6666666667E+01               0
GRID*              99776               09.7000000000E+02-1.666666667E+01+
*       1.6666666667E+01               0
GRID*              99777               09.7000000000E+02-1.666666667E+01+
*       -1.666666667E+01               0
GRID*              99778               09.6000000000E+021.6666666667E+01+
*       -1.666666667E+01               0
GRID*              99779               09.6000000000E+021.6666666667E+01+
*       1.6666666667E+01               0
GRID*              99780               09.6000000000E+02-1.666666667E+01+
*       1.6666666667E+01               0
GRID*              99781               09.6000000000E+02-1.666666667E+01+
*       -1.666666667E+01               0
GRID*              99782               09.5000000000E+021.6666666667E+01+
*       -1.666666667E+01               0
GRID*              99783               09.5000000000E+021.6666666667E+01+
*       1.6666666667E+01               0
GRID*              99784               09.5000000000E+02-1.666666667E+01+
*       1.6666666667E+01               0
GRID*              99785               09.5000000000E+02-1.666666667E+01+
*       -1.666666667E+01               0
GRID*              99786               09.4000000000E+021.6666666667E+01+
*       -1.666666667E+01               0
GRID*              99787               09.4000000000E+021.6666666667E+01+
*       1.6666666667E+01               0
GRID*              99788               09.4000000000E+02-1.666666667E+01+
*       1.6666666667E+01               0
GRID*              99789               09.4000000000E+02-1.666666667E+01+
*       -1.666666667E+01               0
GRID*              99790               09.3000000000E+021.6666666667E+01+
*       -1.666666667E+01               0
GRID*              99791               09.3000000000E+021.6666666667E+01+
*       1.6666666667E+01               0
GRID*              99792               09.3000000000E+02-1.666666667E+01+
*       1.6666666667E+01               0
GRID*              99793               09.3000000000E+02-1.666666667E+01+
*       -1.666666667E+01               0
GRID*              99794               09.2000000000E+021.6666666667E+01+
*       -1.666666667E+01               0
GRID*              99795               09.2000000000E+021.6666666667E+01+
*       1.6666666667E+01               0
GRID*              99796               09.2000000000E+02-1.666666667E+01+
*       1.6666666667E+01               0
GRID*              99797               09.2000000000E+02-1.666666667E+01+
*       -1.666666667E+01               0
GRID*              99798               09.1000000000E+021.6666666667E+01+
*       -1.666666667E+01               0
GRID*              99799               09.1000000000E+021.6666666667E+01+
*       1.6666666667E+01               0
GRID*              99800               09.1000000000E+02-1.666666667E+01+
*       1.6666666667E+01               0
GRID*              99801               09.1000000000E+02-1.666666667E+01+
*       -1.666666667E+01               0
GRID*              99802               09.0000000000E+021.6666666667E+01+
*       -1.666666667E+01               0
GRID*              99803               09.0000000000E+021.6666666667E+01+
*       1.6666666667E+01               0
GRID*              99804               09.0000000000E+02-1.666666667E+01+
*       1.6666666667E+01               0
GRID*              99805               09.0000000000E+02-1.666666667E+01+
*       -1.666666667E+01               0
GRID*              99806               08.9000000000E+021.6666666667E+01+
*       -1.666666667E+01               0
GRID*              99807               08.9000000000E+021.6666666667E+01+
*       1.6666666667E+01               0
GRID*              99808               08.9000000000E+02-1.666666667E+01+
*       1.6666666667E+01               0
GRID*              99809               08.9000000000E+02-1.666666667E+01+
*       -1.666666667E+01               0
GRID*              99810               08.8000000000E+021.6666666667E+01+
*       -1.666666667E+01               0
GRID*              99811               08.8000000000E+021.6666666667E+01+
*       1.6666666667E+01               0
GRID*              99812               08.8000000000E+02-1.666666667E+01+
*       1.6666666667E+01               0
GRID*              99813               08.8000000000E+02-1.666666667E+01+
*       -1.666666667E+01               0
GRID*              99814               08.7000000000E+021.6666666667E+01+
*       -1.666666667E+01               0
GRID*              99815               08.7000000000E+021.6666666667E+01+
*       1.6666666667E+01               0
GRID*              99816               08.7000000000E+02-1.666666667E+01+
*       1.6666666667E+01               0
GRID*              99817               08.7000000000E+02-1.666666667E+01+
*       -1.666666667E+01               0
GRID*              99818               08.6000000000E+021.6666666667E+01+
*       -1.666666667E+01               0
GRID*              99819               08.6000000000E+021.6666666667E+01+
*       1.6666666667E+01               0
GRID*              99820               08.6000000000E+02-1.666666667E+01+
*       1.6666666667E+01               0
GRID*              99821               08.6000000000E+02-1.666666667E+01+
*       -1.666666667E+01               0
GRID*              99822               08.5000000000E+021.6666666667E+01+
*       -1.666666667E+01               0
GRID*              99823               08.5000000000E+021.6666666667E+01+
*       1.6666666667E+01               0
GRID*              99824               08.5000000000E+02-1.666666667E+01+
*       1.6666666667E+01               0
GRID*              99825               08.5000000000E+02-1.666666667E+01+
*       -1.666666667E+01               0
GRID*              99826               08.4000000000E+021.6666666667E+01+
*       -1.666666667E+01               0
GRID*              99827               08.4000000000E+021.6666666667E+01+
*       1.6666666667E+01               0
GRID*              99828               08.4000000000E+02-1.666666667E+01+
*       1.6666666667E+01               0
GRID*              99829               08.4000000000E+02-1.666666667E+01+
*       -1.666666667E+01               0
GRID*              99830               08.3000000000E+021.6666666667E+01+
*       -1.666666667E+01               0
GRID*              99831               08.3000000000E+021.6666666667E+01+
*       1.6666666667E+01               0
GRID*              99832               08.3000000000E+02-1.666666667E+01+
*       1.6666666667E+01               0
GRID*              99833               08.3000000000E+02-1.666666667E+01+
*       -1.666666667E+01               0
GRID*              99834               08.2000000000E+021.6666666667E+01+
*       -1.666666667E+01               0
GRID*              99835               08.2000000000E+021.6666666667E+01+
*       1.6666666667E+01               0
GRID*              99836               08.2000000000E+02-1.666666667E+01+
*       1.6666666667E+01               0
GRID*              99837               08.2000000000E+02-1.666666667E+01+
*       -1.666666667E+01               0
GRID*              99838               08.1000000000E+021.6666666667E+01+
*       -1.666666667E+01               0
GRID*              99839               08.1000000000E+021.6666666667E+01+
*       1.6666666667E+01               0
GRID*              99840               08.1000000000E+02-1.666666667E+01+
*       1.6666666667E+01               0
GRID*              99841               08.1000000000E+02-1.666666667E+01+
*       -1.666666667E+01               0
GRID*              99842               08.0000000000E+021.6666666667E+01+
*       -1.666666667E+01               0
GRID*              99843               08.0000000000E+021.6666666667E+01+
*       1.6666666667E+01               0
GRID*              99844               08.0000000000E+02-1.666666667E+01+
*       1.6666666667E+01               0
GRID*              99845               08.0000000000E+02-1.666666667E+01+
*       -1.666666667E+01               0
GRID*              99846               07.9000000000E+021.6666666667E+01+
*       -1.666666667E+01               0
GRID*              99847               07.9000000000E+021.6666666667E+01+
*       1.6666666667E+01               0
GRID*              99848               07.9000000000E+02-1.666666667E+01+
*       1.6666666667E+01               0
GRID*              99849               07.9000000000E+02-1.666666667E+01+
*       -1.666666667E+01               0
GRID*              99850               07.8000000000E+021.6666666667E+01+
*       -1.666666667E+01               0
GRID*              99851               07.8000000000E+021.6666666667E+01+
*       1.6666666667E+01               0
GRID*              99852               07.8000000000E+02-1.666666667E+01+
*       1.6666666667E+01               0
GRID*              99853               07.8000000000E+02-1.666666667E+01+
*       -1.666666667E+01               0
GRID*              99854               07.7000000000E+021.6666666667E+01+
*       -1.666666667E+01               0
GRID*              99855               07.7000000000E+021.6666666667E+01+
*       1.6666666667E+01               0
GRID*              99856               07.7000000000E+02-1.666666667E+01+
*       1.6666666667E+01               0
GRID*              99857               07.7000000000E+02-1.666666667E+01+
*       -1.666666667E+01               0
GRID*              99858               07.6000000000E+021.6666666667E+01+
*       -1.666666667E+01               0
GRID*              99859               07.6000000000E+021.6666666667E+01+
*       1.6666666667E+01               0
GRID*              99860               07.6000000000E+02-1.666666667E+01+
*       1.6666666667E+01               0
GRID*              99861               07.6000000000E+02-1.666666667E+01+
*       -1.666666667E+01               0
GRID*              99862               07.5000000000E+021.6666666667E+01+
*       -1.666666667E+01               0
GRID*              99863               07.5000000000E+021.6666666667E+01+
*       1.6666666667E+01               0
GRID*              99864               07.5000000000E+02-1.666666667E+01+
*       1.6666666667E+01               0
GRID*              99865               07.5000000000E+02-1.666666667E+01+
*       -1.666666667E+01               0
GRID*              99866               07.4000000000E+021.6666666667E+01+
*       -1.666666667E+01               0
GRID*              99867               07.4000000000E+021.6666666667E+01+
*       1.6666666667E+01               0
GRID*              99868               07.4000000000E+02-1.666666667E+01+
*       1.6666666667E+01               0
GRID*              99869               07.4000000000E+02-1.666666667E+01+
*       -1.666666667E+01               0
GRID*              99870               07.3000000000E+021.6666666667E+01+
*       -1.666666667E+01               0
GRID*              99871               07.3000000000E+021.6666666667E+01+
*       1.6666666667E+01               0
GRID*              99872               07.3000000000E+02-1.666666667E+01+
*       1.6666666667E+01               0
GRID*              99873               07.3000000000E+02-1.666666667E+01+
*       -1.666666667E+01               0
GRID*              99874               07.2000000000E+021.6666666667E+01+
*       -1.666666667E+01               0
GRID*              99875               07.2000000000E+021.6666666667E+01+
*       1.6666666667E+01               0
GRID*              99876               07.2000000000E+02-1.666666667E+01+
*       1.6666666667E+01               0
GRID*              99877               07.2000000000E+02-1.666666667E+01+
*       -1.666666667E+01               0
GRID*              99878               07.1000000000E+021.6666666667E+01+
*       -1.666666667E+01               0
GRID*              99879               07.1000000000E+021.6666666667E+01+
*       1.6666666667E+01               0
GRID*              99880               07.1000000000E+02-1.666666667E+01+
*       1.6666666667E+01               0
GRID*              99881               07.1000000000E+02-1.666666667E+01+
*       -1.666666667E+01               0
GRID*              99882               07.0000000000E+021.6666666667E+01+
*       -1.666666667E+01               0
GRID*              99883               07.0000000000E+021.6666666667E+01+
*       1.6666666667E+01               0
GRID*              99884               07.0000000000E+02-1.666666667E+01+
*       1.6666666667E+01               0
GRID*              99885               07.0000000000E+02-1.666666667E+01+
*       -1.666666667E+01               0
GRID*              99886               06.9000000000E+021.6666666667E+01+
*       -1.666666667E+01               0
GRID*              99887               06.9000000000E+021.6666666667E+01+
*       1.6666666667E+01               0
GRID*              99888               06.9000000000E+02-1.666666667E+01+
*       1.6666666667E+01               0
GRID*              99889               06.9000000000E+02-1.666666667E+01+
*       -1.666666667E+01               0
GRID*              99890               06.8000000000E+021.6666666667E+01+
*       -1.666666667E+01               0
GRID*              99891               06.8000000000E+021.6666666667E+01+
*       1.6666666667E+01               0
GRID*              99892               06.8000000000E+02-1.666666667E+01+
*       1.6666666667E+01               0
GRID*              99893               06.8000000000E+02-1.666666667E+01+
*       -1.666666667E+01               0
GRID*              99894               06.7000000000E+021.6666666667E+01+
*       -1.666666667E+01               0
GRID*              99895               06.7000000000E+021.6666666667E+01+
*       1.6666666667E+01               0
GRID*              99896               06.7000000000E+02-1.666666667E+01+
*       1.6666666667E+01               0
GRID*              99897               06.7000000000E+02-1.666666667E+01+
*       -1.666666667E+01               0
GRID*              99898               06.6000000000E+021.6666666667E+01+
*       -1.666666667E+01               0
GRID*              99899               06.6000000000E+021.6666666667E+01+
*       1.6666666667E+01               0
GRID*              99900               06.6000000000E+02-1.666666667E+01+
*       1.6666666667E+01               0
GRID*              99901               06.6000000000E+02-1.666666667E+01+
*       -1.666666667E+01               0
GRID*              99902               06.5000000000E+021.6666666667E+01+
*       -1.666666667E+01               0
GRID*              99903               06.5000000000E+021.6666666667E+01+
*       1.6666666667E+01               0
GRID*              99904               06.5000000000E+02-1.666666667E+01+
*       1.6666666667E+01               0
GRID*              99905               06.5000000000E+02-1.666666667E+01+
*       -1.666666667E+01               0
GRID*              99906               06.4000000000E+021.6666666667E+01+
*       -1.666666667E+01               0
GRID*              99907               06.4000000000E+021.6666666667E+01+
*       1.6666666667E+01               0
GRID*              99908               06.4000000000E+02-1.666666667E+01+
*       1.6666666667E+01               0
GRID*              99909               06.4000000000E+02-1.666666667E+01+
*       -1.666666667E+01               0
GRID*              99910               06.3000000000E+021.6666666667E+01+
*       -1.666666667E+01               0
GRID*              99911               06.3000000000E+021.6666666667E+01+
*       1.6666666667E+01               0
GRID*              99912               06.3000000000E+02-1.666666667E+01+
*       1.6666666667E+01               0
GRID*              99913               06.3000000000E+02-1.666666667E+01+
*       -1.666666667E+01               0
GRID*              99914               06.2000000000E+021.6666666667E+01+
*       -1.666666667E+01               0
GRID*              99915               06.2000000000E+021.6666666667E+01+
*       1.6666666667E+01               0
GRID*              99916               06.2000000000E+02-1.666666667E+01+
*       1.6666666667E+01               0
GRID*              99917               06.2000000000E+02-1.666666667E+01+
*       -1.666666667E+01               0
GRID*              99918               06.1000000000E+021.6666666667E+01+
*       -1.666666667E+01               0
GRID*              99919               06.1000000000E+021.6666666667E+01+
*       1.6666666667E+01               0
GRID*              99920               06.1000000000E+02-1.666666667E+01+
*       1.6666666667E+01               0
GRID*              99921               06.1000000000E+02-1.666666667E+01+
*       -1.666666667E+01               0
GRID*              99922               06.0000000000E+021.6666666667E+01+
*       -1.666666667E+01               0
GRID*              99923               06.0000000000E+021.6666666667E+01+
*       1.6666666667E+01               0
GRID*              99924               06.0000000000E+02-1.666666667E+01+
*       1.6666666667E+01               0
GRID*              99925               06.0000000000E+02-1.666666667E+01+
*       -1.666666667E+01               0
GRID*              99926               05.9000000000E+021.6666666667E+01+
*       -1.666666667E+01               0
GRID*              99927               05.9000000000E+021.6666666667E+01+
*       1.6666666667E+01               0
GRID*              99928               05.9000000000E+02-1.666666667E+01+
*       1.6666666667E+01               0
GRID*              99929               05.9000000000E+02-1.666666667E+01+
*       -1.666666667E+01               0
GRID*              99930               05.8000000000E+021.6666666667E+01+
*       -1.666666667E+01               0
GRID*              99931               05.8000000000E+021.6666666667E+01+
*       1.6666666667E+01               0
GRID*              99932               05.8000000000E+02-1.666666667E+01+
*       1.6666666667E+01               0
GRID*              99933               05.8000000000E+02-1.666666667E+01+
*       -1.666666667E+01               0
GRID*              99934               05.7000000000E+021.6666666667E+01+
*       -1.666666667E+01               0
GRID*              99935               05.7000000000E+021.6666666667E+01+
*       1.6666666667E+01               0
GRID*              99936               05.7000000000E+02-1.666666667E+01+
*       1.6666666667E+01               0
GRID*              99937               05.7000000000E+02-1.666666667E+01+
*       -1.666666667E+01               0
GRID*              99938               05.6000000000E+021.6666666667E+01+
*       -1.666666667E+01               0
GRID*              99939               05.6000000000E+021.6666666667E+01+
*       1.6666666667E+01               0
GRID*              99940               05.6000000000E+02-1.666666667E+01+
*       1.6666666667E+01               0
GRID*              99941               05.6000000000E+02-1.666666667E+01+
*       -1.666666667E+01               0
GRID*              99942               05.5000000000E+021.6666666667E+01+
*       -1.666666667E+01               0
GRID*              99943               05.5000000000E+021.6666666667E+01+
*       1.6666666667E+01               0
GRID*              99944               05.5000000000E+02-1.666666667E+01+
*       1.6666666667E+01               0
GRID*              99945               05.5000000000E+02-1.666666667E+01+
*       -1.666666667E+01               0
GRID*              99946               05.4000000000E+021.6666666667E+01+
*       -1.666666667E+01               0
GRID*              99947               05.4000000000E+021.6666666667E+01+
*       1.6666666667E+01               0
GRID*              99948               05.4000000000E+02-1.666666667E+01+
*       1.6666666667E+01               0
GRID*              99949               05.4000000000E+02-1.666666667E+01+
*       -1.666666667E+01               0
GRID*              99950               05.3000000000E+021.6666666667E+01+
*       -1.666666667E+01               0
GRID*              99951               05.3000000000E+021.6666666667E+01+
*       1.6666666667E+01               0
GRID*              99952               05.3000000000E+02-1.666666667E+01+
*       1.6666666667E+01               0
GRID*              99953               05.3000000000E+02-1.666666667E+01+
*       -1.666666667E+01               0
GRID*              99954               05.2000000000E+021.6666666667E+01+
*       -1.666666667E+01               0
GRID*              99955               05.2000000000E+021.6666666667E+01+
*       1.6666666667E+01               0
GRID*              99956               05.2000000000E+02-1.666666667E+01+
*       1.6666666667E+01               0
GRID*              99957               05.2000000000E+02-1.666666667E+01+
*       -1.666666667E+01               0
GRID*              99958               05.1000000000E+021.6666666667E+01+
*       -1.666666667E+01               0
GRID*              99959               05.1000000000E+021.6666666667E+01+
*       1.6666666667E+01               0
GRID*              99960               05.1000000000E+02-1.666666667E+01+
*       1.6666666667E+01               0
GRID*              99961               05.1000000000E+02-1.666666667E+01+
*       -1.666666667E+01               0
GRID*              99962               05.0000000000E+021.6666666667E+01+
*       -1.666666667E+01               0
GRID*              99963               05.0000000000E+021.6666666667E+01+
*       1.6666666667E+01               0
GRID*              99964               05.0000000000E+02-1.666666667E+01+
*       1.6666666667E+01               0
GRID*              99965               05.0000000000E+02-1.666666667E+01+
*       -1.666666667E+01               0
GRID*              99966               04.9000000000E+021.6666666667E+01+
*       -1.666666667E+01               0
GRID*              99967               04.9000000000E+021.6666666667E+01+
*       1.6666666667E+01               0
GRID*              99968               04.9000000000E+02-1.666666667E+01+
*       1.6666666667E+01               0
GRID*              99969               04.9000000000E+02-1.666666667E+01+
*       -1.666666667E+01               0
GRID*              99970               04.8000000000E+021.6666666667E+01+
*       -1.666666667E+01               0
GRID*              99971               04.8000000000E+021.6666666667E+01+
*       1.6666666667E+01               0
GRID*              99972               04.8000000000E+02-1.666666667E+01+
*       1.6666666667E+01               0
GRID*              99973               04.8000000000E+02-1.666666667E+01+
*       -1.666666667E+01               0
GRID*              99974               04.7000000000E+021.6666666667E+01+
*       -1.666666667E+01               0
GRID*              99975               04.7000000000E+021.6666666667E+01+
*       1.6666666667E+01               0
GRID*              99976               04.7000000000E+02-1.666666667E+01+
*       1.6666666667E+01               0
GRID*              99977               04.7000000000E+02-1.666666667E+01+
*       -1.666666667E+01               0
GRID*              99978               04.6000000000E+021.6666666667E+01+
*       -1.666666667E+01               0
GRID*              99979               04.6000000000E+021.6666666667E+01+
*       1.6666666667E+01               0
GRID*              99980               04.6000000000E+02-1.666666667E+01+
*       1.6666666667E+01               0
GRID*              99981               04.6000000000E+02-1.666666667E+01+
*       -1.666666667E+01               0
GRID*              99982               04.5000000000E+021.6666666667E+01+
*       -1.666666667E+01               0
GRID*              99983               04.5000000000E+021.6666666667E+01+
*       1.6666666667E+01               0
GRID*              99984               04.5000000000E+02-1.666666667E+01+
*       1.6666666667E+01               0
GRID*              99985               04.5000000000E+02-1.666666667E+01+
*       -1.666666667E+01               0
GRID*              99986               04.4000000000E+021.6666666667E+01+
*       -1.666666667E+01               0
GRID*              99987               04.4000000000E+021.6666666667E+01+
*       1.6666666667E+01               0
GRID*              99988               04.4000000000E+02-1.666666667E+01+
*       1.6666666667E+01               0
GRID*              99989               04.4000000000E+02-1.666666667E+01+
*       -1.666666667E+01               0
GRID*              99990               04.3000000000E+021.6666666667E+01+
*       -1.666666667E+01               0
GRID*              99991               04.3000000000E+021.6666666667E+01+
*       1.6666666667E+01               0
GRID*              99992               04.3000000000E+02-1.666666667E+01+
*       1.6666666667E+01               0
GRID*              99993               04.3000000000E+02-1.666666667E+01+
*       -1.666666667E+01               0
GRID*              99994               04.2000000000E+021.6666666667E+01+
*       -1.666666667E+01               0
GRID*              99995               04.2000000000E+021.6666666667E+01+
*       1.6666666667E+01               0
GRID*              99996               04.2000000000E+02-1.666666667E+01+
*       1.6666666667E+01               0
GRID*              99997               04.2000000000E+02-1.666666667E+01+
*       -1.666666667E+01               0
GRID*              99998               04.1000000000E+021.6666666667E+01+
*       -1.666666667E+01               0
GRID*              99999               04.1000000000E+021.6666666667E+01+
*       1.6666666667E+01               0
GRID*             100000               04.1000000000E+02-1.666666667E+01+
*       1.6666666667E+01               0
GRID*             100001               04.1000000000E+02-1.666666667E+01+
*       -1.666666667E+01               0
GRID*             100002               04.0000000000E+021.6666666667E+01+
*       -1.666666667E+01               0
GRID*             100003               04.0000000000E+021.6666666667E+01+
*       1.6666666667E+01               0
GRID*             100004               04.0000000000E+02-1.666666667E+01+
*       1.6666666667E+01               0
GRID*             100005               04.0000000000E+02-1.666666667E+01+
*       -1.666666667E+01               0
GRID*             100006               03.9000000000E+021.6666666667E+01+
*       -1.666666667E+01               0
GRID*             100007               03.9000000000E+021.6666666667E+01+
*       1.6666666667E+01               0
GRID*             100008               03.9000000000E+02-1.666666667E+01+
*       1.6666666667E+01               0
GRID*             100009               03.9000000000E+02-1.666666667E+01+
*       -1.666666667E+01               0
GRID*             100010               03.8000000000E+021.6666666667E+01+
*       -1.666666667E+01               0
GRID*             100011               03.8000000000E+021.6666666667E+01+
*       1.6666666667E+01               0
GRID*             100012               03.8000000000E+02-1.666666667E+01+
*       1.6666666667E+01               0
GRID*             100013               03.8000000000E+02-1.666666667E+01+
*       -1.666666667E+01               0
GRID*             100014               03.7000000000E+021.6666666667E+01+
*       -1.666666667E+01               0
GRID*             100015               03.7000000000E+021.6666666667E+01+
*       1.6666666667E+01               0
GRID*             100016               03.7000000000E+02-1.666666667E+01+
*       1.6666666667E+01               0
GRID*             100017               03.7000000000E+02-1.666666667E+01+
*       -1.666666667E+01               0
GRID*             100018               03.6000000000E+021.6666666667E+01+
*       -1.666666667E+01               0
GRID*             100019               03.6000000000E+021.6666666667E+01+
*       1.6666666667E+01               0
GRID*             100020               03.6000000000E+02-1.666666667E+01+
*       1.6666666667E+01               0
GRID*             100021               03.6000000000E+02-1.666666667E+01+
*       -1.666666667E+01               0
GRID*             100022               03.5000000000E+021.6666666667E+01+
*       -1.666666667E+01               0
GRID*             100023               03.5000000000E+021.6666666667E+01+
*       1.6666666667E+01               0
GRID*             100024               03.5000000000E+02-1.666666667E+01+
*       1.6666666667E+01               0
GRID*             100025               03.5000000000E+02-1.666666667E+01+
*       -1.666666667E+01               0
GRID*             100026               03.4000000000E+021.6666666667E+01+
*       -1.666666667E+01               0
GRID*             100027               03.4000000000E+021.6666666667E+01+
*       1.6666666667E+01               0
GRID*             100028               03.4000000000E+02-1.666666667E+01+
*       1.6666666667E+01               0
GRID*             100029               03.4000000000E+02-1.666666667E+01+
*       -1.666666667E+01               0
GRID*             100030               03.3000000000E+021.6666666667E+01+
*       -1.666666667E+01               0
GRID*             100031               03.3000000000E+021.6666666667E+01+
*       1.6666666667E+01               0
GRID*             100032               03.3000000000E+02-1.666666667E+01+
*       1.6666666667E+01               0
GRID*             100033               03.3000000000E+02-1.666666667E+01+
*       -1.666666667E+01               0
GRID*             100034               03.2000000000E+021.6666666667E+01+
*       -1.666666667E+01               0
GRID*             100035               03.2000000000E+021.6666666667E+01+
*       1.6666666667E+01               0
GRID*             100036               03.2000000000E+02-1.666666667E+01+
*       1.6666666667E+01               0
GRID*             100037               03.2000000000E+02-1.666666667E+01+
*       -1.666666667E+01               0
GRID*             100038               03.1000000000E+021.6666666667E+01+
*       -1.666666667E+01               0
GRID*             100039               03.1000000000E+021.6666666667E+01+
*       1.6666666667E+01               0
GRID*             100040               03.1000000000E+02-1.666666667E+01+
*       1.6666666667E+01               0
GRID*             100041               03.1000000000E+02-1.666666667E+01+
*       -1.666666667E+01               0
GRID*             100042               03.0000000000E+021.6666666667E+01+
*       -1.666666667E+01               0
GRID*             100043               03.0000000000E+021.6666666667E+01+
*       1.6666666667E+01               0
GRID*             100044               03.0000000000E+02-1.666666667E+01+
*       1.6666666667E+01               0
GRID*             100045               03.0000000000E+02-1.666666667E+01+
*       -1.666666667E+01               0
GRID*             100046               02.9000000000E+021.6666666667E+01+
*       -1.666666667E+01               0
GRID*             100047               02.9000000000E+021.6666666667E+01+
*       1.6666666667E+01               0
GRID*             100048               02.9000000000E+02-1.666666667E+01+
*       1.6666666667E+01               0
GRID*             100049               02.9000000000E+02-1.666666667E+01+
*       -1.666666667E+01               0
GRID*             100050               02.8000000000E+021.6666666667E+01+
*       -1.666666667E+01               0
GRID*             100051               02.8000000000E+021.6666666667E+01+
*       1.6666666667E+01               0
GRID*             100052               02.8000000000E+02-1.666666667E+01+
*       1.6666666667E+01               0
GRID*             100053               02.8000000000E+02-1.666666667E+01+
*       -1.666666667E+01               0
GRID*             100054               02.7000000000E+021.6666666667E+01+
*       -1.666666667E+01               0
GRID*             100055               02.7000000000E+021.6666666667E+01+
*       1.6666666667E+01               0
GRID*             100056               02.7000000000E+02-1.666666667E+01+
*       1.6666666667E+01               0
GRID*             100057               02.7000000000E+02-1.666666667E+01+
*       -1.666666667E+01               0
GRID*             100058               02.6000000000E+021.6666666667E+01+
*       -1.666666667E+01               0
GRID*             100059               02.6000000000E+021.6666666667E+01+
*       1.6666666667E+01               0
GRID*             100060               02.6000000000E+02-1.666666667E+01+
*       1.6666666667E+01               0
GRID*             100061               02.6000000000E+02-1.666666667E+01+
*       -1.666666667E+01               0
GRID*             100062               02.5000000000E+021.6666666667E+01+
*       -1.666666667E+01               0
GRID*             100063               02.5000000000E+021.6666666667E+01+
*       1.6666666667E+01               0
GRID*             100064               02.5000000000E+02-1.666666667E+01+
*       1.6666666667E+01               0
GRID*             100065               02.5000000000E+02-1.666666667E+01+
*       -1.666666667E+01               0
GRID*             100066               02.4000000000E+021.6666666667E+01+
*       -1.666666667E+01               0
GRID*             100067               02.4000000000E+021.6666666667E+01+
*       1.6666666667E+01               0
GRID*             100068               02.4000000000E+02-1.666666667E+01+
*       1.6666666667E+01               0
GRID*             100069               02.4000000000E+02-1.666666667E+01+
*       -1.666666667E+01               0
GRID*             100070               02.3000000000E+021.6666666667E+01+
*       -1.666666667E+01               0
GRID*             100071               02.3000000000E+021.6666666667E+01+
*       1.6666666667E+01               0
GRID*             100072               02.3000000000E+02-1.666666667E+01+
*       1.6666666667E+01               0
GRID*             100073               02.3000000000E+02-1.666666667E+01+
*       -1.666666667E+01               0
GRID*             100074               02.2000000000E+021.6666666667E+01+
*       -1.666666667E+01               0
GRID*             100075               02.2000000000E+021.6666666667E+01+
*       1.6666666667E+01               0
GRID*             100076               02.2000000000E+02-1.666666667E+01+
*       1.6666666667E+01               0
GRID*             100077               02.2000000000E+02-1.666666667E+01+
*       -1.666666667E+01               0
GRID*             100078               02.1000000000E+021.6666666667E+01+
*       -1.666666667E+01               0
GRID*             100079               02.1000000000E+021.6666666667E+01+
*       1.6666666667E+01               0
GRID*             100080               02.1000000000E+02-1.666666667E+01+
*       1.6666666667E+01               0
GRID*             100081               02.1000000000E+02-1.666666667E+01+
*       -1.666666667E+01               0
GRID*             100082               02.0000000000E+021.6666666667E+01+
*       -1.666666667E+01               0
GRID*             100083               02.0000000000E+021.6666666667E+01+
*       1.6666666667E+01               0
GRID*             100084               02.0000000000E+02-1.666666667E+01+
*       1.6666666667E+01               0
GRID*             100085               02.0000000000E+02-1.666666667E+01+
*       -1.666666667E+01               0
GRID*             100086               01.9000000000E+021.6666666667E+01+
*       -1.666666667E+01               0
GRID*             100087               01.9000000000E+021.6666666667E+01+
*       1.6666666667E+01               0
GRID*             100088               01.9000000000E+02-1.666666667E+01+
*       1.6666666667E+01               0
GRID*             100089               01.9000000000E+02-1.666666667E+01+
*       -1.666666667E+01               0
GRID*             100090               01.8000000000E+021.6666666667E+01+
*       -1.666666667E+01               0
GRID*             100091               01.8000000000E+021.6666666667E+01+
*       1.6666666667E+01               0
GRID*             100092               01.8000000000E+02-1.666666667E+01+
*       1.6666666667E+01               0
GRID*             100093               01.8000000000E+02-1.666666667E+01+
*       -1.666666667E+01               0
GRID*             100094               01.7000000000E+021.6666666667E+01+
*       -1.666666667E+01               0
GRID*             100095               01.7000000000E+021.6666666667E+01+
*       1.6666666667E+01               0
GRID*             100096               01.7000000000E+02-1.666666667E+01+
*       1.6666666667E+01               0
GRID*             100097               01.7000000000E+02-1.666666667E+01+
*       -1.666666667E+01               0
GRID*             100098               01.6000000000E+021.6666666667E+01+
*       -1.666666667E+01               0
GRID*             100099               01.6000000000E+021.6666666667E+01+
*       1.6666666667E+01               0
GRID*             100100               01.6000000000E+02-1.666666667E+01+
*       1.6666666667E+01               0
GRID*             100101               01.6000000000E+02-1.666666667E+01+
*       -1.666666667E+01               0
GRID*             100102               01.5000000000E+021.6666666667E+01+
*       -1.666666667E+01               0
GRID*             100103               01.5000000000E+021.6666666667E+01+
*       1.6666666667E+01               0
GRID*             100104               01.5000000000E+02-1.666666667E+01+
*       1.6666666667E+01               0
GRID*             100105               01.5000000000E+02-1.666666667E+01+
*       -1.666666667E+01               0
GRID*             100106               01.4000000000E+021.6666666667E+01+
*       -1.666666667E+01               0
GRID*             100107               01.4000000000E+021.6666666667E+01+
*       1.6666666667E+01               0
GRID*             100108               01.4000000000E+02-1.666666667E+01+
*       1.6666666667E+01               0
GRID*             100109               01.4000000000E+02-1.666666667E+01+
*       -1.666666667E+01               0
GRID*             100110               01.3000000000E+021.6666666667E+01+
*       -1.666666667E+01               0
GRID*             100111               01.3000000000E+021.6666666667E+01+
*       1.6666666667E+01               0
GRID*             100112               01.3000000000E+02-1.666666667E+01+
*       1.6666666667E+01               0
GRID*             100113               01.3000000000E+02-1.666666667E+01+
*       -1.666666667E+01               0
GRID*             100114               01.2000000000E+021.6666666667E+01+
*       -1.666666667E+01               0
GRID*             100115               01.2000000000E+021.6666666667E+01+
*       1.6666666667E+01               0
GRID*             100116               01.2000000000E+02-1.666666667E+01+
*       1.6666666667E+01               0
GRID*             100117               01.2000000000E+02-1.666666667E+01+
*       -1.666666667E+01               0
GRID*             100118               01.1000000000E+021.6666666667E+01+
*       -1.666666667E+01               0
GRID*             100119               01.1000000000E+021.6666666667E+01+
*       1.6666666667E+01               0
GRID*             100120               01.1000000000E+02-1.666666667E+01+
*       1.6666666667E+01               0
GRID*             100121               01.1000000000E+02-1.666666667E+01+
*       -1.666666667E+01               0
GRID*             100122               01.0000000000E+021.6666666667E+01+
*       -1.666666667E+01               0
GRID*             100123               01.0000000000E+021.6666666667E+01+
*       1.6666666667E+01               0
GRID*             100124               01.0000000000E+02-1.666666667E+01+
*       1.6666666667E+01               0
GRID*             100125               01.0000000000E+02-1.666666667E+01+
*       -1.666666667E+01               0
GRID*             100126               09.0000000000E+011.6666666667E+01+
*       -1.666666667E+01               0
GRID*             100127               09.0000000000E+011.6666666667E+01+
*       1.6666666667E+01               0
GRID*             100128               09.0000000000E+01-1.666666667E+01+
*       1.6666666667E+01               0
GRID*             100129               09.0000000000E+01-1.666666667E+01+
*       -1.666666667E+01               0
GRID*             100130               08.0000000000E+011.6666666667E+01+
*       -1.666666667E+01               0
GRID*             100131               08.0000000000E+011.6666666667E+01+
*       1.6666666667E+01               0
GRID*             100132               08.0000000000E+01-1.666666667E+01+
*       1.6666666667E+01               0
GRID*             100133               08.0000000000E+01-1.666666667E+01+
*       -1.666666667E+01               0
GRID*             100134               07.0000000000E+011.6666666667E+01+
*       -1.666666667E+01               0
GRID*             100135               07.0000000000E+011.6666666667E+01+
*       1.6666666667E+01               0
GRID*             100136               07.0000000000E+01-1.666666667E+01+
*       1.6666666667E+01               0
GRID*             100137               07.0000000000E+01-1.666666667E+01+
*       -1.666666667E+01               0
GRID*             100138               06.0000000000E+011.6666666667E+01+
*       -1.666666667E+01               0
GRID*             100139               06.0000000000E+011.6666666667E+01+
*       1.6666666667E+01               0
GRID*             100140               06.0000000000E+01-1.666666667E+01+
*       1.6666666667E+01               0
GRID*             100141               06.0000000000E+01-1.666666667E+01+
*       -1.666666667E+01               0
GRID*             100142               05.0000000000E+011.6666666667E+01+
*       -1.666666667E+01               0
GRID*             100143               05.0000000000E+011.6666666667E+01+
*       1.6666666667E+01               0
GRID*             100144               05.0000000000E+01-1.666666667E+01+
*       1.6666666667E+01               0
GRID*             100145               05.0000000000E+01-1.666666667E+01+
*       -1.666666667E+01               0
GRID*             100146               04.0000000000E+011.6666666667E+01+
*       -1.666666667E+01               0
GRID*             100147               04.0000000000E+011.6666666667E+01+
*       1.6666666667E+01               0
GRID*             100148               04.0000000000E+01-1.666666667E+01+
*       1.6666666667E+01               0
GRID*             100149               04.0000000000E+01-1.666666667E+01+
*       -1.666666667E+01               0
GRID*             100150               03.0000000000E+011.6666666667E+01+
*       -1.666666667E+01               0
GRID*             100151               03.0000000000E+011.6666666667E+01+
*       1.6666666667E+01               0
GRID*             100152               03.0000000000E+01-1.666666667E+01+
*       1.6666666667E+01               0
GRID*             100153               03.0000000000E+01-1.666666667E+01+
*       -1.666666667E+01               0
GRID*             100154               02.0000000000E+011.6666666667E+01+
*       -1.666666667E+01               0
GRID*             100155               02.0000000000E+011.6666666667E+01+
*       1.6666666667E+01               0
GRID*             100156               02.0000000000E+01-1.666666667E+01+
*       1.6666666667E+01               0
GRID*             100157               02.0000000000E+01-1.666666667E+01+
*       -1.666666667E+01               0
GRID*             100158               01.0000000000E+011.6666666667E+01+
*       -1.666666667E+01               0
GRID*             100159               01.0000000000E+011.6666666667E+01+
*       1.6666666667E+01               0
GRID*             100160               01.0000000000E+01-1.666666667E+01+
*       1.6666666667E+01               0
GRID*             100161               01.0000000000E+01-1.666666667E+01+
*       -1.666666667E+01               0
GRID*             100162               04.0000000000E+03-5.000000000E+01+
*       -5.000000000E+01               0
GRID*             100163               04.0000000000E+03-5.000000000E+01+
*       5.0000000000E+01               0
GRID*             100164               04.0000000000E+035.0000000000E+01+
*       -5.000000000E+01               0
GRID*             100165               04.0000000000E+035.0000000000E+01+
*       5.0000000000E+01               0
GRID*             100166               03.9900000000E+03-5.000000000E+01+
*       -5.000000000E+01               0
GRID*             100167               03.9800000000E+03-5.000000000E+01+
*       -5.000000000E+01               0
GRID*             100168               03.9700000000E+03-5.000000000E+01+
*       -5.000000000E+01               0
GRID*             100169               03.9600000000E+03-5.000000000E+01+
*       -5.000000000E+01               0
GRID*             100170               03.9500000000E+03-5.000000000E+01+
*       -5.000000000E+01               0
GRID*             100171               03.9400000000E+03-5.000000000E+01+
*       -5.000000000E+01               0
GRID*             100172               03.9300000000E+03-5.000000000E+01+
*       -5.000000000E+01               0
GRID*             100173               03.9200000000E+03-5.000000000E+01+
*       -5.000000000E+01               0
GRID*             100174               03.9100000000E+03-5.000000000E+01+
*       -5.000000000E+01               0
GRID*             100175               03.9000000000E+03-5.000000000E+01+
*       -5.000000000E+01               0
GRID*             100176               03.8900000000E+03-5.000000000E+01+
*       -5.000000000E+01               0
GRID*             100177               03.8800000000E+03-5.000000000E+01+
*       -5.000000000E+01               0
GRID*             100178               03.8700000000E+03-5.000000000E+01+
*       -5.000000000E+01               0
GRID*             100179               03.8600000000E+03-5.000000000E+01+
*       -5.000000000E+01               0
GRID*             100180               03.8500000000E+03-5.000000000E+01+
*       -5.000000000E+01               0
GRID*             100181               03.8400000000E+03-5.000000000E+01+
*       -5.000000000E+01               0
GRID*             100182               03.8300000000E+03-5.000000000E+01+
*       -5.000000000E+01               0
GRID*             100183               03.8200000000E+03-5.000000000E+01+
*       -5.000000000E+01               0
GRID*             100184               03.8100000000E+03-5.000000000E+01+
*       -5.000000000E+01               0
GRID*             100185               03.8000000000E+03-5.000000000E+01+
*       -5.000000000E+01               0
GRID*             100186               03.7900000000E+03-5.000000000E+01+
*       -5.000000000E+01               0
GRID*             100187               03.7800000000E+03-5.000000000E+01+
*       -5.000000000E+01               0
GRID*             100188               03.7700000000E+03-5.000000000E+01+
*       -5.000000000E+01               0
GRID*             100189               03.7600000000E+03-5.000000000E+01+
*       -5.000000000E+01               0
GRID*             100190               03.7500000000E+03-5.000000000E+01+
*       -5.000000000E+01               0
GRID*             100191               03.7400000000E+03-5.000000000E+01+
*       -5.000000000E+01               0
GRID*             100192               03.7300000000E+03-5.000000000E+01+
*       -5.000000000E+01               0
GRID*             100193               03.7200000000E+03-5.000000000E+01+
*       -5.000000000E+01               0
GRID*             100194               03.7100000000E+03-5.000000000E+01+
*       -5.000000000E+01               0
GRID*             100195               03.7000000000E+03-5.000000000E+01+
*       -5.000000000E+01               0
GRID*             100196               03.6900000000E+03-5.000000000E+01+
*       -5.000000000E+01               0
GRID*             100197               03.6800000000E+03-5.000000000E+01+
*       -5.000000000E+01               0
GRID*             100198               03.6700000000E+03-5.000000000E+01+
*       -5.000000000E+01               0
GRID*             100199               03.6600000000E+03-5.000000000E+01+
*       -5.000000000E+01               0
GRID*             100200               03.6500000000E+03-5.000000000E+01+
*       -5.000000000E+01               0
GRID*             100201               03.6400000000E+03-5.000000000E+01+
*       -5.000000000E+01               0
GRID*             100202               03.6300000000E+03-5.000000000E+01+
*       -5.000000000E+01               0
GRID*             100203               03.6200000000E+03-5.000000000E+01+
*       -5.000000000E+01               0
GRID*             100204               03.6100000000E+03-5.000000000E+01+
*       -5.000000000E+01               0
GRID*             100205               03.6000000000E+03-5.000000000E+01+
*       -5.000000000E+01               0
GRID*             100206               03.5900000000E+03-5.000000000E+01+
*       -5.000000000E+01               0
GRID*             100207               03.5800000000E+03-5.000000000E+01+
*       -5.000000000E+01               0
GRID*             100208               03.5700000000E+03-5.000000000E+01+
*       -5.000000000E+01               0
GRID*             100209               03.5600000000E+03-5.000000000E+01+
*       -5.000000000E+01               0
GRID*             100210               03.5500000000E+03-5.000000000E+01+
*       -5.000000000E+01               0
GRID*             100211               03.5400000000E+03-5.000000000E+01+
*       -5.000000000E+01               0
GRID*             100212               03.5300000000E+03-5.000000000E+01+
*       -5.000000000E+01               0
GRID*             100213               03.5200000000E+03-5.000000000E+01+
*       -5.000000000E+01               0
GRID*             100214               03.5100000000E+03-5.000000000E+01+
*       -5.000000000E+01               0
GRID*             100215               03.5000000000E+03-5.000000000E+01+
*       -5.000000000E+01               0
GRID*             100216               03.4900000000E+03-5.000000000E+01+
*       -5.000000000E+01               0
GRID*             100217               03.4800000000E+03-5.000000000E+01+
*       -5.000000000E+01               0
GRID*             100218               03.4700000000E+03-5.000000000E+01+
*       -5.000000000E+01               0
GRID*             100219               03.4600000000E+03-5.000000000E+01+
*       -5.000000000E+01               0
GRID*             100220               03.4500000000E+03-5.000000000E+01+
*       -5.000000000E+01               0
GRID*             100221               03.4400000000E+03-5.000000000E+01+
*       -5.000000000E+01               0
GRID*             100222               03.4300000000E+03-5.000000000E+01+
*       -5.000000000E+01               0
GRID*             100223               03.4200000000E+03-5.000000000E+01+
*       -5.000000000E+01               0
GRID*             100224               03.4100000000E+03-5.000000000E+01+
*       -5.000000000E+01               0
GRID*             100225               03.4000000000E+03-5.000000000E+01+
*       -5.000000000E+01               0
GRID*             100226               03.3900000000E+03-5.000000000E+01+
*       -5.000000000E+01               0
GRID*             100227               03.3800000000E+03-5.000000000E+01+
*       -5.000000000E+01               0
GRID*             100228               03.3700000000E+03-5.000000000E+01+
*       -5.000000000E+01               0
GRID*             100229               03.3600000000E+03-5.000000000E+01+
*       -5.000000000E+01               0
GRID*             100230               03.3500000000E+03-5.000000000E+01+
*       -5.000000000E+01               0
GRID*             100231               03.3400000000E+03-5.000000000E+01+
*       -5.000000000E+01               0
GRID*             100232               03.3300000000E+03-5.000000000E+01+
*       -5.000000000E+01               0
GRID*             100233               03.3200000000E+03-5.000000000E+01+
*       -5.000000000E+01               0
GRID*             100234               03.3100000000E+03-5.000000000E+01+
*       -5.000000000E+01               0
GRID*             100235               03.3000000000E+03-5.000000000E+01+
*       -5.000000000E+01               0
GRID*             100236               03.2900000000E+03-5.000000000E+01+
*       -5.000000000E+01               0
GRID*             100237               03.2800000000E+03-5.000000000E+01+
*       -5.000000000E+01               0
GRID*             100238               03.2700000000E+03-5.000000000E+01+
*       -5.000000000E+01               0
GRID*             100239               03.2600000000E+03-5.000000000E+01+
*       -5.000000000E+01               0
GRID*             100240               03.2500000000E+03-5.000000000E+01+
*       -5.000000000E+01               0
GRID*             100241               03.2400000000E+03-5.000000000E+01+
*       -5.000000000E+01               0
GRID*             100242               03.2300000000E+03-5.000000000E+01+
*       -5.000000000E+01               0
GRID*             100243               03.2200000000E+03-5.000000000E+01+
*       -5.000000000E+01               0
GRID*             100244               03.2100000000E+03-5.000000000E+01+
*       -5.000000000E+01               0
GRID*             100245               03.2000000000E+03-5.000000000E+01+
*       -5.000000000E+01               0
GRID*             100246               03.1900000000E+03-5.000000000E+01+
*       -5.000000000E+01               0
GRID*             100247               03.1800000000E+03-5.000000000E+01+
*       -5.000000000E+01               0
GRID*             100248               03.1700000000E+03-5.000000000E+01+
*       -5.000000000E+01               0
GRID*             100249               03.1600000000E+03-5.000000000E+01+
*       -5.000000000E+01               0
GRID*             100250               03.1500000000E+03-5.000000000E+01+
*       -5.000000000E+01               0
GRID*             100251               03.1400000000E+03-5.000000000E+01+
*       -5.000000000E+01               0
GRID*             100252               03.1300000000E+03-5.000000000E+01+
*       -5.000000000E+01               0
GRID*             100253               03.1200000000E+03-5.000000000E+01+
*       -5.000000000E+01               0
GRID*             100254               03.1100000000E+03-5.000000000E+01+
*       -5.000000000E+01               0
GRID*             100255               03.1000000000E+03-5.000000000E+01+
*       -5.000000000E+01               0
GRID*             100256               03.0900000000E+03-5.000000000E+01+
*       -5.000000000E+01               0
GRID*             100257               03.0800000000E+03-5.000000000E+01+
*       -5.000000000E+01               0
GRID*             100258               03.0700000000E+03-5.000000000E+01+
*       -5.000000000E+01               0
GRID*             100259               03.0600000000E+03-5.000000000E+01+
*       -5.000000000E+01               0
GRID*             100260               03.0500000000E+03-5.000000000E+01+
*       -5.000000000E+01               0
GRID*             100261               03.0400000000E+03-5.000000000E+01+
*       -5.000000000E+01               0
GRID*             100262               03.0300000000E+03-5.000000000E+01+
*       -5.000000000E+01               0
GRID*             100263               03.0200000000E+03-5.000000000E+01+
*       -5.000000000E+01               0
GRID*             100264               03.0100000000E+03-5.000000000E+01+
*       -5.000000000E+01               0
GRID*             100265               03.0000000000E+03-5.000000000E+01+
*       -5.000000000E+01               0
GRID*             100266               02.9900000000E+03-5.000000000E+01+
*       -5.000000000E+01               0
GRID*             100267               02.9800000000E+03-5.000000000E+01+
*       -5.000000000E+01               0
GRID*             100268               02.9700000000E+03-5.000000000E+01+
*       -5.000000000E+01               0
GRID*             100269               02.9600000000E+03-5.000000000E+01+
*       -5.000000000E+01               0
GRID*             100270               02.9500000000E+03-5.000000000E+01+
*       -5.000000000E+01               0
GRID*             100271               02.9400000000E+03-5.000000000E+01+
*       -5.000000000E+01               0
GRID*             100272               02.9300000000E+03-5.000000000E+01+
*       -5.000000000E+01               0
GRID*             100273               02.9200000000E+03-5.000000000E+01+
*       -5.000000000E+01               0
GRID*             100274               02.9100000000E+03-5.000000000E+01+
*       -5.000000000E+01               0
GRID*             100275               02.9000000000E+03-5.000000000E+01+
*       -5.000000000E+01               0
GRID*             100276               02.8900000000E+03-5.000000000E+01+
*       -5.000000000E+01               0
GRID*             100277               02.8800000000E+03-5.000000000E+01+
*       -5.000000000E+01               0
GRID*             100278               02.8700000000E+03-5.000000000E+01+
*       -5.000000000E+01               0
GRID*             100279               02.8600000000E+03-5.000000000E+01+
*       -5.000000000E+01               0
GRID*             100280               02.8500000000E+03-5.000000000E+01+
*       -5.000000000E+01               0
GRID*             100281               02.8400000000E+03-5.000000000E+01+
*       -5.000000000E+01               0
GRID*             100282               02.8300000000E+03-5.000000000E+01+
*       -5.000000000E+01               0
GRID*             100283               02.8200000000E+03-5.000000000E+01+
*       -5.000000000E+01               0
GRID*             100284               02.8100000000E+03-5.000000000E+01+
*       -5.000000000E+01               0
GRID*             100285               02.8000000000E+03-5.000000000E+01+
*       -5.000000000E+01               0
GRID*             100286               02.7900000000E+03-5.000000000E+01+
*       -5.000000000E+01               0
GRID*             100287               02.7800000000E+03-5.000000000E+01+
*       -5.000000000E+01               0
GRID*             100288               02.7700000000E+03-5.000000000E+01+
*       -5.000000000E+01               0
GRID*             100289               02.7600000000E+03-5.000000000E+01+
*       -5.000000000E+01               0
GRID*             100290               02.7500000000E+03-5.000000000E+01+
*       -5.000000000E+01               0
GRID*             100291               02.7400000000E+03-5.000000000E+01+
*       -5.000000000E+01               0
GRID*             100292               02.7300000000E+03-5.000000000E+01+
*       -5.000000000E+01               0
GRID*             100293               02.7200000000E+03-5.000000000E+01+
*       -5.000000000E+01               0
GRID*             100294               02.7100000000E+03-5.000000000E+01+
*       -5.000000000E+01               0
GRID*             100295               02.7000000000E+03-5.000000000E+01+
*       -5.000000000E+01               0
GRID*             100296               02.6900000000E+03-5.000000000E+01+
*       -5.000000000E+01               0
GRID*             100297               02.6800000000E+03-5.000000000E+01+
*       -5.000000000E+01               0
GRID*             100298               02.6700000000E+03-5.000000000E+01+
*       -5.000000000E+01               0
GRID*             100299               02.6600000000E+03-5.000000000E+01+
*       -5.000000000E+01               0
GRID*             100300               02.6500000000E+03-5.000000000E+01+
*       -5.000000000E+01               0
GRID*             100301               02.6400000000E+03-5.000000000E+01+
*       -5.000000000E+01               0
GRID*             100302               02.6300000000E+03-5.000000000E+01+
*       -5.000000000E+01               0
GRID*             100303               02.6200000000E+03-5.000000000E+01+
*       -5.000000000E+01               0
GRID*             100304               02.6100000000E+03-5.000000000E+01+
*       -5.000000000E+01               0
GRID*             100305               02.6000000000E+03-5.000000000E+01+
*       -5.000000000E+01               0
GRID*             100306               02.5900000000E+03-5.000000000E+01+
*       -5.000000000E+01               0
GRID*             100307               02.5800000000E+03-5.000000000E+01+
*       -5.000000000E+01               0
GRID*             100308               02.5700000000E+03-5.000000000E+01+
*       -5.000000000E+01               0
GRID*             100309               02.5600000000E+03-5.000000000E+01+
*       -5.000000000E+01               0
GRID*             100310               02.5500000000E+03-5.000000000E+01+
*       -5.000000000E+01               0
GRID*             100311               02.5400000000E+03-5.000000000E+01+
*       -5.000000000E+01               0
GRID*             100312               02.5300000000E+03-5.000000000E+01+
*       -5.000000000E+01               0
GRID*             100313               02.5200000000E+03-5.000000000E+01+
*       -5.000000000E+01               0
GRID*             100314               02.5100000000E+03-5.000000000E+01+
*       -5.000000000E+01               0
GRID*             100315               02.5000000000E+03-5.000000000E+01+
*       -5.000000000E+01               0
GRID*             100316               02.4900000000E+03-5.000000000E+01+
*       -5.000000000E+01               0
GRID*             100317               02.4800000000E+03-5.000000000E+01+
*       -5.000000000E+01               0
GRID*             100318               02.4700000000E+03-5.000000000E+01+
*       -5.000000000E+01               0
GRID*             100319               02.4600000000E+03-5.000000000E+01+
*       -5.000000000E+01               0
GRID*             100320               02.4500000000E+03-5.000000000E+01+
*       -5.000000000E+01               0
GRID*             100321               02.4400000000E+03-5.000000000E+01+
*       -5.000000000E+01               0
GRID*             100322               02.4300000000E+03-5.000000000E+01+
*       -5.000000000E+01               0
GRID*             100323               02.4200000000E+03-5.000000000E+01+
*       -5.000000000E+01               0
GRID*             100324               02.4100000000E+03-5.000000000E+01+
*       -5.000000000E+01               0
GRID*             100325               02.4000000000E+03-5.000000000E+01+
*       -5.000000000E+01               0
GRID*             100326               02.3900000000E+03-5.000000000E+01+
*       -5.000000000E+01               0
GRID*             100327               02.3800000000E+03-5.000000000E+01+
*       -5.000000000E+01               0
GRID*             100328               02.3700000000E+03-5.000000000E+01+
*       -5.000000000E+01               0
GRID*             100329               02.3600000000E+03-5.000000000E+01+
*       -5.000000000E+01               0
GRID*             100330               02.3500000000E+03-5.000000000E+01+
*       -5.000000000E+01               0
GRID*             100331               02.3400000000E+03-5.000000000E+01+
*       -5.000000000E+01               0
GRID*             100332               02.3300000000E+03-5.000000000E+01+
*       -5.000000000E+01               0
GRID*             100333               02.3200000000E+03-5.000000000E+01+
*       -5.000000000E+01               0
GRID*             100334               02.3100000000E+03-5.000000000E+01+
*       -5.000000000E+01               0
GRID*             100335               02.3000000000E+03-5.000000000E+01+
*       -5.000000000E+01               0
GRID*             100336               02.2900000000E+03-5.000000000E+01+
*       -5.000000000E+01               0
GRID*             100337               02.2800000000E+03-5.000000000E+01+
*       -5.000000000E+01               0
GRID*             100338               02.2700000000E+03-5.000000000E+01+
*       -5.000000000E+01               0
GRID*             100339               02.2600000000E+03-5.000000000E+01+
*       -5.000000000E+01               0
GRID*             100340               02.2500000000E+03-5.000000000E+01+
*       -5.000000000E+01               0
GRID*             100341               02.2400000000E+03-5.000000000E+01+
*       -5.000000000E+01               0
GRID*             100342               02.2300000000E+03-5.000000000E+01+
*       -5.000000000E+01               0
GRID*             100343               02.2200000000E+03-5.000000000E+01+
*       -5.000000000E+01               0
GRID*             100344               02.2100000000E+03-5.000000000E+01+
*       -5.000000000E+01               0
GRID*             100345               02.2000000000E+03-5.000000000E+01+
*       -5.000000000E+01               0
GRID*             100346               02.1900000000E+03-5.000000000E+01+
*       -5.000000000E+01               0
GRID*             100347               02.1800000000E+03-5.000000000E+01+
*       -5.000000000E+01               0
GRID*             100348               02.1700000000E+03-5.000000000E+01+
*       -5.000000000E+01               0
GRID*             100349               02.1600000000E+03-5.000000000E+01+
*       -5.000000000E+01               0
GRID*             100350               02.1500000000E+03-5.000000000E+01+
*       -5.000000000E+01               0
GRID*             100351               02.1400000000E+03-5.000000000E+01+
*       -5.000000000E+01               0
GRID*             100352               02.1300000000E+03-5.000000000E+01+
*       -5.000000000E+01               0
GRID*             100353               02.1200000000E+03-5.000000000E+01+
*       -5.000000000E+01               0
GRID*             100354               02.1100000000E+03-5.000000000E+01+
*       -5.000000000E+01               0
GRID*             100355               02.1000000000E+03-5.000000000E+01+
*       -5.000000000E+01               0
GRID*             100356               02.0900000000E+03-5.000000000E+01+
*       -5.000000000E+01               0
GRID*             100357               02.0800000000E+03-5.000000000E+01+
*       -5.000000000E+01               0
GRID*             100358               02.0700000000E+03-5.000000000E+01+
*       -5.000000000E+01               0
GRID*             100359               02.0600000000E+03-5.000000000E+01+
*       -5.000000000E+01               0
GRID*             100360               02.0500000000E+03-5.000000000E+01+
*       -5.000000000E+01               0
GRID*             100361               02.0400000000E+03-5.000000000E+01+
*       -5.000000000E+01               0
GRID*             100362               02.0300000000E+03-5.000000000E+01+
*       -5.000000000E+01               0
GRID*             100363               02.0200000000E+03-5.000000000E+01+
*       -5.000000000E+01               0
GRID*             100364               02.0100000000E+03-5.000000000E+01+
*       -5.000000000E+01               0
GRID*             100365               03.9900000000E+03-5.000000000E+01+
*       5.0000000000E+01               0
GRID*             100366               03.9800000000E+03-5.000000000E+01+
*       5.0000000000E+01               0
GRID*             100367               03.9700000000E+03-5.000000000E+01+
*       5.0000000000E+01               0
GRID*             100368               03.9600000000E+03-5.000000000E+01+
*       5.0000000000E+01               0
GRID*             100369               03.9500000000E+03-5.000000000E+01+
*       5.0000000000E+01               0
GRID*             100370               03.9400000000E+03-5.000000000E+01+
*       5.0000000000E+01               0
GRID*             100371               03.9300000000E+03-5.000000000E+01+
*       5.0000000000E+01               0
GRID*             100372               03.9200000000E+03-5.000000000E+01+
*       5.0000000000E+01               0
GRID*             100373               03.9100000000E+03-5.000000000E+01+
*       5.0000000000E+01               0
GRID*             100374               03.9000000000E+03-5.000000000E+01+
*       5.0000000000E+01               0
GRID*             100375               03.8900000000E+03-5.000000000E+01+
*       5.0000000000E+01               0
GRID*             100376               03.8800000000E+03-5.000000000E+01+
*       5.0000000000E+01               0
GRID*             100377               03.8700000000E+03-5.000000000E+01+
*       5.0000000000E+01               0
GRID*             100378               03.8600000000E+03-5.000000000E+01+
*       5.0000000000E+01               0
GRID*             100379               03.8500000000E+03-5.000000000E+01+
*       5.0000000000E+01               0
GRID*             100380               03.8400000000E+03-5.000000000E+01+
*       5.0000000000E+01               0
GRID*             100381               03.8300000000E+03-5.000000000E+01+
*       5.0000000000E+01               0
GRID*             100382               03.8200000000E+03-5.000000000E+01+
*       5.0000000000E+01               0
GRID*             100383               03.8100000000E+03-5.000000000E+01+
*       5.0000000000E+01               0
GRID*             100384               03.8000000000E+03-5.000000000E+01+
*       5.0000000000E+01               0
GRID*             100385               03.7900000000E+03-5.000000000E+01+
*       5.0000000000E+01               0
GRID*             100386               03.7800000000E+03-5.000000000E+01+
*       5.0000000000E+01               0
GRID*             100387               03.7700000000E+03-5.000000000E+01+
*       5.0000000000E+01               0
GRID*             100388               03.7600000000E+03-5.000000000E+01+
*       5.0000000000E+01               0
GRID*             100389               03.7500000000E+03-5.000000000E+01+
*       5.0000000000E+01               0
GRID*             100390               03.7400000000E+03-5.000000000E+01+
*       5.0000000000E+01               0
GRID*             100391               03.7300000000E+03-5.000000000E+01+
*       5.0000000000E+01               0
GRID*             100392               03.7200000000E+03-5.000000000E+01+
*       5.0000000000E+01               0
GRID*             100393               03.7100000000E+03-5.000000000E+01+
*       5.0000000000E+01               0
GRID*             100394               03.7000000000E+03-5.000000000E+01+
*       5.0000000000E+01               0
GRID*             100395               03.6900000000E+03-5.000000000E+01+
*       5.0000000000E+01               0
GRID*             100396               03.6800000000E+03-5.000000000E+01+
*       5.0000000000E+01               0
GRID*             100397               03.6700000000E+03-5.000000000E+01+
*       5.0000000000E+01               0
GRID*             100398               03.6600000000E+03-5.000000000E+01+
*       5.0000000000E+01               0
GRID*             100399               03.6500000000E+03-5.000000000E+01+
*       5.0000000000E+01               0
GRID*             100400               03.6400000000E+03-5.000000000E+01+
*       5.0000000000E+01               0
GRID*             100401               03.6300000000E+03-5.000000000E+01+
*       5.0000000000E+01               0
GRID*             100402               03.6200000000E+03-5.000000000E+01+
*       5.0000000000E+01               0
GRID*             100403               03.6100000000E+03-5.000000000E+01+
*       5.0000000000E+01               0
GRID*             100404               03.6000000000E+03-5.000000000E+01+
*       5.0000000000E+01               0
GRID*             100405               03.5900000000E+03-5.000000000E+01+
*       5.0000000000E+01               0
GRID*             100406               03.5800000000E+03-5.000000000E+01+
*       5.0000000000E+01               0
GRID*             100407               03.5700000000E+03-5.000000000E+01+
*       5.0000000000E+01               0
GRID*             100408               03.5600000000E+03-5.000000000E+01+
*       5.0000000000E+01               0
GRID*             100409               03.5500000000E+03-5.000000000E+01+
*       5.0000000000E+01               0
GRID*             100410               03.5400000000E+03-5.000000000E+01+
*       5.0000000000E+01               0
GRID*             100411               03.5300000000E+03-5.000000000E+01+
*       5.0000000000E+01               0
GRID*             100412               03.5200000000E+03-5.000000000E+01+
*       5.0000000000E+01               0
GRID*             100413               03.5100000000E+03-5.000000000E+01+
*       5.0000000000E+01               0
GRID*             100414               03.5000000000E+03-5.000000000E+01+
*       5.0000000000E+01               0
GRID*             100415               03.4900000000E+03-5.000000000E+01+
*       5.0000000000E+01               0
GRID*             100416               03.4800000000E+03-5.000000000E+01+
*       5.0000000000E+01               0
GRID*             100417               03.4700000000E+03-5.000000000E+01+
*       5.0000000000E+01               0
GRID*             100418               03.4600000000E+03-5.000000000E+01+
*       5.0000000000E+01               0
GRID*             100419               03.4500000000E+03-5.000000000E+01+
*       5.0000000000E+01               0
GRID*             100420               03.4400000000E+03-5.000000000E+01+
*       5.0000000000E+01               0
GRID*             100421               03.4300000000E+03-5.000000000E+01+
*       5.0000000000E+01               0
GRID*             100422               03.4200000000E+03-5.000000000E+01+
*       5.0000000000E+01               0
GRID*             100423               03.4100000000E+03-5.000000000E+01+
*       5.0000000000E+01               0
GRID*             100424               03.4000000000E+03-5.000000000E+01+
*       5.0000000000E+01               0
GRID*             100425               03.3900000000E+03-5.000000000E+01+
*       5.0000000000E+01               0
GRID*             100426               03.3800000000E+03-5.000000000E+01+
*       5.0000000000E+01               0
GRID*             100427               03.3700000000E+03-5.000000000E+01+
*       5.0000000000E+01               0
GRID*             100428               03.3600000000E+03-5.000000000E+01+
*       5.0000000000E+01               0
GRID*             100429               03.3500000000E+03-5.000000000E+01+
*       5.0000000000E+01               0
GRID*             100430               03.3400000000E+03-5.000000000E+01+
*       5.0000000000E+01               0
GRID*             100431               03.3300000000E+03-5.000000000E+01+
*       5.0000000000E+01               0
GRID*             100432               03.3200000000E+03-5.000000000E+01+
*       5.0000000000E+01               0
GRID*             100433               03.3100000000E+03-5.000000000E+01+
*       5.0000000000E+01               0
GRID*             100434               03.3000000000E+03-5.000000000E+01+
*       5.0000000000E+01               0
GRID*             100435               03.2900000000E+03-5.000000000E+01+
*       5.0000000000E+01               0
GRID*             100436               03.2800000000E+03-5.000000000E+01+
*       5.0000000000E+01               0
GRID*             100437               03.2700000000E+03-5.000000000E+01+
*       5.0000000000E+01               0
GRID*             100438               03.2600000000E+03-5.000000000E+01+
*       5.0000000000E+01               0
GRID*             100439               03.2500000000E+03-5.000000000E+01+
*       5.0000000000E+01               0
GRID*             100440               03.2400000000E+03-5.000000000E+01+
*       5.0000000000E+01               0
GRID*             100441               03.2300000000E+03-5.000000000E+01+
*       5.0000000000E+01               0
GRID*             100442               03.2200000000E+03-5.000000000E+01+
*       5.0000000000E+01               0
GRID*             100443               03.2100000000E+03-5.000000000E+01+
*       5.0000000000E+01               0
GRID*             100444               03.2000000000E+03-5.000000000E+01+
*       5.0000000000E+01               0
GRID*             100445               03.1900000000E+03-5.000000000E+01+
*       5.0000000000E+01               0
GRID*             100446               03.1800000000E+03-5.000000000E+01+
*       5.0000000000E+01               0
GRID*             100447               03.1700000000E+03-5.000000000E+01+
*       5.0000000000E+01               0
GRID*             100448               03.1600000000E+03-5.000000000E+01+
*       5.0000000000E+01               0
GRID*             100449               03.1500000000E+03-5.000000000E+01+
*       5.0000000000E+01               0
GRID*             100450               03.1400000000E+03-5.000000000E+01+
*       5.0000000000E+01               0
GRID*             100451               03.1300000000E+03-5.000000000E+01+
*       5.0000000000E+01               0
GRID*             100452               03.1200000000E+03-5.000000000E+01+
*       5.0000000000E+01               0
GRID*             100453               03.1100000000E+03-5.000000000E+01+
*       5.0000000000E+01               0
GRID*             100454               03.1000000000E+03-5.000000000E+01+
*       5.0000000000E+01               0
GRID*             100455               03.0900000000E+03-5.000000000E+01+
*       5.0000000000E+01               0
GRID*             100456               03.0800000000E+03-5.000000000E+01+
*       5.0000000000E+01               0
GRID*             100457               03.0700000000E+03-5.000000000E+01+
*       5.0000000000E+01               0
GRID*             100458               03.0600000000E+03-5.000000000E+01+
*       5.0000000000E+01               0
GRID*             100459               03.0500000000E+03-5.000000000E+01+
*       5.0000000000E+01               0
GRID*             100460               03.0400000000E+03-5.000000000E+01+
*       5.0000000000E+01               0
GRID*             100461               03.0300000000E+03-5.000000000E+01+
*       5.0000000000E+01               0
GRID*             100462               03.0200000000E+03-5.000000000E+01+
*       5.0000000000E+01               0
GRID*             100463               03.0100000000E+03-5.000000000E+01+
*       5.0000000000E+01               0
GRID*             100464               03.0000000000E+03-5.000000000E+01+
*       5.0000000000E+01               0
GRID*             100465               02.9900000000E+03-5.000000000E+01+
*       5.0000000000E+01               0
GRID*             100466               02.9800000000E+03-5.000000000E+01+
*       5.0000000000E+01               0
GRID*             100467               02.9700000000E+03-5.000000000E+01+
*       5.0000000000E+01               0
GRID*             100468               02.9600000000E+03-5.000000000E+01+
*       5.0000000000E+01               0
GRID*             100469               02.9500000000E+03-5.000000000E+01+
*       5.0000000000E+01               0
GRID*             100470               02.9400000000E+03-5.000000000E+01+
*       5.0000000000E+01               0
GRID*             100471               02.9300000000E+03-5.000000000E+01+
*       5.0000000000E+01               0
GRID*             100472               02.9200000000E+03-5.000000000E+01+
*       5.0000000000E+01               0
GRID*             100473               02.9100000000E+03-5.000000000E+01+
*       5.0000000000E+01               0
GRID*             100474               02.9000000000E+03-5.000000000E+01+
*       5.0000000000E+01               0
GRID*             100475               02.8900000000E+03-5.000000000E+01+
*       5.0000000000E+01               0
GRID*             100476               02.8800000000E+03-5.000000000E+01+
*       5.0000000000E+01               0
GRID*             100477               02.8700000000E+03-5.000000000E+01+
*       5.0000000000E+01               0
GRID*             100478               02.8600000000E+03-5.000000000E+01+
*       5.0000000000E+01               0
GRID*             100479               02.8500000000E+03-5.000000000E+01+
*       5.0000000000E+01               0
GRID*             100480               02.8400000000E+03-5.000000000E+01+
*       5.0000000000E+01               0
GRID*             100481               02.8300000000E+03-5.000000000E+01+
*       5.0000000000E+01               0
GRID*             100482               02.8200000000E+03-5.000000000E+01+
*       5.0000000000E+01               0
GRID*             100483               02.8100000000E+03-5.000000000E+01+
*       5.0000000000E+01               0
GRID*             100484               02.8000000000E+03-5.000000000E+01+
*       5.0000000000E+01               0
GRID*             100485               02.7900000000E+03-5.000000000E+01+
*       5.0000000000E+01               0
GRID*             100486               02.7800000000E+03-5.000000000E+01+
*       5.0000000000E+01               0
GRID*             100487               02.7700000000E+03-5.000000000E+01+
*       5.0000000000E+01               0
GRID*             100488               02.7600000000E+03-5.000000000E+01+
*       5.0000000000E+01               0
GRID*             100489               02.7500000000E+03-5.000000000E+01+
*       5.0000000000E+01               0
GRID*             100490               02.7400000000E+03-5.000000000E+01+
*       5.0000000000E+01               0
GRID*             100491               02.7300000000E+03-5.000000000E+01+
*       5.0000000000E+01               0
GRID*             100492               02.7200000000E+03-5.000000000E+01+
*       5.0000000000E+01               0
GRID*             100493               02.7100000000E+03-5.000000000E+01+
*       5.0000000000E+01               0
GRID*             100494               02.7000000000E+03-5.000000000E+01+
*       5.0000000000E+01               0
GRID*             100495               02.6900000000E+03-5.000000000E+01+
*       5.0000000000E+01               0
GRID*             100496               02.6800000000E+03-5.000000000E+01+
*       5.0000000000E+01               0
GRID*             100497               02.6700000000E+03-5.000000000E+01+
*       5.0000000000E+01               0
GRID*             100498               02.6600000000E+03-5.000000000E+01+
*       5.0000000000E+01               0
GRID*             100499               02.6500000000E+03-5.000000000E+01+
*       5.0000000000E+01               0
GRID*             100500               02.6400000000E+03-5.000000000E+01+
*       5.0000000000E+01               0
GRID*             100501               02.6300000000E+03-5.000000000E+01+
*       5.0000000000E+01               0
GRID*             100502               02.6200000000E+03-5.000000000E+01+
*       5.0000000000E+01               0
GRID*             100503               02.6100000000E+03-5.000000000E+01+
*       5.0000000000E+01               0
GRID*             100504               02.6000000000E+03-5.000000000E+01+
*       5.0000000000E+01               0
GRID*             100505               02.5900000000E+03-5.000000000E+01+
*       5.0000000000E+01               0
GRID*             100506               02.5800000000E+03-5.000000000E+01+
*       5.0000000000E+01               0
GRID*             100507               02.5700000000E+03-5.000000000E+01+
*       5.0000000000E+01               0
GRID*             100508               02.5600000000E+03-5.000000000E+01+
*       5.0000000000E+01               0
GRID*             100509               02.5500000000E+03-5.000000000E+01+
*       5.0000000000E+01               0
GRID*             100510               02.5400000000E+03-5.000000000E+01+
*       5.0000000000E+01               0
GRID*             100511               02.5300000000E+03-5.000000000E+01+
*       5.0000000000E+01               0
GRID*             100512               02.5200000000E+03-5.000000000E+01+
*       5.0000000000E+01               0
GRID*             100513               02.5100000000E+03-5.000000000E+01+
*       5.0000000000E+01               0
GRID*             100514               02.5000000000E+03-5.000000000E+01+
*       5.0000000000E+01               0
GRID*             100515               02.4900000000E+03-5.000000000E+01+
*       5.0000000000E+01               0
GRID*             100516               02.4800000000E+03-5.000000000E+01+
*       5.0000000000E+01               0
GRID*             100517               02.4700000000E+03-5.000000000E+01+
*       5.0000000000E+01               0
GRID*             100518               02.4600000000E+03-5.000000000E+01+
*       5.0000000000E+01               0
GRID*             100519               02.4500000000E+03-5.000000000E+01+
*       5.0000000000E+01               0
GRID*             100520               02.4400000000E+03-5.000000000E+01+
*       5.0000000000E+01               0
GRID*             100521               02.4300000000E+03-5.000000000E+01+
*       5.0000000000E+01               0
GRID*             100522               02.4200000000E+03-5.000000000E+01+
*       5.0000000000E+01               0
GRID*             100523               02.4100000000E+03-5.000000000E+01+
*       5.0000000000E+01               0
GRID*             100524               02.4000000000E+03-5.000000000E+01+
*       5.0000000000E+01               0
GRID*             100525               02.3900000000E+03-5.000000000E+01+
*       5.0000000000E+01               0
GRID*             100526               02.3800000000E+03-5.000000000E+01+
*       5.0000000000E+01               0
GRID*             100527               02.3700000000E+03-5.000000000E+01+
*       5.0000000000E+01               0
GRID*             100528               02.3600000000E+03-5.000000000E+01+
*       5.0000000000E+01               0
GRID*             100529               02.3500000000E+03-5.000000000E+01+
*       5.0000000000E+01               0
GRID*             100530               02.3400000000E+03-5.000000000E+01+
*       5.0000000000E+01               0
GRID*             100531               02.3300000000E+03-5.000000000E+01+
*       5.0000000000E+01               0
GRID*             100532               02.3200000000E+03-5.000000000E+01+
*       5.0000000000E+01               0
GRID*             100533               02.3100000000E+03-5.000000000E+01+
*       5.0000000000E+01               0
GRID*             100534               02.3000000000E+03-5.000000000E+01+
*       5.0000000000E+01               0
GRID*             100535               02.2900000000E+03-5.000000000E+01+
*       5.0000000000E+01               0
GRID*             100536               02.2800000000E+03-5.000000000E+01+
*       5.0000000000E+01               0
GRID*             100537               02.2700000000E+03-5.000000000E+01+
*       5.0000000000E+01               0
GRID*             100538               02.2600000000E+03-5.000000000E+01+
*       5.0000000000E+01               0
GRID*             100539               02.2500000000E+03-5.000000000E+01+
*       5.0000000000E+01               0
GRID*             100540               02.2400000000E+03-5.000000000E+01+
*       5.0000000000E+01               0
GRID*             100541               02.2300000000E+03-5.000000000E+01+
*       5.0000000000E+01               0
GRID*             100542               02.2200000000E+03-5.000000000E+01+
*       5.0000000000E+01               0
GRID*             100543               02.2100000000E+03-5.000000000E+01+
*       5.0000000000E+01               0
GRID*             100544               02.2000000000E+03-5.000000000E+01+
*       5.0000000000E+01               0
GRID*             100545               02.1900000000E+03-5.000000000E+01+
*       5.0000000000E+01               0
GRID*             100546               02.1800000000E+03-5.000000000E+01+
*       5.0000000000E+01               0
GRID*             100547               02.1700000000E+03-5.000000000E+01+
*       5.0000000000E+01               0
GRID*             100548               02.1600000000E+03-5.000000000E+01+
*       5.0000000000E+01               0
GRID*             100549               02.1500000000E+03-5.000000000E+01+
*       5.0000000000E+01               0
GRID*             100550               02.1400000000E+03-5.000000000E+01+
*       5.0000000000E+01               0
GRID*             100551               02.1300000000E+03-5.000000000E+01+
*       5.0000000000E+01               0
GRID*             100552               02.1200000000E+03-5.000000000E+01+
*       5.0000000000E+01               0
GRID*             100553               02.1100000000E+03-5.000000000E+01+
*       5.0000000000E+01               0
GRID*             100554               02.1000000000E+03-5.000000000E+01+
*       5.0000000000E+01               0
GRID*             100555               02.0900000000E+03-5.000000000E+01+
*       5.0000000000E+01               0
GRID*             100556               02.0800000000E+03-5.000000000E+01+
*       5.0000000000E+01               0
GRID*             100557               02.0700000000E+03-5.000000000E+01+
*       5.0000000000E+01               0
GRID*             100558               02.0600000000E+03-5.000000000E+01+
*       5.0000000000E+01               0
GRID*             100559               02.0500000000E+03-5.000000000E+01+
*       5.0000000000E+01               0
GRID*             100560               02.0400000000E+03-5.000000000E+01+
*       5.0000000000E+01               0
GRID*             100561               02.0300000000E+03-5.000000000E+01+
*       5.0000000000E+01               0
GRID*             100562               02.0200000000E+03-5.000000000E+01+
*       5.0000000000E+01               0
GRID*             100563               02.0100000000E+03-5.000000000E+01+
*       5.0000000000E+01               0
GRID*             100564               03.9900000000E+035.0000000000E+01+
*       -5.000000000E+01               0
GRID*             100565               03.9800000000E+035.0000000000E+01+
*       -5.000000000E+01               0
GRID*             100566               03.9700000000E+035.0000000000E+01+
*       -5.000000000E+01               0
GRID*             100567               03.9600000000E+035.0000000000E+01+
*       -5.000000000E+01               0
GRID*             100568               03.9500000000E+035.0000000000E+01+
*       -5.000000000E+01               0
GRID*             100569               03.9400000000E+035.0000000000E+01+
*       -5.000000000E+01               0
GRID*             100570               03.9300000000E+035.0000000000E+01+
*       -5.000000000E+01               0
GRID*             100571               03.9200000000E+035.0000000000E+01+
*       -5.000000000E+01               0
GRID*             100572               03.9100000000E+035.0000000000E+01+
*       -5.000000000E+01               0
GRID*             100573               03.9000000000E+035.0000000000E+01+
*       -5.000000000E+01               0
GRID*             100574               03.8900000000E+035.0000000000E+01+
*       -5.000000000E+01               0
GRID*             100575               03.8800000000E+035.0000000000E+01+
*       -5.000000000E+01               0
GRID*             100576               03.8700000000E+035.0000000000E+01+
*       -5.000000000E+01               0
GRID*             100577               03.8600000000E+035.0000000000E+01+
*       -5.000000000E+01               0
GRID*             100578               03.8500000000E+035.0000000000E+01+
*       -5.000000000E+01               0
GRID*             100579               03.8400000000E+035.0000000000E+01+
*       -5.000000000E+01               0
GRID*             100580               03.8300000000E+035.0000000000E+01+
*       -5.000000000E+01               0
GRID*             100581               03.8200000000E+035.0000000000E+01+
*       -5.000000000E+01               0
GRID*             100582               03.8100000000E+035.0000000000E+01+
*       -5.000000000E+01               0
GRID*             100583               03.8000000000E+035.0000000000E+01+
*       -5.000000000E+01               0
GRID*             100584               03.7900000000E+035.0000000000E+01+
*       -5.000000000E+01               0
GRID*             100585               03.7800000000E+035.0000000000E+01+
*       -5.000000000E+01               0
GRID*             100586               03.7700000000E+035.0000000000E+01+
*       -5.000000000E+01               0
GRID*             100587               03.7600000000E+035.0000000000E+01+
*       -5.000000000E+01               0
GRID*             100588               03.7500000000E+035.0000000000E+01+
*       -5.000000000E+01               0
GRID*             100589               03.7400000000E+035.0000000000E+01+
*       -5.000000000E+01               0
GRID*             100590               03.7300000000E+035.0000000000E+01+
*       -5.000000000E+01               0
GRID*             100591               03.7200000000E+035.0000000000E+01+
*       -5.000000000E+01               0
GRID*             100592               03.7100000000E+035.0000000000E+01+
*       -5.000000000E+01               0
GRID*             100593               03.7000000000E+035.0000000000E+01+
*       -5.000000000E+01               0
GRID*             100594               03.6900000000E+035.0000000000E+01+
*       -5.000000000E+01               0
GRID*             100595               03.6800000000E+035.0000000000E+01+
*       -5.000000000E+01               0
GRID*             100596               03.6700000000E+035.0000000000E+01+
*       -5.000000000E+01               0
GRID*             100597               03.6600000000E+035.0000000000E+01+
*       -5.000000000E+01               0
GRID*             100598               03.6500000000E+035.0000000000E+01+
*       -5.000000000E+01               0
GRID*             100599               03.6400000000E+035.0000000000E+01+
*       -5.000000000E+01               0
GRID*             100600               03.6300000000E+035.0000000000E+01+
*       -5.000000000E+01               0
GRID*             100601               03.6200000000E+035.0000000000E+01+
*       -5.000000000E+01               0
GRID*             100602               03.6100000000E+035.0000000000E+01+
*       -5.000000000E+01               0
GRID*             100603               03.6000000000E+035.0000000000E+01+
*       -5.000000000E+01               0
GRID*             100604               03.5900000000E+035.0000000000E+01+
*       -5.000000000E+01               0
GRID*             100605               03.5800000000E+035.0000000000E+01+
*       -5.000000000E+01               0
GRID*             100606               03.5700000000E+035.0000000000E+01+
*       -5.000000000E+01               0
GRID*             100607               03.5600000000E+035.0000000000E+01+
*       -5.000000000E+01               0
GRID*             100608               03.5500000000E+035.0000000000E+01+
*       -5.000000000E+01               0
GRID*             100609               03.5400000000E+035.0000000000E+01+
*       -5.000000000E+01               0
GRID*             100610               03.5300000000E+035.0000000000E+01+
*       -5.000000000E+01               0
GRID*             100611               03.5200000000E+035.0000000000E+01+
*       -5.000000000E+01               0
GRID*             100612               03.5100000000E+035.0000000000E+01+
*       -5.000000000E+01               0
GRID*             100613               03.5000000000E+035.0000000000E+01+
*       -5.000000000E+01               0
GRID*             100614               03.4900000000E+035.0000000000E+01+
*       -5.000000000E+01               0
GRID*             100615               03.4800000000E+035.0000000000E+01+
*       -5.000000000E+01               0
GRID*             100616               03.4700000000E+035.0000000000E+01+
*       -5.000000000E+01               0
GRID*             100617               03.4600000000E+035.0000000000E+01+
*       -5.000000000E+01               0
GRID*             100618               03.4500000000E+035.0000000000E+01+
*       -5.000000000E+01               0
GRID*             100619               03.4400000000E+035.0000000000E+01+
*       -5.000000000E+01               0
GRID*             100620               03.4300000000E+035.0000000000E+01+
*       -5.000000000E+01               0
GRID*             100621               03.4200000000E+035.0000000000E+01+
*       -5.000000000E+01               0
GRID*             100622               03.4100000000E+035.0000000000E+01+
*       -5.000000000E+01               0
GRID*             100623               03.4000000000E+035.0000000000E+01+
*       -5.000000000E+01               0
GRID*             100624               03.3900000000E+035.0000000000E+01+
*       -5.000000000E+01               0
GRID*             100625               03.3800000000E+035.0000000000E+01+
*       -5.000000000E+01               0
GRID*             100626               03.3700000000E+035.0000000000E+01+
*       -5.000000000E+01               0
GRID*             100627               03.3600000000E+035.0000000000E+01+
*       -5.000000000E+01               0
GRID*             100628               03.3500000000E+035.0000000000E+01+
*       -5.000000000E+01               0
GRID*             100629               03.3400000000E+035.0000000000E+01+
*       -5.000000000E+01               0
GRID*             100630               03.3300000000E+035.0000000000E+01+
*       -5.000000000E+01               0
GRID*             100631               03.3200000000E+035.0000000000E+01+
*       -5.000000000E+01               0
GRID*             100632               03.3100000000E+035.0000000000E+01+
*       -5.000000000E+01               0
GRID*             100633               03.3000000000E+035.0000000000E+01+
*       -5.000000000E+01               0
GRID*             100634               03.2900000000E+035.0000000000E+01+
*       -5.000000000E+01               0
GRID*             100635               03.2800000000E+035.0000000000E+01+
*       -5.000000000E+01               0
GRID*             100636               03.2700000000E+035.0000000000E+01+
*       -5.000000000E+01               0
GRID*             100637               03.2600000000E+035.0000000000E+01+
*       -5.000000000E+01               0
GRID*             100638               03.2500000000E+035.0000000000E+01+
*       -5.000000000E+01               0
GRID*             100639               03.2400000000E+035.0000000000E+01+
*       -5.000000000E+01               0
GRID*             100640               03.2300000000E+035.0000000000E+01+
*       -5.000000000E+01               0
GRID*             100641               03.2200000000E+035.0000000000E+01+
*       -5.000000000E+01               0
GRID*             100642               03.2100000000E+035.0000000000E+01+
*       -5.000000000E+01               0
GRID*             100643               03.2000000000E+035.0000000000E+01+
*       -5.000000000E+01               0
GRID*             100644               03.1900000000E+035.0000000000E+01+
*       -5.000000000E+01               0
GRID*             100645               03.1800000000E+035.0000000000E+01+
*       -5.000000000E+01               0
GRID*             100646               03.1700000000E+035.0000000000E+01+
*       -5.000000000E+01               0
GRID*             100647               03.1600000000E+035.0000000000E+01+
*       -5.000000000E+01               0
GRID*             100648               03.1500000000E+035.0000000000E+01+
*       -5.000000000E+01               0
GRID*             100649               03.1400000000E+035.0000000000E+01+
*       -5.000000000E+01               0
GRID*             100650               03.1300000000E+035.0000000000E+01+
*       -5.000000000E+01               0
GRID*             100651               03.1200000000E+035.0000000000E+01+
*       -5.000000000E+01               0
GRID*             100652               03.1100000000E+035.0000000000E+01+
*       -5.000000000E+01               0
GRID*             100653               03.1000000000E+035.0000000000E+01+
*       -5.000000000E+01               0
GRID*             100654               03.0900000000E+035.0000000000E+01+
*       -5.000000000E+01               0
GRID*             100655               03.0800000000E+035.0000000000E+01+
*       -5.000000000E+01               0
GRID*             100656               03.0700000000E+035.0000000000E+01+
*       -5.000000000E+01               0
GRID*             100657               03.0600000000E+035.0000000000E+01+
*       -5.000000000E+01               0
GRID*             100658               03.0500000000E+035.0000000000E+01+
*       -5.000000000E+01               0
GRID*             100659               03.0400000000E+035.0000000000E+01+
*       -5.000000000E+01               0
GRID*             100660               03.0300000000E+035.0000000000E+01+
*       -5.000000000E+01               0
GRID*             100661               03.0200000000E+035.0000000000E+01+
*       -5.000000000E+01               0
GRID*             100662               03.0100000000E+035.0000000000E+01+
*       -5.000000000E+01               0
GRID*             100663               03.0000000000E+035.0000000000E+01+
*       -5.000000000E+01               0
GRID*             100664               02.9900000000E+035.0000000000E+01+
*       -5.000000000E+01               0
GRID*             100665               02.9800000000E+035.0000000000E+01+
*       -5.000000000E+01               0
GRID*             100666               02.9700000000E+035.0000000000E+01+
*       -5.000000000E+01               0
GRID*             100667               02.9600000000E+035.0000000000E+01+
*       -5.000000000E+01               0
GRID*             100668               02.9500000000E+035.0000000000E+01+
*       -5.000000000E+01               0
GRID*             100669               02.9400000000E+035.0000000000E+01+
*       -5.000000000E+01               0
GRID*             100670               02.9300000000E+035.0000000000E+01+
*       -5.000000000E+01               0
GRID*             100671               02.9200000000E+035.0000000000E+01+
*       -5.000000000E+01               0
GRID*             100672               02.9100000000E+035.0000000000E+01+
*       -5.000000000E+01               0
GRID*             100673               02.9000000000E+035.0000000000E+01+
*       -5.000000000E+01               0
GRID*             100674               02.8900000000E+035.0000000000E+01+
*       -5.000000000E+01               0
GRID*             100675               02.8800000000E+035.0000000000E+01+
*       -5.000000000E+01               0
GRID*             100676               02.8700000000E+035.0000000000E+01+
*       -5.000000000E+01               0
GRID*             100677               02.8600000000E+035.0000000000E+01+
*       -5.000000000E+01               0
GRID*             100678               02.8500000000E+035.0000000000E+01+
*       -5.000000000E+01               0
GRID*             100679               02.8400000000E+035.0000000000E+01+
*       -5.000000000E+01               0
GRID*             100680               02.8300000000E+035.0000000000E+01+
*       -5.000000000E+01               0
GRID*             100681               02.8200000000E+035.0000000000E+01+
*       -5.000000000E+01               0
GRID*             100682               02.8100000000E+035.0000000000E+01+
*       -5.000000000E+01               0
GRID*             100683               02.8000000000E+035.0000000000E+01+
*       -5.000000000E+01               0
GRID*             100684               02.7900000000E+035.0000000000E+01+
*       -5.000000000E+01               0
GRID*             100685               02.7800000000E+035.0000000000E+01+
*       -5.000000000E+01               0
GRID*             100686               02.7700000000E+035.0000000000E+01+
*       -5.000000000E+01               0
GRID*             100687               02.7600000000E+035.0000000000E+01+
*       -5.000000000E+01               0
GRID*             100688               02.7500000000E+035.0000000000E+01+
*       -5.000000000E+01               0
GRID*             100689               02.7400000000E+035.0000000000E+01+
*       -5.000000000E+01               0
GRID*             100690               02.7300000000E+035.0000000000E+01+
*       -5.000000000E+01               0
GRID*             100691               02.7200000000E+035.0000000000E+01+
*       -5.000000000E+01               0
GRID*             100692               02.7100000000E+035.0000000000E+01+
*       -5.000000000E+01               0
GRID*             100693               02.7000000000E+035.0000000000E+01+
*       -5.000000000E+01               0
GRID*             100694               02.6900000000E+035.0000000000E+01+
*       -5.000000000E+01               0
GRID*             100695               02.6800000000E+035.0000000000E+01+
*       -5.000000000E+01               0
GRID*             100696               02.6700000000E+035.0000000000E+01+
*       -5.000000000E+01               0
GRID*             100697               02.6600000000E+035.0000000000E+01+
*       -5.000000000E+01               0
GRID*             100698               02.6500000000E+035.0000000000E+01+
*       -5.000000000E+01               0
GRID*             100699               02.6400000000E+035.0000000000E+01+
*       -5.000000000E+01               0
GRID*             100700               02.6300000000E+035.0000000000E+01+
*       -5.000000000E+01               0
GRID*             100701               02.6200000000E+035.0000000000E+01+
*       -5.000000000E+01               0
GRID*             100702               02.6100000000E+035.0000000000E+01+
*       -5.000000000E+01               0
GRID*             100703               02.6000000000E+035.0000000000E+01+
*       -5.000000000E+01               0
GRID*             100704               02.5900000000E+035.0000000000E+01+
*       -5.000000000E+01               0
GRID*             100705               02.5800000000E+035.0000000000E+01+
*       -5.000000000E+01               0
GRID*             100706               02.5700000000E+035.0000000000E+01+
*       -5.000000000E+01               0
GRID*             100707               02.5600000000E+035.0000000000E+01+
*       -5.000000000E+01               0
GRID*             100708               02.5500000000E+035.0000000000E+01+
*       -5.000000000E+01               0
GRID*             100709               02.5400000000E+035.0000000000E+01+
*       -5.000000000E+01               0
GRID*             100710               02.5300000000E+035.0000000000E+01+
*       -5.000000000E+01               0
GRID*             100711               02.5200000000E+035.0000000000E+01+
*       -5.000000000E+01               0
GRID*             100712               02.5100000000E+035.0000000000E+01+
*       -5.000000000E+01               0
GRID*             100713               02.5000000000E+035.0000000000E+01+
*       -5.000000000E+01               0
GRID*             100714               02.4900000000E+035.0000000000E+01+
*       -5.000000000E+01               0
GRID*             100715               02.4800000000E+035.0000000000E+01+
*       -5.000000000E+01               0
GRID*             100716               02.4700000000E+035.0000000000E+01+
*       -5.000000000E+01               0
GRID*             100717               02.4600000000E+035.0000000000E+01+
*       -5.000000000E+01               0
GRID*             100718               02.4500000000E+035.0000000000E+01+
*       -5.000000000E+01               0
GRID*             100719               02.4400000000E+035.0000000000E+01+
*       -5.000000000E+01               0
GRID*             100720               02.4300000000E+035.0000000000E+01+
*       -5.000000000E+01               0
GRID*             100721               02.4200000000E+035.0000000000E+01+
*       -5.000000000E+01               0
GRID*             100722               02.4100000000E+035.0000000000E+01+
*       -5.000000000E+01               0
GRID*             100723               02.4000000000E+035.0000000000E+01+
*       -5.000000000E+01               0
GRID*             100724               02.3900000000E+035.0000000000E+01+
*       -5.000000000E+01               0
GRID*             100725               02.3800000000E+035.0000000000E+01+
*       -5.000000000E+01               0
GRID*             100726               02.3700000000E+035.0000000000E+01+
*       -5.000000000E+01               0
GRID*             100727               02.3600000000E+035.0000000000E+01+
*       -5.000000000E+01               0
GRID*             100728               02.3500000000E+035.0000000000E+01+
*       -5.000000000E+01               0
GRID*             100729               02.3400000000E+035.0000000000E+01+
*       -5.000000000E+01               0
GRID*             100730               02.3300000000E+035.0000000000E+01+
*       -5.000000000E+01               0
GRID*             100731               02.3200000000E+035.0000000000E+01+
*       -5.000000000E+01               0
GRID*             100732               02.3100000000E+035.0000000000E+01+
*       -5.000000000E+01               0
GRID*             100733               02.3000000000E+035.0000000000E+01+
*       -5.000000000E+01               0
GRID*             100734               02.2900000000E+035.0000000000E+01+
*       -5.000000000E+01               0
GRID*             100735               02.2800000000E+035.0000000000E+01+
*       -5.000000000E+01               0
GRID*             100736               02.2700000000E+035.0000000000E+01+
*       -5.000000000E+01               0
GRID*             100737               02.2600000000E+035.0000000000E+01+
*       -5.000000000E+01               0
GRID*             100738               02.2500000000E+035.0000000000E+01+
*       -5.000000000E+01               0
GRID*             100739               02.2400000000E+035.0000000000E+01+
*       -5.000000000E+01               0
GRID*             100740               02.2300000000E+035.0000000000E+01+
*       -5.000000000E+01               0
GRID*             100741               02.2200000000E+035.0000000000E+01+
*       -5.000000000E+01               0
GRID*             100742               02.2100000000E+035.0000000000E+01+
*       -5.000000000E+01               0
GRID*             100743               02.2000000000E+035.0000000000E+01+
*       -5.000000000E+01               0
GRID*             100744               02.1900000000E+035.0000000000E+01+
*       -5.000000000E+01               0
GRID*             100745               02.1800000000E+035.0000000000E+01+
*       -5.000000000E+01               0
GRID*             100746               02.1700000000E+035.0000000000E+01+
*       -5.000000000E+01               0
GRID*             100747               02.1600000000E+035.0000000000E+01+
*       -5.000000000E+01               0
GRID*             100748               02.1500000000E+035.0000000000E+01+
*       -5.000000000E+01               0
GRID*             100749               02.1400000000E+035.0000000000E+01+
*       -5.000000000E+01               0
GRID*             100750               02.1300000000E+035.0000000000E+01+
*       -5.000000000E+01               0
GRID*             100751               02.1200000000E+035.0000000000E+01+
*       -5.000000000E+01               0
GRID*             100752               02.1100000000E+035.0000000000E+01+
*       -5.000000000E+01               0
GRID*             100753               02.1000000000E+035.0000000000E+01+
*       -5.000000000E+01               0
GRID*             100754               02.0900000000E+035.0000000000E+01+
*       -5.000000000E+01               0
GRID*             100755               02.0800000000E+035.0000000000E+01+
*       -5.000000000E+01               0
GRID*             100756               02.0700000000E+035.0000000000E+01+
*       -5.000000000E+01               0
GRID*             100757               02.0600000000E+035.0000000000E+01+
*       -5.000000000E+01               0
GRID*             100758               02.0500000000E+035.0000000000E+01+
*       -5.000000000E+01               0
GRID*             100759               02.0400000000E+035.0000000000E+01+
*       -5.000000000E+01               0
GRID*             100760               02.0300000000E+035.0000000000E+01+
*       -5.000000000E+01               0
GRID*             100761               02.0200000000E+035.0000000000E+01+
*       -5.000000000E+01               0
GRID*             100762               02.0100000000E+035.0000000000E+01+
*       -5.000000000E+01               0
GRID*             100763               03.9900000000E+035.0000000000E+01+
*       5.0000000000E+01               0
GRID*             100764               03.9800000000E+035.0000000000E+01+
*       5.0000000000E+01               0
GRID*             100765               03.9700000000E+035.0000000000E+01+
*       5.0000000000E+01               0
GRID*             100766               03.9600000000E+035.0000000000E+01+
*       5.0000000000E+01               0
GRID*             100767               03.9500000000E+035.0000000000E+01+
*       5.0000000000E+01               0
GRID*             100768               03.9400000000E+035.0000000000E+01+
*       5.0000000000E+01               0
GRID*             100769               03.9300000000E+035.0000000000E+01+
*       5.0000000000E+01               0
GRID*             100770               03.9200000000E+035.0000000000E+01+
*       5.0000000000E+01               0
GRID*             100771               03.9100000000E+035.0000000000E+01+
*       5.0000000000E+01               0
GRID*             100772               03.9000000000E+035.0000000000E+01+
*       5.0000000000E+01               0
GRID*             100773               03.8900000000E+035.0000000000E+01+
*       5.0000000000E+01               0
GRID*             100774               03.8800000000E+035.0000000000E+01+
*       5.0000000000E+01               0
GRID*             100775               03.8700000000E+035.0000000000E+01+
*       5.0000000000E+01               0
GRID*             100776               03.8600000000E+035.0000000000E+01+
*       5.0000000000E+01               0
GRID*             100777               03.8500000000E+035.0000000000E+01+
*       5.0000000000E+01               0
GRID*             100778               03.8400000000E+035.0000000000E+01+
*       5.0000000000E+01               0
GRID*             100779               03.8300000000E+035.0000000000E+01+
*       5.0000000000E+01               0
GRID*             100780               03.8200000000E+035.0000000000E+01+
*       5.0000000000E+01               0
GRID*             100781               03.8100000000E+035.0000000000E+01+
*       5.0000000000E+01               0
GRID*             100782               03.8000000000E+035.0000000000E+01+
*       5.0000000000E+01               0
GRID*             100783               03.7900000000E+035.0000000000E+01+
*       5.0000000000E+01               0
GRID*             100784               03.7800000000E+035.0000000000E+01+
*       5.0000000000E+01               0
GRID*             100785               03.7700000000E+035.0000000000E+01+
*       5.0000000000E+01               0
GRID*             100786               03.7600000000E+035.0000000000E+01+
*       5.0000000000E+01               0
GRID*             100787               03.7500000000E+035.0000000000E+01+
*       5.0000000000E+01               0
GRID*             100788               03.7400000000E+035.0000000000E+01+
*       5.0000000000E+01               0
GRID*             100789               03.7300000000E+035.0000000000E+01+
*       5.0000000000E+01               0
GRID*             100790               03.7200000000E+035.0000000000E+01+
*       5.0000000000E+01               0
GRID*             100791               03.7100000000E+035.0000000000E+01+
*       5.0000000000E+01               0
GRID*             100792               03.7000000000E+035.0000000000E+01+
*       5.0000000000E+01               0
GRID*             100793               03.6900000000E+035.0000000000E+01+
*       5.0000000000E+01               0
GRID*             100794               03.6800000000E+035.0000000000E+01+
*       5.0000000000E+01               0
GRID*             100795               03.6700000000E+035.0000000000E+01+
*       5.0000000000E+01               0
GRID*             100796               03.6600000000E+035.0000000000E+01+
*       5.0000000000E+01               0
GRID*             100797               03.6500000000E+035.0000000000E+01+
*       5.0000000000E+01               0
GRID*             100798               03.6400000000E+035.0000000000E+01+
*       5.0000000000E+01               0
GRID*             100799               03.6300000000E+035.0000000000E+01+
*       5.0000000000E+01               0
GRID*             100800               03.6200000000E+035.0000000000E+01+
*       5.0000000000E+01               0
GRID*             100801               03.6100000000E+035.0000000000E+01+
*       5.0000000000E+01               0
GRID*             100802               03.6000000000E+035.0000000000E+01+
*       5.0000000000E+01               0
GRID*             100803               03.5900000000E+035.0000000000E+01+
*       5.0000000000E+01               0
GRID*             100804               03.5800000000E+035.0000000000E+01+
*       5.0000000000E+01               0
GRID*             100805               03.5700000000E+035.0000000000E+01+
*       5.0000000000E+01               0
GRID*             100806               03.5600000000E+035.0000000000E+01+
*       5.0000000000E+01               0
GRID*             100807               03.5500000000E+035.0000000000E+01+
*       5.0000000000E+01               0
GRID*             100808               03.5400000000E+035.0000000000E+01+
*       5.0000000000E+01               0
GRID*             100809               03.5300000000E+035.0000000000E+01+
*       5.0000000000E+01               0
GRID*             100810               03.5200000000E+035.0000000000E+01+
*       5.0000000000E+01               0
GRID*             100811               03.5100000000E+035.0000000000E+01+
*       5.0000000000E+01               0
GRID*             100812               03.5000000000E+035.0000000000E+01+
*       5.0000000000E+01               0
GRID*             100813               03.4900000000E+035.0000000000E+01+
*       5.0000000000E+01               0
GRID*             100814               03.4800000000E+035.0000000000E+01+
*       5.0000000000E+01               0
GRID*             100815               03.4700000000E+035.0000000000E+01+
*       5.0000000000E+01               0
GRID*             100816               03.4600000000E+035.0000000000E+01+
*       5.0000000000E+01               0
GRID*             100817               03.4500000000E+035.0000000000E+01+
*       5.0000000000E+01               0
GRID*             100818               03.4400000000E+035.0000000000E+01+
*       5.0000000000E+01               0
GRID*             100819               03.4300000000E+035.0000000000E+01+
*       5.0000000000E+01               0
GRID*             100820               03.4200000000E+035.0000000000E+01+
*       5.0000000000E+01               0
GRID*             100821               03.4100000000E+035.0000000000E+01+
*       5.0000000000E+01               0
GRID*             100822               03.4000000000E+035.0000000000E+01+
*       5.0000000000E+01               0
GRID*             100823               03.3900000000E+035.0000000000E+01+
*       5.0000000000E+01               0
GRID*             100824               03.3800000000E+035.0000000000E+01+
*       5.0000000000E+01               0
GRID*             100825               03.3700000000E+035.0000000000E+01+
*       5.0000000000E+01               0
GRID*             100826               03.3600000000E+035.0000000000E+01+
*       5.0000000000E+01               0
GRID*             100827               03.3500000000E+035.0000000000E+01+
*       5.0000000000E+01               0
GRID*             100828               03.3400000000E+035.0000000000E+01+
*       5.0000000000E+01               0
GRID*             100829               03.3300000000E+035.0000000000E+01+
*       5.0000000000E+01               0
GRID*             100830               03.3200000000E+035.0000000000E+01+
*       5.0000000000E+01               0
GRID*             100831               03.3100000000E+035.0000000000E+01+
*       5.0000000000E+01               0
GRID*             100832               03.3000000000E+035.0000000000E+01+
*       5.0000000000E+01               0
GRID*             100833               03.2900000000E+035.0000000000E+01+
*       5.0000000000E+01               0
GRID*             100834               03.2800000000E+035.0000000000E+01+
*       5.0000000000E+01               0
GRID*             100835               03.2700000000E+035.0000000000E+01+
*       5.0000000000E+01               0
GRID*             100836               03.2600000000E+035.0000000000E+01+
*       5.0000000000E+01               0
GRID*             100837               03.2500000000E+035.0000000000E+01+
*       5.0000000000E+01               0
GRID*             100838               03.2400000000E+035.0000000000E+01+
*       5.0000000000E+01               0
GRID*             100839               03.2300000000E+035.0000000000E+01+
*       5.0000000000E+01               0
GRID*             100840               03.2200000000E+035.0000000000E+01+
*       5.0000000000E+01               0
GRID*             100841               03.2100000000E+035.0000000000E+01+
*       5.0000000000E+01               0
GRID*             100842               03.2000000000E+035.0000000000E+01+
*       5.0000000000E+01               0
GRID*             100843               03.1900000000E+035.0000000000E+01+
*       5.0000000000E+01               0
GRID*             100844               03.1800000000E+035.0000000000E+01+
*       5.0000000000E+01               0
GRID*             100845               03.1700000000E+035.0000000000E+01+
*       5.0000000000E+01               0
GRID*             100846               03.1600000000E+035.0000000000E+01+
*       5.0000000000E+01               0
GRID*             100847               03.1500000000E+035.0000000000E+01+
*       5.0000000000E+01               0
GRID*             100848               03.1400000000E+035.0000000000E+01+
*       5.0000000000E+01               0
GRID*             100849               03.1300000000E+035.0000000000E+01+
*       5.0000000000E+01               0
GRID*             100850               03.1200000000E+035.0000000000E+01+
*       5.0000000000E+01               0
GRID*             100851               03.1100000000E+035.0000000000E+01+
*       5.0000000000E+01               0
GRID*             100852               03.1000000000E+035.0000000000E+01+
*       5.0000000000E+01               0
GRID*             100853               03.0900000000E+035.0000000000E+01+
*       5.0000000000E+01               0
GRID*             100854               03.0800000000E+035.0000000000E+01+
*       5.0000000000E+01               0
GRID*             100855               03.0700000000E+035.0000000000E+01+
*       5.0000000000E+01               0
GRID*             100856               03.0600000000E+035.0000000000E+01+
*       5.0000000000E+01               0
GRID*             100857               03.0500000000E+035.0000000000E+01+
*       5.0000000000E+01               0
GRID*             100858               03.0400000000E+035.0000000000E+01+
*       5.0000000000E+01               0
GRID*             100859               03.0300000000E+035.0000000000E+01+
*       5.0000000000E+01               0
GRID*             100860               03.0200000000E+035.0000000000E+01+
*       5.0000000000E+01               0
GRID*             100861               03.0100000000E+035.0000000000E+01+
*       5.0000000000E+01               0
GRID*             100862               03.0000000000E+035.0000000000E+01+
*       5.0000000000E+01               0
GRID*             100863               02.9900000000E+035.0000000000E+01+
*       5.0000000000E+01               0
GRID*             100864               02.9800000000E+035.0000000000E+01+
*       5.0000000000E+01               0
GRID*             100865               02.9700000000E+035.0000000000E+01+
*       5.0000000000E+01               0
GRID*             100866               02.9600000000E+035.0000000000E+01+
*       5.0000000000E+01               0
GRID*             100867               02.9500000000E+035.0000000000E+01+
*       5.0000000000E+01               0
GRID*             100868               02.9400000000E+035.0000000000E+01+
*       5.0000000000E+01               0
GRID*             100869               02.9300000000E+035.0000000000E+01+
*       5.0000000000E+01               0
GRID*             100870               02.9200000000E+035.0000000000E+01+
*       5.0000000000E+01               0
GRID*             100871               02.9100000000E+035.0000000000E+01+
*       5.0000000000E+01               0
GRID*             100872               02.9000000000E+035.0000000000E+01+
*       5.0000000000E+01               0
GRID*             100873               02.8900000000E+035.0000000000E+01+
*       5.0000000000E+01               0
GRID*             100874               02.8800000000E+035.0000000000E+01+
*       5.0000000000E+01               0
GRID*             100875               02.8700000000E+035.0000000000E+01+
*       5.0000000000E+01               0
GRID*             100876               02.8600000000E+035.0000000000E+01+
*       5.0000000000E+01               0
GRID*             100877               02.8500000000E+035.0000000000E+01+
*       5.0000000000E+01               0
GRID*             100878               02.8400000000E+035.0000000000E+01+
*       5.0000000000E+01               0
GRID*             100879               02.8300000000E+035.0000000000E+01+
*       5.0000000000E+01               0
GRID*             100880               02.8200000000E+035.0000000000E+01+
*       5.0000000000E+01               0
GRID*             100881               02.8100000000E+035.0000000000E+01+
*       5.0000000000E+01               0
GRID*             100882               02.8000000000E+035.0000000000E+01+
*       5.0000000000E+01               0
GRID*             100883               02.7900000000E+035.0000000000E+01+
*       5.0000000000E+01               0
GRID*             100884               02.7800000000E+035.0000000000E+01+
*       5.0000000000E+01               0
GRID*             100885               02.7700000000E+035.0000000000E+01+
*       5.0000000000E+01               0
GRID*             100886               02.7600000000E+035.0000000000E+01+
*       5.0000000000E+01               0
GRID*             100887               02.7500000000E+035.0000000000E+01+
*       5.0000000000E+01               0
GRID*             100888               02.7400000000E+035.0000000000E+01+
*       5.0000000000E+01               0
GRID*             100889               02.7300000000E+035.0000000000E+01+
*       5.0000000000E+01               0
GRID*             100890               02.7200000000E+035.0000000000E+01+
*       5.0000000000E+01               0
GRID*             100891               02.7100000000E+035.0000000000E+01+
*       5.0000000000E+01               0
GRID*             100892               02.7000000000E+035.0000000000E+01+
*       5.0000000000E+01               0
GRID*             100893               02.6900000000E+035.0000000000E+01+
*       5.0000000000E+01               0
GRID*             100894               02.6800000000E+035.0000000000E+01+
*       5.0000000000E+01               0
GRID*             100895               02.6700000000E+035.0000000000E+01+
*       5.0000000000E+01               0
GRID*             100896               02.6600000000E+035.0000000000E+01+
*       5.0000000000E+01               0
GRID*             100897               02.6500000000E+035.0000000000E+01+
*       5.0000000000E+01               0
GRID*             100898               02.6400000000E+035.0000000000E+01+
*       5.0000000000E+01               0
GRID*             100899               02.6300000000E+035.0000000000E+01+
*       5.0000000000E+01               0
GRID*             100900               02.6200000000E+035.0000000000E+01+
*       5.0000000000E+01               0
GRID*             100901               02.6100000000E+035.0000000000E+01+
*       5.0000000000E+01               0
GRID*             100902               02.6000000000E+035.0000000000E+01+
*       5.0000000000E+01               0
GRID*             100903               02.5900000000E+035.0000000000E+01+
*       5.0000000000E+01               0
GRID*             100904               02.5800000000E+035.0000000000E+01+
*       5.0000000000E+01               0
GRID*             100905               02.5700000000E+035.0000000000E+01+
*       5.0000000000E+01               0
GRID*             100906               02.5600000000E+035.0000000000E+01+
*       5.0000000000E+01               0
GRID*             100907               02.5500000000E+035.0000000000E+01+
*       5.0000000000E+01               0
GRID*             100908               02.5400000000E+035.0000000000E+01+
*       5.0000000000E+01               0
GRID*             100909               02.5300000000E+035.0000000000E+01+
*       5.0000000000E+01               0
GRID*             100910               02.5200000000E+035.0000000000E+01+
*       5.0000000000E+01               0
GRID*             100911               02.5100000000E+035.0000000000E+01+
*       5.0000000000E+01               0
GRID*             100912               02.5000000000E+035.0000000000E+01+
*       5.0000000000E+01               0
GRID*             100913               02.4900000000E+035.0000000000E+01+
*       5.0000000000E+01               0
GRID*             100914               02.4800000000E+035.0000000000E+01+
*       5.0000000000E+01               0
GRID*             100915               02.4700000000E+035.0000000000E+01+
*       5.0000000000E+01               0
GRID*             100916               02.4600000000E+035.0000000000E+01+
*       5.0000000000E+01               0
GRID*             100917               02.4500000000E+035.0000000000E+01+
*       5.0000000000E+01               0
GRID*             100918               02.4400000000E+035.0000000000E+01+
*       5.0000000000E+01               0
GRID*             100919               02.4300000000E+035.0000000000E+01+
*       5.0000000000E+01               0
GRID*             100920               02.4200000000E+035.0000000000E+01+
*       5.0000000000E+01               0
GRID*             100921               02.4100000000E+035.0000000000E+01+
*       5.0000000000E+01               0
GRID*             100922               02.4000000000E+035.0000000000E+01+
*       5.0000000000E+01               0
GRID*             100923               02.3900000000E+035.0000000000E+01+
*       5.0000000000E+01               0
GRID*             100924               02.3800000000E+035.0000000000E+01+
*       5.0000000000E+01               0
GRID*             100925               02.3700000000E+035.0000000000E+01+
*       5.0000000000E+01               0
GRID*             100926               02.3600000000E+035.0000000000E+01+
*       5.0000000000E+01               0
GRID*             100927               02.3500000000E+035.0000000000E+01+
*       5.0000000000E+01               0
GRID*             100928               02.3400000000E+035.0000000000E+01+
*       5.0000000000E+01               0
GRID*             100929               02.3300000000E+035.0000000000E+01+
*       5.0000000000E+01               0
GRID*             100930               02.3200000000E+035.0000000000E+01+
*       5.0000000000E+01               0
GRID*             100931               02.3100000000E+035.0000000000E+01+
*       5.0000000000E+01               0
GRID*             100932               02.3000000000E+035.0000000000E+01+
*       5.0000000000E+01               0
GRID*             100933               02.2900000000E+035.0000000000E+01+
*       5.0000000000E+01               0
GRID*             100934               02.2800000000E+035.0000000000E+01+
*       5.0000000000E+01               0
GRID*             100935               02.2700000000E+035.0000000000E+01+
*       5.0000000000E+01               0
GRID*             100936               02.2600000000E+035.0000000000E+01+
*       5.0000000000E+01               0
GRID*             100937               02.2500000000E+035.0000000000E+01+
*       5.0000000000E+01               0
GRID*             100938               02.2400000000E+035.0000000000E+01+
*       5.0000000000E+01               0
GRID*             100939               02.2300000000E+035.0000000000E+01+
*       5.0000000000E+01               0
GRID*             100940               02.2200000000E+035.0000000000E+01+
*       5.0000000000E+01               0
GRID*             100941               02.2100000000E+035.0000000000E+01+
*       5.0000000000E+01               0
GRID*             100942               02.2000000000E+035.0000000000E+01+
*       5.0000000000E+01               0
GRID*             100943               02.1900000000E+035.0000000000E+01+
*       5.0000000000E+01               0
GRID*             100944               02.1800000000E+035.0000000000E+01+
*       5.0000000000E+01               0
GRID*             100945               02.1700000000E+035.0000000000E+01+
*       5.0000000000E+01               0
GRID*             100946               02.1600000000E+035.0000000000E+01+
*       5.0000000000E+01               0
GRID*             100947               02.1500000000E+035.0000000000E+01+
*       5.0000000000E+01               0
GRID*             100948               02.1400000000E+035.0000000000E+01+
*       5.0000000000E+01               0
GRID*             100949               02.1300000000E+035.0000000000E+01+
*       5.0000000000E+01               0
GRID*             100950               02.1200000000E+035.0000000000E+01+
*       5.0000000000E+01               0
GRID*             100951               02.1100000000E+035.0000000000E+01+
*       5.0000000000E+01               0
GRID*             100952               02.1000000000E+035.0000000000E+01+
*       5.0000000000E+01               0
GRID*             100953               02.0900000000E+035.0000000000E+01+
*       5.0000000000E+01               0
GRID*             100954               02.0800000000E+035.0000000000E+01+
*       5.0000000000E+01               0
GRID*             100955               02.0700000000E+035.0000000000E+01+
*       5.0000000000E+01               0
GRID*             100956               02.0600000000E+035.0000000000E+01+
*       5.0000000000E+01               0
GRID*             100957               02.0500000000E+035.0000000000E+01+
*       5.0000000000E+01               0
GRID*             100958               02.0400000000E+035.0000000000E+01+
*       5.0000000000E+01               0
GRID*             100959               02.0300000000E+035.0000000000E+01+
*       5.0000000000E+01               0
GRID*             100960               02.0200000000E+035.0000000000E+01+
*       5.0000000000E+01               0
GRID*             100961               02.0100000000E+035.0000000000E+01+
*       5.0000000000E+01               0
GRID*             100962               04.0000000000E+03-5.000000000E+01+
*       1.6666666667E+01               0
GRID*             100963               04.0000000000E+03-5.000000000E+01+
*       -1.666666667E+01               0
GRID*             100964               04.0000000000E+031.6666666667E+01+
*       -5.000000000E+01               0
GRID*             100965               04.0000000000E+03-1.666666667E+01+
*       -5.000000000E+01               0
GRID*             100966               04.0000000000E+031.6666666667E+01+
*       5.0000000000E+01               0
GRID*             100967               04.0000000000E+03-1.666666667E+01+
*       5.0000000000E+01               0
GRID*             100968               04.0000000000E+035.0000000000E+01+
*       1.6666666667E+01               0
GRID*             100969               04.0000000000E+035.0000000000E+01+
*       -1.666666667E+01               0
GRID*             100970               03.9900000000E+03-5.000000000E+01+
*       1.6666666667E+01               0
GRID*             100971               03.9900000000E+03-5.000000000E+01+
*       -1.666666667E+01               0
GRID*             100972               03.9800000000E+03-5.000000000E+01+
*       1.6666666667E+01               0
GRID*             100973               03.9800000000E+03-5.000000000E+01+
*       -1.666666667E+01               0
GRID*             100974               03.9700000000E+03-5.000000000E+01+
*       1.6666666667E+01               0
GRID*             100975               03.9700000000E+03-5.000000000E+01+
*       -1.666666667E+01               0
GRID*             100976               03.9600000000E+03-5.000000000E+01+
*       1.6666666667E+01               0
GRID*             100977               03.9600000000E+03-5.000000000E+01+
*       -1.666666667E+01               0
GRID*             100978               03.9500000000E+03-5.000000000E+01+
*       1.6666666667E+01               0
GRID*             100979               03.9500000000E+03-5.000000000E+01+
*       -1.666666667E+01               0
GRID*             100980               03.9400000000E+03-5.000000000E+01+
*       1.6666666667E+01               0
GRID*             100981               03.9400000000E+03-5.000000000E+01+
*       -1.666666667E+01               0
GRID*             100982               03.9300000000E+03-5.000000000E+01+
*       1.6666666667E+01               0
GRID*             100983               03.9300000000E+03-5.000000000E+01+
*       -1.666666667E+01               0
GRID*             100984               03.9200000000E+03-5.000000000E+01+
*       1.6666666667E+01               0
GRID*             100985               03.9200000000E+03-5.000000000E+01+
*       -1.666666667E+01               0
GRID*             100986               03.9100000000E+03-5.000000000E+01+
*       1.6666666667E+01               0
GRID*             100987               03.9100000000E+03-5.000000000E+01+
*       -1.666666667E+01               0
GRID*             100988               03.9000000000E+03-5.000000000E+01+
*       1.6666666667E+01               0
GRID*             100989               03.9000000000E+03-5.000000000E+01+
*       -1.666666667E+01               0
GRID*             100990               03.8900000000E+03-5.000000000E+01+
*       1.6666666667E+01               0
GRID*             100991               03.8900000000E+03-5.000000000E+01+
*       -1.666666667E+01               0
GRID*             100992               03.8800000000E+03-5.000000000E+01+
*       1.6666666667E+01               0
GRID*             100993               03.8800000000E+03-5.000000000E+01+
*       -1.666666667E+01               0
GRID*             100994               03.8700000000E+03-5.000000000E+01+
*       1.6666666667E+01               0
GRID*             100995               03.8700000000E+03-5.000000000E+01+
*       -1.666666667E+01               0
GRID*             100996               03.8600000000E+03-5.000000000E+01+
*       1.6666666667E+01               0
GRID*             100997               03.8600000000E+03-5.000000000E+01+
*       -1.666666667E+01               0
GRID*             100998               03.8500000000E+03-5.000000000E+01+
*       1.6666666667E+01               0
GRID*             100999               03.8500000000E+03-5.000000000E+01+
*       -1.666666667E+01               0
GRID*             101000               03.8400000000E+03-5.000000000E+01+
*       1.6666666667E+01               0
GRID*             101001               03.8400000000E+03-5.000000000E+01+
*       -1.666666667E+01               0
GRID*             101002               03.8300000000E+03-5.000000000E+01+
*       1.6666666667E+01               0
GRID*             101003               03.8300000000E+03-5.000000000E+01+
*       -1.666666667E+01               0
GRID*             101004               03.8200000000E+03-5.000000000E+01+
*       1.6666666667E+01               0
GRID*             101005               03.8200000000E+03-5.000000000E+01+
*       -1.666666667E+01               0
GRID*             101006               03.8100000000E+03-5.000000000E+01+
*       1.6666666667E+01               0
GRID*             101007               03.8100000000E+03-5.000000000E+01+
*       -1.666666667E+01               0
GRID*             101008               03.8000000000E+03-5.000000000E+01+
*       1.6666666667E+01               0
GRID*             101009               03.8000000000E+03-5.000000000E+01+
*       -1.666666667E+01               0
GRID*             101010               03.7900000000E+03-5.000000000E+01+
*       1.6666666667E+01               0
GRID*             101011               03.7900000000E+03-5.000000000E+01+
*       -1.666666667E+01               0
GRID*             101012               03.7800000000E+03-5.000000000E+01+
*       1.6666666667E+01               0
GRID*             101013               03.7800000000E+03-5.000000000E+01+
*       -1.666666667E+01               0
GRID*             101014               03.7700000000E+03-5.000000000E+01+
*       1.6666666667E+01               0
GRID*             101015               03.7700000000E+03-5.000000000E+01+
*       -1.666666667E+01               0
GRID*             101016               03.7600000000E+03-5.000000000E+01+
*       1.6666666667E+01               0
GRID*             101017               03.7600000000E+03-5.000000000E+01+
*       -1.666666667E+01               0
GRID*             101018               03.7500000000E+03-5.000000000E+01+
*       1.6666666667E+01               0
GRID*             101019               03.7500000000E+03-5.000000000E+01+
*       -1.666666667E+01               0
GRID*             101020               03.7400000000E+03-5.000000000E+01+
*       1.6666666667E+01               0
GRID*             101021               03.7400000000E+03-5.000000000E+01+
*       -1.666666667E+01               0
GRID*             101022               03.7300000000E+03-5.000000000E+01+
*       1.6666666667E+01               0
GRID*             101023               03.7300000000E+03-5.000000000E+01+
*       -1.666666667E+01               0
GRID*             101024               03.7200000000E+03-5.000000000E+01+
*       1.6666666667E+01               0
GRID*             101025               03.7200000000E+03-5.000000000E+01+
*       -1.666666667E+01               0
GRID*             101026               03.7100000000E+03-5.000000000E+01+
*       1.6666666667E+01               0
GRID*             101027               03.7100000000E+03-5.000000000E+01+
*       -1.666666667E+01               0
GRID*             101028               03.7000000000E+03-5.000000000E+01+
*       1.6666666667E+01               0
GRID*             101029               03.7000000000E+03-5.000000000E+01+
*       -1.666666667E+01               0
GRID*             101030               03.6900000000E+03-5.000000000E+01+
*       1.6666666667E+01               0
GRID*             101031               03.6900000000E+03-5.000000000E+01+
*       -1.666666667E+01               0
GRID*             101032               03.6800000000E+03-5.000000000E+01+
*       1.6666666667E+01               0
GRID*             101033               03.6800000000E+03-5.000000000E+01+
*       -1.666666667E+01               0
GRID*             101034               03.6700000000E+03-5.000000000E+01+
*       1.6666666667E+01               0
GRID*             101035               03.6700000000E+03-5.000000000E+01+
*       -1.666666667E+01               0
GRID*             101036               03.6600000000E+03-5.000000000E+01+
*       1.6666666667E+01               0
GRID*             101037               03.6600000000E+03-5.000000000E+01+
*       -1.666666667E+01               0
GRID*             101038               03.6500000000E+03-5.000000000E+01+
*       1.6666666667E+01               0
GRID*             101039               03.6500000000E+03-5.000000000E+01+
*       -1.666666667E+01               0
GRID*             101040               03.6400000000E+03-5.000000000E+01+
*       1.6666666667E+01               0
GRID*             101041               03.6400000000E+03-5.000000000E+01+
*       -1.666666667E+01               0
GRID*             101042               03.6300000000E+03-5.000000000E+01+
*       1.6666666667E+01               0
GRID*             101043               03.6300000000E+03-5.000000000E+01+
*       -1.666666667E+01               0
GRID*             101044               03.6200000000E+03-5.000000000E+01+
*       1.6666666667E+01               0
GRID*             101045               03.6200000000E+03-5.000000000E+01+
*       -1.666666667E+01               0
GRID*             101046               03.6100000000E+03-5.000000000E+01+
*       1.6666666667E+01               0
GRID*             101047               03.6100000000E+03-5.000000000E+01+
*       -1.666666667E+01               0
GRID*             101048               03.6000000000E+03-5.000000000E+01+
*       1.6666666667E+01               0
GRID*             101049               03.6000000000E+03-5.000000000E+01+
*       -1.666666667E+01               0
GRID*             101050               03.5900000000E+03-5.000000000E+01+
*       1.6666666667E+01               0
GRID*             101051               03.5900000000E+03-5.000000000E+01+
*       -1.666666667E+01               0
GRID*             101052               03.5800000000E+03-5.000000000E+01+
*       1.6666666667E+01               0
GRID*             101053               03.5800000000E+03-5.000000000E+01+
*       -1.666666667E+01               0
GRID*             101054               03.5700000000E+03-5.000000000E+01+
*       1.6666666667E+01               0
GRID*             101055               03.5700000000E+03-5.000000000E+01+
*       -1.666666667E+01               0
GRID*             101056               03.5600000000E+03-5.000000000E+01+
*       1.6666666667E+01               0
GRID*             101057               03.5600000000E+03-5.000000000E+01+
*       -1.666666667E+01               0
GRID*             101058               03.5500000000E+03-5.000000000E+01+
*       1.6666666667E+01               0
GRID*             101059               03.5500000000E+03-5.000000000E+01+
*       -1.666666667E+01               0
GRID*             101060               03.5400000000E+03-5.000000000E+01+
*       1.6666666667E+01               0
GRID*             101061               03.5400000000E+03-5.000000000E+01+
*       -1.666666667E+01               0
GRID*             101062               03.5300000000E+03-5.000000000E+01+
*       1.6666666667E+01               0
GRID*             101063               03.5300000000E+03-5.000000000E+01+
*       -1.666666667E+01               0
GRID*             101064               03.5200000000E+03-5.000000000E+01+
*       1.6666666667E+01               0
GRID*             101065               03.5200000000E+03-5.000000000E+01+
*       -1.666666667E+01               0
GRID*             101066               03.5100000000E+03-5.000000000E+01+
*       1.6666666667E+01               0
GRID*             101067               03.5100000000E+03-5.000000000E+01+
*       -1.666666667E+01               0
GRID*             101068               03.5000000000E+03-5.000000000E+01+
*       1.6666666667E+01               0
GRID*             101069               03.5000000000E+03-5.000000000E+01+
*       -1.666666667E+01               0
GRID*             101070               03.4900000000E+03-5.000000000E+01+
*       1.6666666667E+01               0
GRID*             101071               03.4900000000E+03-5.000000000E+01+
*       -1.666666667E+01               0
GRID*             101072               03.4800000000E+03-5.000000000E+01+
*       1.6666666667E+01               0
GRID*             101073               03.4800000000E+03-5.000000000E+01+
*       -1.666666667E+01               0
GRID*             101074               03.4700000000E+03-5.000000000E+01+
*       1.6666666667E+01               0
GRID*             101075               03.4700000000E+03-5.000000000E+01+
*       -1.666666667E+01               0
GRID*             101076               03.4600000000E+03-5.000000000E+01+
*       1.6666666667E+01               0
GRID*             101077               03.4600000000E+03-5.000000000E+01+
*       -1.666666667E+01               0
GRID*             101078               03.4500000000E+03-5.000000000E+01+
*       1.6666666667E+01               0
GRID*             101079               03.4500000000E+03-5.000000000E+01+
*       -1.666666667E+01               0
GRID*             101080               03.4400000000E+03-5.000000000E+01+
*       1.6666666667E+01               0
GRID*             101081               03.4400000000E+03-5.000000000E+01+
*       -1.666666667E+01               0
GRID*             101082               03.4300000000E+03-5.000000000E+01+
*       1.6666666667E+01               0
GRID*             101083               03.4300000000E+03-5.000000000E+01+
*       -1.666666667E+01               0
GRID*             101084               03.4200000000E+03-5.000000000E+01+
*       1.6666666667E+01               0
GRID*             101085               03.4200000000E+03-5.000000000E+01+
*       -1.666666667E+01               0
GRID*             101086               03.4100000000E+03-5.000000000E+01+
*       1.6666666667E+01               0
GRID*             101087               03.4100000000E+03-5.000000000E+01+
*       -1.666666667E+01               0
GRID*             101088               03.4000000000E+03-5.000000000E+01+
*       1.6666666667E+01               0
GRID*             101089               03.4000000000E+03-5.000000000E+01+
*       -1.666666667E+01               0
GRID*             101090               03.3900000000E+03-5.000000000E+01+
*       1.6666666667E+01               0
GRID*             101091               03.3900000000E+03-5.000000000E+01+
*       -1.666666667E+01               0
GRID*             101092               03.3800000000E+03-5.000000000E+01+
*       1.6666666667E+01               0
GRID*             101093               03.3800000000E+03-5.000000000E+01+
*       -1.666666667E+01               0
GRID*             101094               03.3700000000E+03-5.000000000E+01+
*       1.6666666667E+01               0
GRID*             101095               03.3700000000E+03-5.000000000E+01+
*       -1.666666667E+01               0
GRID*             101096               03.3600000000E+03-5.000000000E+01+
*       1.6666666667E+01               0
GRID*             101097               03.3600000000E+03-5.000000000E+01+
*       -1.666666667E+01               0
GRID*             101098               03.3500000000E+03-5.000000000E+01+
*       1.6666666667E+01               0
GRID*             101099               03.3500000000E+03-5.000000000E+01+
*       -1.666666667E+01               0
GRID*             101100               03.3400000000E+03-5.000000000E+01+
*       1.6666666667E+01               0
GRID*             101101               03.3400000000E+03-5.000000000E+01+
*       -1.666666667E+01               0
GRID*             101102               03.3300000000E+03-5.000000000E+01+
*       1.6666666667E+01               0
GRID*             101103               03.3300000000E+03-5.000000000E+01+
*       -1.666666667E+01               0
GRID*             101104               03.3200000000E+03-5.000000000E+01+
*       1.6666666667E+01               0
GRID*             101105               03.3200000000E+03-5.000000000E+01+
*       -1.666666667E+01               0
GRID*             101106               03.3100000000E+03-5.000000000E+01+
*       1.6666666667E+01               0
GRID*             101107               03.3100000000E+03-5.000000000E+01+
*       -1.666666667E+01               0
GRID*             101108               03.3000000000E+03-5.000000000E+01+
*       1.6666666667E+01               0
GRID*             101109               03.3000000000E+03-5.000000000E+01+
*       -1.666666667E+01               0
GRID*             101110               03.2900000000E+03-5.000000000E+01+
*       1.6666666667E+01               0
GRID*             101111               03.2900000000E+03-5.000000000E+01+
*       -1.666666667E+01               0
GRID*             101112               03.2800000000E+03-5.000000000E+01+
*       1.6666666667E+01               0
GRID*             101113               03.2800000000E+03-5.000000000E+01+
*       -1.666666667E+01               0
GRID*             101114               03.2700000000E+03-5.000000000E+01+
*       1.6666666667E+01               0
GRID*             101115               03.2700000000E+03-5.000000000E+01+
*       -1.666666667E+01               0
GRID*             101116               03.2600000000E+03-5.000000000E+01+
*       1.6666666667E+01               0
GRID*             101117               03.2600000000E+03-5.000000000E+01+
*       -1.666666667E+01               0
GRID*             101118               03.2500000000E+03-5.000000000E+01+
*       1.6666666667E+01               0
GRID*             101119               03.2500000000E+03-5.000000000E+01+
*       -1.666666667E+01               0
GRID*             101120               03.2400000000E+03-5.000000000E+01+
*       1.6666666667E+01               0
GRID*             101121               03.2400000000E+03-5.000000000E+01+
*       -1.666666667E+01               0
GRID*             101122               03.2300000000E+03-5.000000000E+01+
*       1.6666666667E+01               0
GRID*             101123               03.2300000000E+03-5.000000000E+01+
*       -1.666666667E+01               0
GRID*             101124               03.2200000000E+03-5.000000000E+01+
*       1.6666666667E+01               0
GRID*             101125               03.2200000000E+03-5.000000000E+01+
*       -1.666666667E+01               0
GRID*             101126               03.2100000000E+03-5.000000000E+01+
*       1.6666666667E+01               0
GRID*             101127               03.2100000000E+03-5.000000000E+01+
*       -1.666666667E+01               0
GRID*             101128               03.2000000000E+03-5.000000000E+01+
*       1.6666666667E+01               0
GRID*             101129               03.2000000000E+03-5.000000000E+01+
*       -1.666666667E+01               0
GRID*             101130               03.1900000000E+03-5.000000000E+01+
*       1.6666666667E+01               0
GRID*             101131               03.1900000000E+03-5.000000000E+01+
*       -1.666666667E+01               0
GRID*             101132               03.1800000000E+03-5.000000000E+01+
*       1.6666666667E+01               0
GRID*             101133               03.1800000000E+03-5.000000000E+01+
*       -1.666666667E+01               0
GRID*             101134               03.1700000000E+03-5.000000000E+01+
*       1.6666666667E+01               0
GRID*             101135               03.1700000000E+03-5.000000000E+01+
*       -1.666666667E+01               0
GRID*             101136               03.1600000000E+03-5.000000000E+01+
*       1.6666666667E+01               0
GRID*             101137               03.1600000000E+03-5.000000000E+01+
*       -1.666666667E+01               0
GRID*             101138               03.1500000000E+03-5.000000000E+01+
*       1.6666666667E+01               0
GRID*             101139               03.1500000000E+03-5.000000000E+01+
*       -1.666666667E+01               0
GRID*             101140               03.1400000000E+03-5.000000000E+01+
*       1.6666666667E+01               0
GRID*             101141               03.1400000000E+03-5.000000000E+01+
*       -1.666666667E+01               0
GRID*             101142               03.1300000000E+03-5.000000000E+01+
*       1.6666666667E+01               0
GRID*             101143               03.1300000000E+03-5.000000000E+01+
*       -1.666666667E+01               0
GRID*             101144               03.1200000000E+03-5.000000000E+01+
*       1.6666666667E+01               0
GRID*             101145               03.1200000000E+03-5.000000000E+01+
*       -1.666666667E+01               0
GRID*             101146               03.1100000000E+03-5.000000000E+01+
*       1.6666666667E+01               0
GRID*             101147               03.1100000000E+03-5.000000000E+01+
*       -1.666666667E+01               0
GRID*             101148               03.1000000000E+03-5.000000000E+01+
*       1.6666666667E+01               0
GRID*             101149               03.1000000000E+03-5.000000000E+01+
*       -1.666666667E+01               0
GRID*             101150               03.0900000000E+03-5.000000000E+01+
*       1.6666666667E+01               0
GRID*             101151               03.0900000000E+03-5.000000000E+01+
*       -1.666666667E+01               0
GRID*             101152               03.0800000000E+03-5.000000000E+01+
*       1.6666666667E+01               0
GRID*             101153               03.0800000000E+03-5.000000000E+01+
*       -1.666666667E+01               0
GRID*             101154               03.0700000000E+03-5.000000000E+01+
*       1.6666666667E+01               0
GRID*             101155               03.0700000000E+03-5.000000000E+01+
*       -1.666666667E+01               0
GRID*             101156               03.0600000000E+03-5.000000000E+01+
*       1.6666666667E+01               0
GRID*             101157               03.0600000000E+03-5.000000000E+01+
*       -1.666666667E+01               0
GRID*             101158               03.0500000000E+03-5.000000000E+01+
*       1.6666666667E+01               0
GRID*             101159               03.0500000000E+03-5.000000000E+01+
*       -1.666666667E+01               0
GRID*             101160               03.0400000000E+03-5.000000000E+01+
*       1.6666666667E+01               0
GRID*             101161               03.0400000000E+03-5.000000000E+01+
*       -1.666666667E+01               0
GRID*             101162               03.0300000000E+03-5.000000000E+01+
*       1.6666666667E+01               0
GRID*             101163               03.0300000000E+03-5.000000000E+01+
*       -1.666666667E+01               0
GRID*             101164               03.0200000000E+03-5.000000000E+01+
*       1.6666666667E+01               0
GRID*             101165               03.0200000000E+03-5.000000000E+01+
*       -1.666666667E+01               0
GRID*             101166               03.0100000000E+03-5.000000000E+01+
*       1.6666666667E+01               0
GRID*             101167               03.0100000000E+03-5.000000000E+01+
*       -1.666666667E+01               0
GRID*             101168               03.0000000000E+03-5.000000000E+01+
*       1.6666666667E+01               0
GRID*             101169               03.0000000000E+03-5.000000000E+01+
*       -1.666666667E+01               0
GRID*             101170               02.9900000000E+03-5.000000000E+01+
*       1.6666666667E+01               0
GRID*             101171               02.9900000000E+03-5.000000000E+01+
*       -1.666666667E+01               0
GRID*             101172               02.9800000000E+03-5.000000000E+01+
*       1.6666666667E+01               0
GRID*             101173               02.9800000000E+03-5.000000000E+01+
*       -1.666666667E+01               0
GRID*             101174               02.9700000000E+03-5.000000000E+01+
*       1.6666666667E+01               0
GRID*             101175               02.9700000000E+03-5.000000000E+01+
*       -1.666666667E+01               0
GRID*             101176               02.9600000000E+03-5.000000000E+01+
*       1.6666666667E+01               0
GRID*             101177               02.9600000000E+03-5.000000000E+01+
*       -1.666666667E+01               0
GRID*             101178               02.9500000000E+03-5.000000000E+01+
*       1.6666666667E+01               0
GRID*             101179               02.9500000000E+03-5.000000000E+01+
*       -1.666666667E+01               0
GRID*             101180               02.9400000000E+03-5.000000000E+01+
*       1.6666666667E+01               0
GRID*             101181               02.9400000000E+03-5.000000000E+01+
*       -1.666666667E+01               0
GRID*             101182               02.9300000000E+03-5.000000000E+01+
*       1.6666666667E+01               0
GRID*             101183               02.9300000000E+03-5.000000000E+01+
*       -1.666666667E+01               0
GRID*             101184               02.9200000000E+03-5.000000000E+01+
*       1.6666666667E+01               0
GRID*             101185               02.9200000000E+03-5.000000000E+01+
*       -1.666666667E+01               0
GRID*             101186               02.9100000000E+03-5.000000000E+01+
*       1.6666666667E+01               0
GRID*             101187               02.9100000000E+03-5.000000000E+01+
*       -1.666666667E+01               0
GRID*             101188               02.9000000000E+03-5.000000000E+01+
*       1.6666666667E+01               0
GRID*             101189               02.9000000000E+03-5.000000000E+01+
*       -1.666666667E+01               0
GRID*             101190               02.8900000000E+03-5.000000000E+01+
*       1.6666666667E+01               0
GRID*             101191               02.8900000000E+03-5.000000000E+01+
*       -1.666666667E+01               0
GRID*             101192               02.8800000000E+03-5.000000000E+01+
*       1.6666666667E+01               0
GRID*             101193               02.8800000000E+03-5.000000000E+01+
*       -1.666666667E+01               0
GRID*             101194               02.8700000000E+03-5.000000000E+01+
*       1.6666666667E+01               0
GRID*             101195               02.8700000000E+03-5.000000000E+01+
*       -1.666666667E+01               0
GRID*             101196               02.8600000000E+03-5.000000000E+01+
*       1.6666666667E+01               0
GRID*             101197               02.8600000000E+03-5.000000000E+01+
*       -1.666666667E+01               0
GRID*             101198               02.8500000000E+03-5.000000000E+01+
*       1.6666666667E+01               0
GRID*             101199               02.8500000000E+03-5.000000000E+01+
*       -1.666666667E+01               0
GRID*             101200               02.8400000000E+03-5.000000000E+01+
*       1.6666666667E+01               0
GRID*             101201               02.8400000000E+03-5.000000000E+01+
*       -1.666666667E+01               0
GRID*             101202               02.8300000000E+03-5.000000000E+01+
*       1.6666666667E+01               0
GRID*             101203               02.8300000000E+03-5.000000000E+01+
*       -1.666666667E+01               0
GRID*             101204               02.8200000000E+03-5.000000000E+01+
*       1.6666666667E+01               0
GRID*             101205               02.8200000000E+03-5.000000000E+01+
*       -1.666666667E+01               0
GRID*             101206               02.8100000000E+03-5.000000000E+01+
*       1.6666666667E+01               0
GRID*             101207               02.8100000000E+03-5.000000000E+01+
*       -1.666666667E+01               0
GRID*             101208               02.8000000000E+03-5.000000000E+01+
*       1.6666666667E+01               0
GRID*             101209               02.8000000000E+03-5.000000000E+01+
*       -1.666666667E+01               0
GRID*             101210               02.7900000000E+03-5.000000000E+01+
*       1.6666666667E+01               0
GRID*             101211               02.7900000000E+03-5.000000000E+01+
*       -1.666666667E+01               0
GRID*             101212               02.7800000000E+03-5.000000000E+01+
*       1.6666666667E+01               0
GRID*             101213               02.7800000000E+03-5.000000000E+01+
*       -1.666666667E+01               0
GRID*             101214               02.7700000000E+03-5.000000000E+01+
*       1.6666666667E+01               0
GRID*             101215               02.7700000000E+03-5.000000000E+01+
*       -1.666666667E+01               0
GRID*             101216               02.7600000000E+03-5.000000000E+01+
*       1.6666666667E+01               0
GRID*             101217               02.7600000000E+03-5.000000000E+01+
*       -1.666666667E+01               0
GRID*             101218               02.7500000000E+03-5.000000000E+01+
*       1.6666666667E+01               0
GRID*             101219               02.7500000000E+03-5.000000000E+01+
*       -1.666666667E+01               0
GRID*             101220               02.7400000000E+03-5.000000000E+01+
*       1.6666666667E+01               0
GRID*             101221               02.7400000000E+03-5.000000000E+01+
*       -1.666666667E+01               0
GRID*             101222               02.7300000000E+03-5.000000000E+01+
*       1.6666666667E+01               0
GRID*             101223               02.7300000000E+03-5.000000000E+01+
*       -1.666666667E+01               0
GRID*             101224               02.7200000000E+03-5.000000000E+01+
*       1.6666666667E+01               0
GRID*             101225               02.7200000000E+03-5.000000000E+01+
*       -1.666666667E+01               0
GRID*             101226               02.7100000000E+03-5.000000000E+01+
*       1.6666666667E+01               0
GRID*             101227               02.7100000000E+03-5.000000000E+01+
*       -1.666666667E+01               0
GRID*             101228               02.7000000000E+03-5.000000000E+01+
*       1.6666666667E+01               0
GRID*             101229               02.7000000000E+03-5.000000000E+01+
*       -1.666666667E+01               0
GRID*             101230               02.6900000000E+03-5.000000000E+01+
*       1.6666666667E+01               0
GRID*             101231               02.6900000000E+03-5.000000000E+01+
*       -1.666666667E+01               0
GRID*             101232               02.6800000000E+03-5.000000000E+01+
*       1.6666666667E+01               0
GRID*             101233               02.6800000000E+03-5.000000000E+01+
*       -1.666666667E+01               0
GRID*             101234               02.6700000000E+03-5.000000000E+01+
*       1.6666666667E+01               0
GRID*             101235               02.6700000000E+03-5.000000000E+01+
*       -1.666666667E+01               0
GRID*             101236               02.6600000000E+03-5.000000000E+01+
*       1.6666666667E+01               0
GRID*             101237               02.6600000000E+03-5.000000000E+01+
*       -1.666666667E+01               0
GRID*             101238               02.6500000000E+03-5.000000000E+01+
*       1.6666666667E+01               0
GRID*             101239               02.6500000000E+03-5.000000000E+01+
*       -1.666666667E+01               0
GRID*             101240               02.6400000000E+03-5.000000000E+01+
*       1.6666666667E+01               0
GRID*             101241               02.6400000000E+03-5.000000000E+01+
*       -1.666666667E+01               0
GRID*             101242               02.6300000000E+03-5.000000000E+01+
*       1.6666666667E+01               0
GRID*             101243               02.6300000000E+03-5.000000000E+01+
*       -1.666666667E+01               0
GRID*             101244               02.6200000000E+03-5.000000000E+01+
*       1.6666666667E+01               0
GRID*             101245               02.6200000000E+03-5.000000000E+01+
*       -1.666666667E+01               0
GRID*             101246               02.6100000000E+03-5.000000000E+01+
*       1.6666666667E+01               0
GRID*             101247               02.6100000000E+03-5.000000000E+01+
*       -1.666666667E+01               0
GRID*             101248               02.6000000000E+03-5.000000000E+01+
*       1.6666666667E+01               0
GRID*             101249               02.6000000000E+03-5.000000000E+01+
*       -1.666666667E+01               0
GRID*             101250               02.5900000000E+03-5.000000000E+01+
*       1.6666666667E+01               0
GRID*             101251               02.5900000000E+03-5.000000000E+01+
*       -1.666666667E+01               0
GRID*             101252               02.5800000000E+03-5.000000000E+01+
*       1.6666666667E+01               0
GRID*             101253               02.5800000000E+03-5.000000000E+01+
*       -1.666666667E+01               0
GRID*             101254               02.5700000000E+03-5.000000000E+01+
*       1.6666666667E+01               0
GRID*             101255               02.5700000000E+03-5.000000000E+01+
*       -1.666666667E+01               0
GRID*             101256               02.5600000000E+03-5.000000000E+01+
*       1.6666666667E+01               0
GRID*             101257               02.5600000000E+03-5.000000000E+01+
*       -1.666666667E+01               0
GRID*             101258               02.5500000000E+03-5.000000000E+01+
*       1.6666666667E+01               0
GRID*             101259               02.5500000000E+03-5.000000000E+01+
*       -1.666666667E+01               0
GRID*             101260               02.5400000000E+03-5.000000000E+01+
*       1.6666666667E+01               0
GRID*             101261               02.5400000000E+03-5.000000000E+01+
*       -1.666666667E+01               0
GRID*             101262               02.5300000000E+03-5.000000000E+01+
*       1.6666666667E+01               0
GRID*             101263               02.5300000000E+03-5.000000000E+01+
*       -1.666666667E+01               0
GRID*             101264               02.5200000000E+03-5.000000000E+01+
*       1.6666666667E+01               0
GRID*             101265               02.5200000000E+03-5.000000000E+01+
*       -1.666666667E+01               0
GRID*             101266               02.5100000000E+03-5.000000000E+01+
*       1.6666666667E+01               0
GRID*             101267               02.5100000000E+03-5.000000000E+01+
*       -1.666666667E+01               0
GRID*             101268               02.5000000000E+03-5.000000000E+01+
*       1.6666666667E+01               0
GRID*             101269               02.5000000000E+03-5.000000000E+01+
*       -1.666666667E+01               0
GRID*             101270               02.4900000000E+03-5.000000000E+01+
*       1.6666666667E+01               0
GRID*             101271               02.4900000000E+03-5.000000000E+01+
*       -1.666666667E+01               0
GRID*             101272               02.4800000000E+03-5.000000000E+01+
*       1.6666666667E+01               0
GRID*             101273               02.4800000000E+03-5.000000000E+01+
*       -1.666666667E+01               0
GRID*             101274               02.4700000000E+03-5.000000000E+01+
*       1.6666666667E+01               0
GRID*             101275               02.4700000000E+03-5.000000000E+01+
*       -1.666666667E+01               0
GRID*             101276               02.4600000000E+03-5.000000000E+01+
*       1.6666666667E+01               0
GRID*             101277               02.4600000000E+03-5.000000000E+01+
*       -1.666666667E+01               0
GRID*             101278               02.4500000000E+03-5.000000000E+01+
*       1.6666666667E+01               0
GRID*             101279               02.4500000000E+03-5.000000000E+01+
*       -1.666666667E+01               0
GRID*             101280               02.4400000000E+03-5.000000000E+01+
*       1.6666666667E+01               0
GRID*             101281               02.4400000000E+03-5.000000000E+01+
*       -1.666666667E+01               0
GRID*             101282               02.4300000000E+03-5.000000000E+01+
*       1.6666666667E+01               0
GRID*             101283               02.4300000000E+03-5.000000000E+01+
*       -1.666666667E+01               0
GRID*             101284               02.4200000000E+03-5.000000000E+01+
*       1.6666666667E+01               0
GRID*             101285               02.4200000000E+03-5.000000000E+01+
*       -1.666666667E+01               0
GRID*             101286               02.4100000000E+03-5.000000000E+01+
*       1.6666666667E+01               0
GRID*             101287               02.4100000000E+03-5.000000000E+01+
*       -1.666666667E+01               0
GRID*             101288               02.4000000000E+03-5.000000000E+01+
*       1.6666666667E+01               0
GRID*             101289               02.4000000000E+03-5.000000000E+01+
*       -1.666666667E+01               0
GRID*             101290               02.3900000000E+03-5.000000000E+01+
*       1.6666666667E+01               0
GRID*             101291               02.3900000000E+03-5.000000000E+01+
*       -1.666666667E+01               0
GRID*             101292               02.3800000000E+03-5.000000000E+01+
*       1.6666666667E+01               0
GRID*             101293               02.3800000000E+03-5.000000000E+01+
*       -1.666666667E+01               0
GRID*             101294               02.3700000000E+03-5.000000000E+01+
*       1.6666666667E+01               0
GRID*             101295               02.3700000000E+03-5.000000000E+01+
*       -1.666666667E+01               0
GRID*             101296               02.3600000000E+03-5.000000000E+01+
*       1.6666666667E+01               0
GRID*             101297               02.3600000000E+03-5.000000000E+01+
*       -1.666666667E+01               0
GRID*             101298               02.3500000000E+03-5.000000000E+01+
*       1.6666666667E+01               0
GRID*             101299               02.3500000000E+03-5.000000000E+01+
*       -1.666666667E+01               0
GRID*             101300               02.3400000000E+03-5.000000000E+01+
*       1.6666666667E+01               0
GRID*             101301               02.3400000000E+03-5.000000000E+01+
*       -1.666666667E+01               0
GRID*             101302               02.3300000000E+03-5.000000000E+01+
*       1.6666666667E+01               0
GRID*             101303               02.3300000000E+03-5.000000000E+01+
*       -1.666666667E+01               0
GRID*             101304               02.3200000000E+03-5.000000000E+01+
*       1.6666666667E+01               0
GRID*             101305               02.3200000000E+03-5.000000000E+01+
*       -1.666666667E+01               0
GRID*             101306               02.3100000000E+03-5.000000000E+01+
*       1.6666666667E+01               0
GRID*             101307               02.3100000000E+03-5.000000000E+01+
*       -1.666666667E+01               0
GRID*             101308               02.3000000000E+03-5.000000000E+01+
*       1.6666666667E+01               0
GRID*             101309               02.3000000000E+03-5.000000000E+01+
*       -1.666666667E+01               0
GRID*             101310               02.2900000000E+03-5.000000000E+01+
*       1.6666666667E+01               0
GRID*             101311               02.2900000000E+03-5.000000000E+01+
*       -1.666666667E+01               0
GRID*             101312               02.2800000000E+03-5.000000000E+01+
*       1.6666666667E+01               0
GRID*             101313               02.2800000000E+03-5.000000000E+01+
*       -1.666666667E+01               0
GRID*             101314               02.2700000000E+03-5.000000000E+01+
*       1.6666666667E+01               0
GRID*             101315               02.2700000000E+03-5.000000000E+01+
*       -1.666666667E+01               0
GRID*             101316               02.2600000000E+03-5.000000000E+01+
*       1.6666666667E+01               0
GRID*             101317               02.2600000000E+03-5.000000000E+01+
*       -1.666666667E+01               0
GRID*             101318               02.2500000000E+03-5.000000000E+01+
*       1.6666666667E+01               0
GRID*             101319               02.2500000000E+03-5.000000000E+01+
*       -1.666666667E+01               0
GRID*             101320               02.2400000000E+03-5.000000000E+01+
*       1.6666666667E+01               0
GRID*             101321               02.2400000000E+03-5.000000000E+01+
*       -1.666666667E+01               0
GRID*             101322               02.2300000000E+03-5.000000000E+01+
*       1.6666666667E+01               0
GRID*             101323               02.2300000000E+03-5.000000000E+01+
*       -1.666666667E+01               0
GRID*             101324               02.2200000000E+03-5.000000000E+01+
*       1.6666666667E+01               0
GRID*             101325               02.2200000000E+03-5.000000000E+01+
*       -1.666666667E+01               0
GRID*             101326               02.2100000000E+03-5.000000000E+01+
*       1.6666666667E+01               0
GRID*             101327               02.2100000000E+03-5.000000000E+01+
*       -1.666666667E+01               0
GRID*             101328               02.2000000000E+03-5.000000000E+01+
*       1.6666666667E+01               0
GRID*             101329               02.2000000000E+03-5.000000000E+01+
*       -1.666666667E+01               0
GRID*             101330               02.1900000000E+03-5.000000000E+01+
*       1.6666666667E+01               0
GRID*             101331               02.1900000000E+03-5.000000000E+01+
*       -1.666666667E+01               0
GRID*             101332               02.1800000000E+03-5.000000000E+01+
*       1.6666666667E+01               0
GRID*             101333               02.1800000000E+03-5.000000000E+01+
*       -1.666666667E+01               0
GRID*             101334               02.1700000000E+03-5.000000000E+01+
*       1.6666666667E+01               0
GRID*             101335               02.1700000000E+03-5.000000000E+01+
*       -1.666666667E+01               0
GRID*             101336               02.1600000000E+03-5.000000000E+01+
*       1.6666666667E+01               0
GRID*             101337               02.1600000000E+03-5.000000000E+01+
*       -1.666666667E+01               0
GRID*             101338               02.1500000000E+03-5.000000000E+01+
*       1.6666666667E+01               0
GRID*             101339               02.1500000000E+03-5.000000000E+01+
*       -1.666666667E+01               0
GRID*             101340               02.1400000000E+03-5.000000000E+01+
*       1.6666666667E+01               0
GRID*             101341               02.1400000000E+03-5.000000000E+01+
*       -1.666666667E+01               0
GRID*             101342               02.1300000000E+03-5.000000000E+01+
*       1.6666666667E+01               0
GRID*             101343               02.1300000000E+03-5.000000000E+01+
*       -1.666666667E+01               0
GRID*             101344               02.1200000000E+03-5.000000000E+01+
*       1.6666666667E+01               0
GRID*             101345               02.1200000000E+03-5.000000000E+01+
*       -1.666666667E+01               0
GRID*             101346               02.1100000000E+03-5.000000000E+01+
*       1.6666666667E+01               0
GRID*             101347               02.1100000000E+03-5.000000000E+01+
*       -1.666666667E+01               0
GRID*             101348               02.1000000000E+03-5.000000000E+01+
*       1.6666666667E+01               0
GRID*             101349               02.1000000000E+03-5.000000000E+01+
*       -1.666666667E+01               0
GRID*             101350               02.0900000000E+03-5.000000000E+01+
*       1.6666666667E+01               0
GRID*             101351               02.0900000000E+03-5.000000000E+01+
*       -1.666666667E+01               0
GRID*             101352               02.0800000000E+03-5.000000000E+01+
*       1.6666666667E+01               0
GRID*             101353               02.0800000000E+03-5.000000000E+01+
*       -1.666666667E+01               0
GRID*             101354               02.0700000000E+03-5.000000000E+01+
*       1.6666666667E+01               0
GRID*             101355               02.0700000000E+03-5.000000000E+01+
*       -1.666666667E+01               0
GRID*             101356               02.0600000000E+03-5.000000000E+01+
*       1.6666666667E+01               0
GRID*             101357               02.0600000000E+03-5.000000000E+01+
*       -1.666666667E+01               0
GRID*             101358               02.0500000000E+03-5.000000000E+01+
*       1.6666666667E+01               0
GRID*             101359               02.0500000000E+03-5.000000000E+01+
*       -1.666666667E+01               0
GRID*             101360               02.0400000000E+03-5.000000000E+01+
*       1.6666666667E+01               0
GRID*             101361               02.0400000000E+03-5.000000000E+01+
*       -1.666666667E+01               0
GRID*             101362               02.0300000000E+03-5.000000000E+01+
*       1.6666666667E+01               0
GRID*             101363               02.0300000000E+03-5.000000000E+01+
*       -1.666666667E+01               0
GRID*             101364               02.0200000000E+03-5.000000000E+01+
*       1.6666666667E+01               0
GRID*             101365               02.0200000000E+03-5.000000000E+01+
*       -1.666666667E+01               0
GRID*             101366               02.0100000000E+03-5.000000000E+01+
*       1.6666666667E+01               0
GRID*             101367               02.0100000000E+03-5.000000000E+01+
*       -1.666666667E+01               0
GRID*             101368               02.0100000000E+031.6666666667E+01+
*       -5.000000000E+01               0
GRID*             101369               02.0100000000E+03-1.666666667E+01+
*       -5.000000000E+01               0
GRID*             101370               02.0200000000E+031.6666666667E+01+
*       -5.000000000E+01               0
GRID*             101371               02.0200000000E+03-1.666666667E+01+
*       -5.000000000E+01               0
GRID*             101372               02.0300000000E+031.6666666667E+01+
*       -5.000000000E+01               0
GRID*             101373               02.0300000000E+03-1.666666667E+01+
*       -5.000000000E+01               0
GRID*             101374               02.0400000000E+031.6666666667E+01+
*       -5.000000000E+01               0
GRID*             101375               02.0400000000E+03-1.666666667E+01+
*       -5.000000000E+01               0
GRID*             101376               02.0500000000E+031.6666666667E+01+
*       -5.000000000E+01               0
GRID*             101377               02.0500000000E+03-1.666666667E+01+
*       -5.000000000E+01               0
GRID*             101378               02.0600000000E+031.6666666667E+01+
*       -5.000000000E+01               0
GRID*             101379               02.0600000000E+03-1.666666667E+01+
*       -5.000000000E+01               0
GRID*             101380               02.0700000000E+031.6666666667E+01+
*       -5.000000000E+01               0
GRID*             101381               02.0700000000E+03-1.666666667E+01+
*       -5.000000000E+01               0
GRID*             101382               02.0800000000E+031.6666666667E+01+
*       -5.000000000E+01               0
GRID*             101383               02.0800000000E+03-1.666666667E+01+
*       -5.000000000E+01               0
GRID*             101384               02.0900000000E+031.6666666667E+01+
*       -5.000000000E+01               0
GRID*             101385               02.0900000000E+03-1.666666667E+01+
*       -5.000000000E+01               0
GRID*             101386               02.1000000000E+031.6666666667E+01+
*       -5.000000000E+01               0
GRID*             101387               02.1000000000E+03-1.666666667E+01+
*       -5.000000000E+01               0
GRID*             101388               02.1100000000E+031.6666666667E+01+
*       -5.000000000E+01               0
GRID*             101389               02.1100000000E+03-1.666666667E+01+
*       -5.000000000E+01               0
GRID*             101390               02.1200000000E+031.6666666667E+01+
*       -5.000000000E+01               0
GRID*             101391               02.1200000000E+03-1.666666667E+01+
*       -5.000000000E+01               0
GRID*             101392               02.1300000000E+031.6666666667E+01+
*       -5.000000000E+01               0
GRID*             101393               02.1300000000E+03-1.666666667E+01+
*       -5.000000000E+01               0
GRID*             101394               02.1400000000E+031.6666666667E+01+
*       -5.000000000E+01               0
GRID*             101395               02.1400000000E+03-1.666666667E+01+
*       -5.000000000E+01               0
GRID*             101396               02.1500000000E+031.6666666667E+01+
*       -5.000000000E+01               0
GRID*             101397               02.1500000000E+03-1.666666667E+01+
*       -5.000000000E+01               0
GRID*             101398               02.1600000000E+031.6666666667E+01+
*       -5.000000000E+01               0
GRID*             101399               02.1600000000E+03-1.666666667E+01+
*       -5.000000000E+01               0
GRID*             101400               02.1700000000E+031.6666666667E+01+
*       -5.000000000E+01               0
GRID*             101401               02.1700000000E+03-1.666666667E+01+
*       -5.000000000E+01               0
GRID*             101402               02.1800000000E+031.6666666667E+01+
*       -5.000000000E+01               0
GRID*             101403               02.1800000000E+03-1.666666667E+01+
*       -5.000000000E+01               0
GRID*             101404               02.1900000000E+031.6666666667E+01+
*       -5.000000000E+01               0
GRID*             101405               02.1900000000E+03-1.666666667E+01+
*       -5.000000000E+01               0
GRID*             101406               02.2000000000E+031.6666666667E+01+
*       -5.000000000E+01               0
GRID*             101407               02.2000000000E+03-1.666666667E+01+
*       -5.000000000E+01               0
GRID*             101408               02.2100000000E+031.6666666667E+01+
*       -5.000000000E+01               0
GRID*             101409               02.2100000000E+03-1.666666667E+01+
*       -5.000000000E+01               0
GRID*             101410               02.2200000000E+031.6666666667E+01+
*       -5.000000000E+01               0
GRID*             101411               02.2200000000E+03-1.666666667E+01+
*       -5.000000000E+01               0
GRID*             101412               02.2300000000E+031.6666666667E+01+
*       -5.000000000E+01               0
GRID*             101413               02.2300000000E+03-1.666666667E+01+
*       -5.000000000E+01               0
GRID*             101414               02.2400000000E+031.6666666667E+01+
*       -5.000000000E+01               0
GRID*             101415               02.2400000000E+03-1.666666667E+01+
*       -5.000000000E+01               0
GRID*             101416               02.2500000000E+031.6666666667E+01+
*       -5.000000000E+01               0
GRID*             101417               02.2500000000E+03-1.666666667E+01+
*       -5.000000000E+01               0
GRID*             101418               02.2600000000E+031.6666666667E+01+
*       -5.000000000E+01               0
GRID*             101419               02.2600000000E+03-1.666666667E+01+
*       -5.000000000E+01               0
GRID*             101420               02.2700000000E+031.6666666667E+01+
*       -5.000000000E+01               0
GRID*             101421               02.2700000000E+03-1.666666667E+01+
*       -5.000000000E+01               0
GRID*             101422               02.2800000000E+031.6666666667E+01+
*       -5.000000000E+01               0
GRID*             101423               02.2800000000E+03-1.666666667E+01+
*       -5.000000000E+01               0
GRID*             101424               02.2900000000E+031.6666666667E+01+
*       -5.000000000E+01               0
GRID*             101425               02.2900000000E+03-1.666666667E+01+
*       -5.000000000E+01               0
GRID*             101426               02.3000000000E+031.6666666667E+01+
*       -5.000000000E+01               0
GRID*             101427               02.3000000000E+03-1.666666667E+01+
*       -5.000000000E+01               0
GRID*             101428               02.3100000000E+031.6666666667E+01+
*       -5.000000000E+01               0
GRID*             101429               02.3100000000E+03-1.666666667E+01+
*       -5.000000000E+01               0
GRID*             101430               02.3200000000E+031.6666666667E+01+
*       -5.000000000E+01               0
GRID*             101431               02.3200000000E+03-1.666666667E+01+
*       -5.000000000E+01               0
GRID*             101432               02.3300000000E+031.6666666667E+01+
*       -5.000000000E+01               0
GRID*             101433               02.3300000000E+03-1.666666667E+01+
*       -5.000000000E+01               0
GRID*             101434               02.3400000000E+031.6666666667E+01+
*       -5.000000000E+01               0
GRID*             101435               02.3400000000E+03-1.666666667E+01+
*       -5.000000000E+01               0
GRID*             101436               02.3500000000E+031.6666666667E+01+
*       -5.000000000E+01               0
GRID*             101437               02.3500000000E+03-1.666666667E+01+
*       -5.000000000E+01               0
GRID*             101438               02.3600000000E+031.6666666667E+01+
*       -5.000000000E+01               0
GRID*             101439               02.3600000000E+03-1.666666667E+01+
*       -5.000000000E+01               0
GRID*             101440               02.3700000000E+031.6666666667E+01+
*       -5.000000000E+01               0
GRID*             101441               02.3700000000E+03-1.666666667E+01+
*       -5.000000000E+01               0
GRID*             101442               02.3800000000E+031.6666666667E+01+
*       -5.000000000E+01               0
GRID*             101443               02.3800000000E+03-1.666666667E+01+
*       -5.000000000E+01               0
GRID*             101444               02.3900000000E+031.6666666667E+01+
*       -5.000000000E+01               0
GRID*             101445               02.3900000000E+03-1.666666667E+01+
*       -5.000000000E+01               0
GRID*             101446               02.4000000000E+031.6666666667E+01+
*       -5.000000000E+01               0
GRID*             101447               02.4000000000E+03-1.666666667E+01+
*       -5.000000000E+01               0
GRID*             101448               02.4100000000E+031.6666666667E+01+
*       -5.000000000E+01               0
GRID*             101449               02.4100000000E+03-1.666666667E+01+
*       -5.000000000E+01               0
GRID*             101450               02.4200000000E+031.6666666667E+01+
*       -5.000000000E+01               0
GRID*             101451               02.4200000000E+03-1.666666667E+01+
*       -5.000000000E+01               0
GRID*             101452               02.4300000000E+031.6666666667E+01+
*       -5.000000000E+01               0
GRID*             101453               02.4300000000E+03-1.666666667E+01+
*       -5.000000000E+01               0
GRID*             101454               02.4400000000E+031.6666666667E+01+
*       -5.000000000E+01               0
GRID*             101455               02.4400000000E+03-1.666666667E+01+
*       -5.000000000E+01               0
GRID*             101456               02.4500000000E+031.6666666667E+01+
*       -5.000000000E+01               0
GRID*             101457               02.4500000000E+03-1.666666667E+01+
*       -5.000000000E+01               0
GRID*             101458               02.4600000000E+031.6666666667E+01+
*       -5.000000000E+01               0
GRID*             101459               02.4600000000E+03-1.666666667E+01+
*       -5.000000000E+01               0
GRID*             101460               02.4700000000E+031.6666666667E+01+
*       -5.000000000E+01               0
GRID*             101461               02.4700000000E+03-1.666666667E+01+
*       -5.000000000E+01               0
GRID*             101462               02.4800000000E+031.6666666667E+01+
*       -5.000000000E+01               0
GRID*             101463               02.4800000000E+03-1.666666667E+01+
*       -5.000000000E+01               0
GRID*             101464               02.4900000000E+031.6666666667E+01+
*       -5.000000000E+01               0
GRID*             101465               02.4900000000E+03-1.666666667E+01+
*       -5.000000000E+01               0
GRID*             101466               02.5000000000E+031.6666666667E+01+
*       -5.000000000E+01               0
GRID*             101467               02.5000000000E+03-1.666666667E+01+
*       -5.000000000E+01               0
GRID*             101468               02.5100000000E+031.6666666667E+01+
*       -5.000000000E+01               0
GRID*             101469               02.5100000000E+03-1.666666667E+01+
*       -5.000000000E+01               0
GRID*             101470               02.5200000000E+031.6666666667E+01+
*       -5.000000000E+01               0
GRID*             101471               02.5200000000E+03-1.666666667E+01+
*       -5.000000000E+01               0
GRID*             101472               02.5300000000E+031.6666666667E+01+
*       -5.000000000E+01               0
GRID*             101473               02.5300000000E+03-1.666666667E+01+
*       -5.000000000E+01               0
GRID*             101474               02.5400000000E+031.6666666667E+01+
*       -5.000000000E+01               0
GRID*             101475               02.5400000000E+03-1.666666667E+01+
*       -5.000000000E+01               0
GRID*             101476               02.5500000000E+031.6666666667E+01+
*       -5.000000000E+01               0
GRID*             101477               02.5500000000E+03-1.666666667E+01+
*       -5.000000000E+01               0
GRID*             101478               02.5600000000E+031.6666666667E+01+
*       -5.000000000E+01               0
GRID*             101479               02.5600000000E+03-1.666666667E+01+
*       -5.000000000E+01               0
GRID*             101480               02.5700000000E+031.6666666667E+01+
*       -5.000000000E+01               0
GRID*             101481               02.5700000000E+03-1.666666667E+01+
*       -5.000000000E+01               0
GRID*             101482               02.5800000000E+031.6666666667E+01+
*       -5.000000000E+01               0
GRID*             101483               02.5800000000E+03-1.666666667E+01+
*       -5.000000000E+01               0
GRID*             101484               02.5900000000E+031.6666666667E+01+
*       -5.000000000E+01               0
GRID*             101485               02.5900000000E+03-1.666666667E+01+
*       -5.000000000E+01               0
GRID*             101486               02.6000000000E+031.6666666667E+01+
*       -5.000000000E+01               0
GRID*             101487               02.6000000000E+03-1.666666667E+01+
*       -5.000000000E+01               0
GRID*             101488               02.6100000000E+031.6666666667E+01+
*       -5.000000000E+01               0
GRID*             101489               02.6100000000E+03-1.666666667E+01+
*       -5.000000000E+01               0
GRID*             101490               02.6200000000E+031.6666666667E+01+
*       -5.000000000E+01               0
GRID*             101491               02.6200000000E+03-1.666666667E+01+
*       -5.000000000E+01               0
GRID*             101492               02.6300000000E+031.6666666667E+01+
*       -5.000000000E+01               0
GRID*             101493               02.6300000000E+03-1.666666667E+01+
*       -5.000000000E+01               0
GRID*             101494               02.6400000000E+031.6666666667E+01+
*       -5.000000000E+01               0
GRID*             101495               02.6400000000E+03-1.666666667E+01+
*       -5.000000000E+01               0
GRID*             101496               02.6500000000E+031.6666666667E+01+
*       -5.000000000E+01               0
GRID*             101497               02.6500000000E+03-1.666666667E+01+
*       -5.000000000E+01               0
GRID*             101498               02.6600000000E+031.6666666667E+01+
*       -5.000000000E+01               0
GRID*             101499               02.6600000000E+03-1.666666667E+01+
*       -5.000000000E+01               0
GRID*             101500               02.6700000000E+031.6666666667E+01+
*       -5.000000000E+01               0
GRID*             101501               02.6700000000E+03-1.666666667E+01+
*       -5.000000000E+01               0
GRID*             101502               02.6800000000E+031.6666666667E+01+
*       -5.000000000E+01               0
GRID*             101503               02.6800000000E+03-1.666666667E+01+
*       -5.000000000E+01               0
GRID*             101504               02.6900000000E+031.6666666667E+01+
*       -5.000000000E+01               0
GRID*             101505               02.6900000000E+03-1.666666667E+01+
*       -5.000000000E+01               0
GRID*             101506               02.7000000000E+031.6666666667E+01+
*       -5.000000000E+01               0
GRID*             101507               02.7000000000E+03-1.666666667E+01+
*       -5.000000000E+01               0
GRID*             101508               02.7100000000E+031.6666666667E+01+
*       -5.000000000E+01               0
GRID*             101509               02.7100000000E+03-1.666666667E+01+
*       -5.000000000E+01               0
GRID*             101510               02.7200000000E+031.6666666667E+01+
*       -5.000000000E+01               0
GRID*             101511               02.7200000000E+03-1.666666667E+01+
*       -5.000000000E+01               0
GRID*             101512               02.7300000000E+031.6666666667E+01+
*       -5.000000000E+01               0
GRID*             101513               02.7300000000E+03-1.666666667E+01+
*       -5.000000000E+01               0
GRID*             101514               02.7400000000E+031.6666666667E+01+
*       -5.000000000E+01               0
GRID*             101515               02.7400000000E+03-1.666666667E+01+
*       -5.000000000E+01               0
GRID*             101516               02.7500000000E+031.6666666667E+01+
*       -5.000000000E+01               0
GRID*             101517               02.7500000000E+03-1.666666667E+01+
*       -5.000000000E+01               0
GRID*             101518               02.7600000000E+031.6666666667E+01+
*       -5.000000000E+01               0
GRID*             101519               02.7600000000E+03-1.666666667E+01+
*       -5.000000000E+01               0
GRID*             101520               02.7700000000E+031.6666666667E+01+
*       -5.000000000E+01               0
GRID*             101521               02.7700000000E+03-1.666666667E+01+
*       -5.000000000E+01               0
GRID*             101522               02.7800000000E+031.6666666667E+01+
*       -5.000000000E+01               0
GRID*             101523               02.7800000000E+03-1.666666667E+01+
*       -5.000000000E+01               0
GRID*             101524               02.7900000000E+031.6666666667E+01+
*       -5.000000000E+01               0
GRID*             101525               02.7900000000E+03-1.666666667E+01+
*       -5.000000000E+01               0
GRID*             101526               02.8000000000E+031.6666666667E+01+
*       -5.000000000E+01               0
GRID*             101527               02.8000000000E+03-1.666666667E+01+
*       -5.000000000E+01               0
GRID*             101528               02.8100000000E+031.6666666667E+01+
*       -5.000000000E+01               0
GRID*             101529               02.8100000000E+03-1.666666667E+01+
*       -5.000000000E+01               0
GRID*             101530               02.8200000000E+031.6666666667E+01+
*       -5.000000000E+01               0
GRID*             101531               02.8200000000E+03-1.666666667E+01+
*       -5.000000000E+01               0
GRID*             101532               02.8300000000E+031.6666666667E+01+
*       -5.000000000E+01               0
GRID*             101533               02.8300000000E+03-1.666666667E+01+
*       -5.000000000E+01               0
GRID*             101534               02.8400000000E+031.6666666667E+01+
*       -5.000000000E+01               0
GRID*             101535               02.8400000000E+03-1.666666667E+01+
*       -5.000000000E+01               0
GRID*             101536               02.8500000000E+031.6666666667E+01+
*       -5.000000000E+01               0
GRID*             101537               02.8500000000E+03-1.666666667E+01+
*       -5.000000000E+01               0
GRID*             101538               02.8600000000E+031.6666666667E+01+
*       -5.000000000E+01               0
GRID*             101539               02.8600000000E+03-1.666666667E+01+
*       -5.000000000E+01               0
GRID*             101540               02.8700000000E+031.6666666667E+01+
*       -5.000000000E+01               0
GRID*             101541               02.8700000000E+03-1.666666667E+01+
*       -5.000000000E+01               0
GRID*             101542               02.8800000000E+031.6666666667E+01+
*       -5.000000000E+01               0
GRID*             101543               02.8800000000E+03-1.666666667E+01+
*       -5.000000000E+01               0
GRID*             101544               02.8900000000E+031.6666666667E+01+
*       -5.000000000E+01               0
GRID*             101545               02.8900000000E+03-1.666666667E+01+
*       -5.000000000E+01               0
GRID*             101546               02.9000000000E+031.6666666667E+01+
*       -5.000000000E+01               0
GRID*             101547               02.9000000000E+03-1.666666667E+01+
*       -5.000000000E+01               0
GRID*             101548               02.9100000000E+031.6666666667E+01+
*       -5.000000000E+01               0
GRID*             101549               02.9100000000E+03-1.666666667E+01+
*       -5.000000000E+01               0
GRID*             101550               02.9200000000E+031.6666666667E+01+
*       -5.000000000E+01               0
GRID*             101551               02.9200000000E+03-1.666666667E+01+
*       -5.000000000E+01               0
GRID*             101552               02.9300000000E+031.6666666667E+01+
*       -5.000000000E+01               0
GRID*             101553               02.9300000000E+03-1.666666667E+01+
*       -5.000000000E+01               0
GRID*             101554               02.9400000000E+031.6666666667E+01+
*       -5.000000000E+01               0
GRID*             101555               02.9400000000E+03-1.666666667E+01+
*       -5.000000000E+01               0
GRID*             101556               02.9500000000E+031.6666666667E+01+
*       -5.000000000E+01               0
GRID*             101557               02.9500000000E+03-1.666666667E+01+
*       -5.000000000E+01               0
GRID*             101558               02.9600000000E+031.6666666667E+01+
*       -5.000000000E+01               0
GRID*             101559               02.9600000000E+03-1.666666667E+01+
*       -5.000000000E+01               0
GRID*             101560               02.9700000000E+031.6666666667E+01+
*       -5.000000000E+01               0
GRID*             101561               02.9700000000E+03-1.666666667E+01+
*       -5.000000000E+01               0
GRID*             101562               02.9800000000E+031.6666666667E+01+
*       -5.000000000E+01               0
GRID*             101563               02.9800000000E+03-1.666666667E+01+
*       -5.000000000E+01               0
GRID*             101564               02.9900000000E+031.6666666667E+01+
*       -5.000000000E+01               0
GRID*             101565               02.9900000000E+03-1.666666667E+01+
*       -5.000000000E+01               0
GRID*             101566               03.0000000000E+031.6666666667E+01+
*       -5.000000000E+01               0
GRID*             101567               03.0000000000E+03-1.666666667E+01+
*       -5.000000000E+01               0
GRID*             101568               03.0100000000E+031.6666666667E+01+
*       -5.000000000E+01               0
GRID*             101569               03.0100000000E+03-1.666666667E+01+
*       -5.000000000E+01               0
GRID*             101570               03.0200000000E+031.6666666667E+01+
*       -5.000000000E+01               0
GRID*             101571               03.0200000000E+03-1.666666667E+01+
*       -5.000000000E+01               0
GRID*             101572               03.0300000000E+031.6666666667E+01+
*       -5.000000000E+01               0
GRID*             101573               03.0300000000E+03-1.666666667E+01+
*       -5.000000000E+01               0
GRID*             101574               03.0400000000E+031.6666666667E+01+
*       -5.000000000E+01               0
GRID*             101575               03.0400000000E+03-1.666666667E+01+
*       -5.000000000E+01               0
GRID*             101576               03.0500000000E+031.6666666667E+01+
*       -5.000000000E+01               0
GRID*             101577               03.0500000000E+03-1.666666667E+01+
*       -5.000000000E+01               0
GRID*             101578               03.0600000000E+031.6666666667E+01+
*       -5.000000000E+01               0
GRID*             101579               03.0600000000E+03-1.666666667E+01+
*       -5.000000000E+01               0
GRID*             101580               03.0700000000E+031.6666666667E+01+
*       -5.000000000E+01               0
GRID*             101581               03.0700000000E+03-1.666666667E+01+
*       -5.000000000E+01               0
GRID*             101582               03.0800000000E+031.6666666667E+01+
*       -5.000000000E+01               0
GRID*             101583               03.0800000000E+03-1.666666667E+01+
*       -5.000000000E+01               0
GRID*             101584               03.0900000000E+031.6666666667E+01+
*       -5.000000000E+01               0
GRID*             101585               03.0900000000E+03-1.666666667E+01+
*       -5.000000000E+01               0
GRID*             101586               03.1000000000E+031.6666666667E+01+
*       -5.000000000E+01               0
GRID*             101587               03.1000000000E+03-1.666666667E+01+
*       -5.000000000E+01               0
GRID*             101588               03.1100000000E+031.6666666667E+01+
*       -5.000000000E+01               0
GRID*             101589               03.1100000000E+03-1.666666667E+01+
*       -5.000000000E+01               0
GRID*             101590               03.1200000000E+031.6666666667E+01+
*       -5.000000000E+01               0
GRID*             101591               03.1200000000E+03-1.666666667E+01+
*       -5.000000000E+01               0
GRID*             101592               03.1300000000E+031.6666666667E+01+
*       -5.000000000E+01               0
GRID*             101593               03.1300000000E+03-1.666666667E+01+
*       -5.000000000E+01               0
GRID*             101594               03.1400000000E+031.6666666667E+01+
*       -5.000000000E+01               0
GRID*             101595               03.1400000000E+03-1.666666667E+01+
*       -5.000000000E+01               0
GRID*             101596               03.1500000000E+031.6666666667E+01+
*       -5.000000000E+01               0
GRID*             101597               03.1500000000E+03-1.666666667E+01+
*       -5.000000000E+01               0
GRID*             101598               03.1600000000E+031.6666666667E+01+
*       -5.000000000E+01               0
GRID*             101599               03.1600000000E+03-1.666666667E+01+
*       -5.000000000E+01               0
GRID*             101600               03.1700000000E+031.6666666667E+01+
*       -5.000000000E+01               0
GRID*             101601               03.1700000000E+03-1.666666667E+01+
*       -5.000000000E+01               0
GRID*             101602               03.1800000000E+031.6666666667E+01+
*       -5.000000000E+01               0
GRID*             101603               03.1800000000E+03-1.666666667E+01+
*       -5.000000000E+01               0
GRID*             101604               03.1900000000E+031.6666666667E+01+
*       -5.000000000E+01               0
GRID*             101605               03.1900000000E+03-1.666666667E+01+
*       -5.000000000E+01               0
GRID*             101606               03.2000000000E+031.6666666667E+01+
*       -5.000000000E+01               0
GRID*             101607               03.2000000000E+03-1.666666667E+01+
*       -5.000000000E+01               0
GRID*             101608               03.2100000000E+031.6666666667E+01+
*       -5.000000000E+01               0
GRID*             101609               03.2100000000E+03-1.666666667E+01+
*       -5.000000000E+01               0
GRID*             101610               03.2200000000E+031.6666666667E+01+
*       -5.000000000E+01               0
GRID*             101611               03.2200000000E+03-1.666666667E+01+
*       -5.000000000E+01               0
GRID*             101612               03.2300000000E+031.6666666667E+01+
*       -5.000000000E+01               0
GRID*             101613               03.2300000000E+03-1.666666667E+01+
*       -5.000000000E+01               0
GRID*             101614               03.2400000000E+031.6666666667E+01+
*       -5.000000000E+01               0
GRID*             101615               03.2400000000E+03-1.666666667E+01+
*       -5.000000000E+01               0
GRID*             101616               03.2500000000E+031.6666666667E+01+
*       -5.000000000E+01               0
GRID*             101617               03.2500000000E+03-1.666666667E+01+
*       -5.000000000E+01               0
GRID*             101618               03.2600000000E+031.6666666667E+01+
*       -5.000000000E+01               0
GRID*             101619               03.2600000000E+03-1.666666667E+01+
*       -5.000000000E+01               0
GRID*             101620               03.2700000000E+031.6666666667E+01+
*       -5.000000000E+01               0
GRID*             101621               03.2700000000E+03-1.666666667E+01+
*       -5.000000000E+01               0
GRID*             101622               03.2800000000E+031.6666666667E+01+
*       -5.000000000E+01               0
GRID*             101623               03.2800000000E+03-1.666666667E+01+
*       -5.000000000E+01               0
GRID*             101624               03.2900000000E+031.6666666667E+01+
*       -5.000000000E+01               0
GRID*             101625               03.2900000000E+03-1.666666667E+01+
*       -5.000000000E+01               0
GRID*             101626               03.3000000000E+031.6666666667E+01+
*       -5.000000000E+01               0
GRID*             101627               03.3000000000E+03-1.666666667E+01+
*       -5.000000000E+01               0
GRID*             101628               03.3100000000E+031.6666666667E+01+
*       -5.000000000E+01               0
GRID*             101629               03.3100000000E+03-1.666666667E+01+
*       -5.000000000E+01               0
GRID*             101630               03.3200000000E+031.6666666667E+01+
*       -5.000000000E+01               0
GRID*             101631               03.3200000000E+03-1.666666667E+01+
*       -5.000000000E+01               0
GRID*             101632               03.3300000000E+031.6666666667E+01+
*       -5.000000000E+01               0
GRID*             101633               03.3300000000E+03-1.666666667E+01+
*       -5.000000000E+01               0
GRID*             101634               03.3400000000E+031.6666666667E+01+
*       -5.000000000E+01               0
GRID*             101635               03.3400000000E+03-1.666666667E+01+
*       -5.000000000E+01               0
GRID*             101636               03.3500000000E+031.6666666667E+01+
*       -5.000000000E+01               0
GRID*             101637               03.3500000000E+03-1.666666667E+01+
*       -5.000000000E+01               0
GRID*             101638               03.3600000000E+031.6666666667E+01+
*       -5.000000000E+01               0
GRID*             101639               03.3600000000E+03-1.666666667E+01+
*       -5.000000000E+01               0
GRID*             101640               03.3700000000E+031.6666666667E+01+
*       -5.000000000E+01               0
GRID*             101641               03.3700000000E+03-1.666666667E+01+
*       -5.000000000E+01               0
GRID*             101642               03.3800000000E+031.6666666667E+01+
*       -5.000000000E+01               0
GRID*             101643               03.3800000000E+03-1.666666667E+01+
*       -5.000000000E+01               0
GRID*             101644               03.3900000000E+031.6666666667E+01+
*       -5.000000000E+01               0
GRID*             101645               03.3900000000E+03-1.666666667E+01+
*       -5.000000000E+01               0
GRID*             101646               03.4000000000E+031.6666666667E+01+
*       -5.000000000E+01               0
GRID*             101647               03.4000000000E+03-1.666666667E+01+
*       -5.000000000E+01               0
GRID*             101648               03.4100000000E+031.6666666667E+01+
*       -5.000000000E+01               0
GRID*             101649               03.4100000000E+03-1.666666667E+01+
*       -5.000000000E+01               0
GRID*             101650               03.4200000000E+031.6666666667E+01+
*       -5.000000000E+01               0
GRID*             101651               03.4200000000E+03-1.666666667E+01+
*       -5.000000000E+01               0
GRID*             101652               03.4300000000E+031.6666666667E+01+
*       -5.000000000E+01               0
GRID*             101653               03.4300000000E+03-1.666666667E+01+
*       -5.000000000E+01               0
GRID*             101654               03.4400000000E+031.6666666667E+01+
*       -5.000000000E+01               0
GRID*             101655               03.4400000000E+03-1.666666667E+01+
*       -5.000000000E+01               0
GRID*             101656               03.4500000000E+031.6666666667E+01+
*       -5.000000000E+01               0
GRID*             101657               03.4500000000E+03-1.666666667E+01+
*       -5.000000000E+01               0
GRID*             101658               03.4600000000E+031.6666666667E+01+
*       -5.000000000E+01               0
GRID*             101659               03.4600000000E+03-1.666666667E+01+
*       -5.000000000E+01               0
GRID*             101660               03.4700000000E+031.6666666667E+01+
*       -5.000000000E+01               0
GRID*             101661               03.4700000000E+03-1.666666667E+01+
*       -5.000000000E+01               0
GRID*             101662               03.4800000000E+031.6666666667E+01+
*       -5.000000000E+01               0
GRID*             101663               03.4800000000E+03-1.666666667E+01+
*       -5.000000000E+01               0
GRID*             101664               03.4900000000E+031.6666666667E+01+
*       -5.000000000E+01               0
GRID*             101665               03.4900000000E+03-1.666666667E+01+
*       -5.000000000E+01               0
GRID*             101666               03.5000000000E+031.6666666667E+01+
*       -5.000000000E+01               0
GRID*             101667               03.5000000000E+03-1.666666667E+01+
*       -5.000000000E+01               0
GRID*             101668               03.5100000000E+031.6666666667E+01+
*       -5.000000000E+01               0
GRID*             101669               03.5100000000E+03-1.666666667E+01+
*       -5.000000000E+01               0
GRID*             101670               03.5200000000E+031.6666666667E+01+
*       -5.000000000E+01               0
GRID*             101671               03.5200000000E+03-1.666666667E+01+
*       -5.000000000E+01               0
GRID*             101672               03.5300000000E+031.6666666667E+01+
*       -5.000000000E+01               0
GRID*             101673               03.5300000000E+03-1.666666667E+01+
*       -5.000000000E+01               0
GRID*             101674               03.5400000000E+031.6666666667E+01+
*       -5.000000000E+01               0
GRID*             101675               03.5400000000E+03-1.666666667E+01+
*       -5.000000000E+01               0
GRID*             101676               03.5500000000E+031.6666666667E+01+
*       -5.000000000E+01               0
GRID*             101677               03.5500000000E+03-1.666666667E+01+
*       -5.000000000E+01               0
GRID*             101678               03.5600000000E+031.6666666667E+01+
*       -5.000000000E+01               0
GRID*             101679               03.5600000000E+03-1.666666667E+01+
*       -5.000000000E+01               0
GRID*             101680               03.5700000000E+031.6666666667E+01+
*       -5.000000000E+01               0
GRID*             101681               03.5700000000E+03-1.666666667E+01+
*       -5.000000000E+01               0
GRID*             101682               03.5800000000E+031.6666666667E+01+
*       -5.000000000E+01               0
GRID*             101683               03.5800000000E+03-1.666666667E+01+
*       -5.000000000E+01               0
GRID*             101684               03.5900000000E+031.6666666667E+01+
*       -5.000000000E+01               0
GRID*             101685               03.5900000000E+03-1.666666667E+01+
*       -5.000000000E+01               0
GRID*             101686               03.6000000000E+031.6666666667E+01+
*       -5.000000000E+01               0
GRID*             101687               03.6000000000E+03-1.666666667E+01+
*       -5.000000000E+01               0
GRID*             101688               03.6100000000E+031.6666666667E+01+
*       -5.000000000E+01               0
GRID*             101689               03.6100000000E+03-1.666666667E+01+
*       -5.000000000E+01               0
GRID*             101690               03.6200000000E+031.6666666667E+01+
*       -5.000000000E+01               0
GRID*             101691               03.6200000000E+03-1.666666667E+01+
*       -5.000000000E+01               0
GRID*             101692               03.6300000000E+031.6666666667E+01+
*       -5.000000000E+01               0
GRID*             101693               03.6300000000E+03-1.666666667E+01+
*       -5.000000000E+01               0
GRID*             101694               03.6400000000E+031.6666666667E+01+
*       -5.000000000E+01               0
GRID*             101695               03.6400000000E+03-1.666666667E+01+
*       -5.000000000E+01               0
GRID*             101696               03.6500000000E+031.6666666667E+01+
*       -5.000000000E+01               0
GRID*             101697               03.6500000000E+03-1.666666667E+01+
*       -5.000000000E+01               0
GRID*             101698               03.6600000000E+031.6666666667E+01+
*       -5.000000000E+01               0
GRID*             101699               03.6600000000E+03-1.666666667E+01+
*       -5.000000000E+01               0
GRID*             101700               03.6700000000E+031.6666666667E+01+
*       -5.000000000E+01               0
GRID*             101701               03.6700000000E+03-1.666666667E+01+
*       -5.000000000E+01               0
GRID*             101702               03.6800000000E+031.6666666667E+01+
*       -5.000000000E+01               0
GRID*             101703               03.6800000000E+03-1.666666667E+01+
*       -5.000000000E+01               0
GRID*             101704               03.6900000000E+031.6666666667E+01+
*       -5.000000000E+01               0
GRID*             101705               03.6900000000E+03-1.666666667E+01+
*       -5.000000000E+01               0
GRID*             101706               03.7000000000E+031.6666666667E+01+
*       -5.000000000E+01               0
GRID*             101707               03.7000000000E+03-1.666666667E+01+
*       -5.000000000E+01               0
GRID*             101708               03.7100000000E+031.6666666667E+01+
*       -5.000000000E+01               0
GRID*             101709               03.7100000000E+03-1.666666667E+01+
*       -5.000000000E+01               0
GRID*             101710               03.7200000000E+031.6666666667E+01+
*       -5.000000000E+01               0
GRID*             101711               03.7200000000E+03-1.666666667E+01+
*       -5.000000000E+01               0
GRID*             101712               03.7300000000E+031.6666666667E+01+
*       -5.000000000E+01               0
GRID*             101713               03.7300000000E+03-1.666666667E+01+
*       -5.000000000E+01               0
GRID*             101714               03.7400000000E+031.6666666667E+01+
*       -5.000000000E+01               0
GRID*             101715               03.7400000000E+03-1.666666667E+01+
*       -5.000000000E+01               0
GRID*             101716               03.7500000000E+031.6666666667E+01+
*       -5.000000000E+01               0
GRID*             101717               03.7500000000E+03-1.666666667E+01+
*       -5.000000000E+01               0
GRID*             101718               03.7600000000E+031.6666666667E+01+
*       -5.000000000E+01               0
GRID*             101719               03.7600000000E+03-1.666666667E+01+
*       -5.000000000E+01               0
GRID*             101720               03.7700000000E+031.6666666667E+01+
*       -5.000000000E+01               0
GRID*             101721               03.7700000000E+03-1.666666667E+01+
*       -5.000000000E+01               0
GRID*             101722               03.7800000000E+031.6666666667E+01+
*       -5.000000000E+01               0
GRID*             101723               03.7800000000E+03-1.666666667E+01+
*       -5.000000000E+01               0
GRID*             101724               03.7900000000E+031.6666666667E+01+
*       -5.000000000E+01               0
GRID*             101725               03.7900000000E+03-1.666666667E+01+
*       -5.000000000E+01               0
GRID*             101726               03.8000000000E+031.6666666667E+01+
*       -5.000000000E+01               0
GRID*             101727               03.8000000000E+03-1.666666667E+01+
*       -5.000000000E+01               0
GRID*             101728               03.8100000000E+031.6666666667E+01+
*       -5.000000000E+01               0
GRID*             101729               03.8100000000E+03-1.666666667E+01+
*       -5.000000000E+01               0
GRID*             101730               03.8200000000E+031.6666666667E+01+
*       -5.000000000E+01               0
GRID*             101731               03.8200000000E+03-1.666666667E+01+
*       -5.000000000E+01               0
GRID*             101732               03.8300000000E+031.6666666667E+01+
*       -5.000000000E+01               0
GRID*             101733               03.8300000000E+03-1.666666667E+01+
*       -5.000000000E+01               0
GRID*             101734               03.8400000000E+031.6666666667E+01+
*       -5.000000000E+01               0
GRID*             101735               03.8400000000E+03-1.666666667E+01+
*       -5.000000000E+01               0
GRID*             101736               03.8500000000E+031.6666666667E+01+
*       -5.000000000E+01               0
GRID*             101737               03.8500000000E+03-1.666666667E+01+
*       -5.000000000E+01               0
GRID*             101738               03.8600000000E+031.6666666667E+01+
*       -5.000000000E+01               0
GRID*             101739               03.8600000000E+03-1.666666667E+01+
*       -5.000000000E+01               0
GRID*             101740               03.8700000000E+031.6666666667E+01+
*       -5.000000000E+01               0
GRID*             101741               03.8700000000E+03-1.666666667E+01+
*       -5.000000000E+01               0
GRID*             101742               03.8800000000E+031.6666666667E+01+
*       -5.000000000E+01               0
GRID*             101743               03.8800000000E+03-1.666666667E+01+
*       -5.000000000E+01               0
GRID*             101744               03.8900000000E+031.6666666667E+01+
*       -5.000000000E+01               0
GRID*             101745               03.8900000000E+03-1.666666667E+01+
*       -5.000000000E+01               0
GRID*             101746               03.9000000000E+031.6666666667E+01+
*       -5.000000000E+01               0
GRID*             101747               03.9000000000E+03-1.666666667E+01+
*       -5.000000000E+01               0
GRID*             101748               03.9100000000E+031.6666666667E+01+
*       -5.000000000E+01               0
GRID*             101749               03.9100000000E+03-1.666666667E+01+
*       -5.000000000E+01               0
GRID*             101750               03.9200000000E+031.6666666667E+01+
*       -5.000000000E+01               0
GRID*             101751               03.9200000000E+03-1.666666667E+01+
*       -5.000000000E+01               0
GRID*             101752               03.9300000000E+031.6666666667E+01+
*       -5.000000000E+01               0
GRID*             101753               03.9300000000E+03-1.666666667E+01+
*       -5.000000000E+01               0
GRID*             101754               03.9400000000E+031.6666666667E+01+
*       -5.000000000E+01               0
GRID*             101755               03.9400000000E+03-1.666666667E+01+
*       -5.000000000E+01               0
GRID*             101756               03.9500000000E+031.6666666667E+01+
*       -5.000000000E+01               0
GRID*             101757               03.9500000000E+03-1.666666667E+01+
*       -5.000000000E+01               0
GRID*             101758               03.9600000000E+031.6666666667E+01+
*       -5.000000000E+01               0
GRID*             101759               03.9600000000E+03-1.666666667E+01+
*       -5.000000000E+01               0
GRID*             101760               03.9700000000E+031.6666666667E+01+
*       -5.000000000E+01               0
GRID*             101761               03.9700000000E+03-1.666666667E+01+
*       -5.000000000E+01               0
GRID*             101762               03.9800000000E+031.6666666667E+01+
*       -5.000000000E+01               0
GRID*             101763               03.9800000000E+03-1.666666667E+01+
*       -5.000000000E+01               0
GRID*             101764               03.9900000000E+031.6666666667E+01+
*       -5.000000000E+01               0
GRID*             101765               03.9900000000E+03-1.666666667E+01+
*       -5.000000000E+01               0
GRID*             101766               03.9900000000E+031.6666666667E+01+
*       5.0000000000E+01               0
GRID*             101767               03.9900000000E+03-1.666666667E+01+
*       5.0000000000E+01               0
GRID*             101768               03.9800000000E+031.6666666667E+01+
*       5.0000000000E+01               0
GRID*             101769               03.9800000000E+03-1.666666667E+01+
*       5.0000000000E+01               0
GRID*             101770               03.9700000000E+031.6666666667E+01+
*       5.0000000000E+01               0
GRID*             101771               03.9700000000E+03-1.666666667E+01+
*       5.0000000000E+01               0
GRID*             101772               03.9600000000E+031.6666666667E+01+
*       5.0000000000E+01               0
GRID*             101773               03.9600000000E+03-1.666666667E+01+
*       5.0000000000E+01               0
GRID*             101774               03.9500000000E+031.6666666667E+01+
*       5.0000000000E+01               0
GRID*             101775               03.9500000000E+03-1.666666667E+01+
*       5.0000000000E+01               0
GRID*             101776               03.9400000000E+031.6666666667E+01+
*       5.0000000000E+01               0
GRID*             101777               03.9400000000E+03-1.666666667E+01+
*       5.0000000000E+01               0
GRID*             101778               03.9300000000E+031.6666666667E+01+
*       5.0000000000E+01               0
GRID*             101779               03.9300000000E+03-1.666666667E+01+
*       5.0000000000E+01               0
GRID*             101780               03.9200000000E+031.6666666667E+01+
*       5.0000000000E+01               0
GRID*             101781               03.9200000000E+03-1.666666667E+01+
*       5.0000000000E+01               0
GRID*             101782               03.9100000000E+031.6666666667E+01+
*       5.0000000000E+01               0
GRID*             101783               03.9100000000E+03-1.666666667E+01+
*       5.0000000000E+01               0
GRID*             101784               03.9000000000E+031.6666666667E+01+
*       5.0000000000E+01               0
GRID*             101785               03.9000000000E+03-1.666666667E+01+
*       5.0000000000E+01               0
GRID*             101786               03.8900000000E+031.6666666667E+01+
*       5.0000000000E+01               0
GRID*             101787               03.8900000000E+03-1.666666667E+01+
*       5.0000000000E+01               0
GRID*             101788               03.8800000000E+031.6666666667E+01+
*       5.0000000000E+01               0
GRID*             101789               03.8800000000E+03-1.666666667E+01+
*       5.0000000000E+01               0
GRID*             101790               03.8700000000E+031.6666666667E+01+
*       5.0000000000E+01               0
GRID*             101791               03.8700000000E+03-1.666666667E+01+
*       5.0000000000E+01               0
GRID*             101792               03.8600000000E+031.6666666667E+01+
*       5.0000000000E+01               0
GRID*             101793               03.8600000000E+03-1.666666667E+01+
*       5.0000000000E+01               0
GRID*             101794               03.8500000000E+031.6666666667E+01+
*       5.0000000000E+01               0
GRID*             101795               03.8500000000E+03-1.666666667E+01+
*       5.0000000000E+01               0
GRID*             101796               03.8400000000E+031.6666666667E+01+
*       5.0000000000E+01               0
GRID*             101797               03.8400000000E+03-1.666666667E+01+
*       5.0000000000E+01               0
GRID*             101798               03.8300000000E+031.6666666667E+01+
*       5.0000000000E+01               0
GRID*             101799               03.8300000000E+03-1.666666667E+01+
*       5.0000000000E+01               0
GRID*             101800               03.8200000000E+031.6666666667E+01+
*       5.0000000000E+01               0
GRID*             101801               03.8200000000E+03-1.666666667E+01+
*       5.0000000000E+01               0
GRID*             101802               03.8100000000E+031.6666666667E+01+
*       5.0000000000E+01               0
GRID*             101803               03.8100000000E+03-1.666666667E+01+
*       5.0000000000E+01               0
GRID*             101804               03.8000000000E+031.6666666667E+01+
*       5.0000000000E+01               0
GRID*             101805               03.8000000000E+03-1.666666667E+01+
*       5.0000000000E+01               0
GRID*             101806               03.7900000000E+031.6666666667E+01+
*       5.0000000000E+01               0
GRID*             101807               03.7900000000E+03-1.666666667E+01+
*       5.0000000000E+01               0
GRID*             101808               03.7800000000E+031.6666666667E+01+
*       5.0000000000E+01               0
GRID*             101809               03.7800000000E+03-1.666666667E+01+
*       5.0000000000E+01               0
GRID*             101810               03.7700000000E+031.6666666667E+01+
*       5.0000000000E+01               0
GRID*             101811               03.7700000000E+03-1.666666667E+01+
*       5.0000000000E+01               0
GRID*             101812               03.7600000000E+031.6666666667E+01+
*       5.0000000000E+01               0
GRID*             101813               03.7600000000E+03-1.666666667E+01+
*       5.0000000000E+01               0
GRID*             101814               03.7500000000E+031.6666666667E+01+
*       5.0000000000E+01               0
GRID*             101815               03.7500000000E+03-1.666666667E+01+
*       5.0000000000E+01               0
GRID*             101816               03.7400000000E+031.6666666667E+01+
*       5.0000000000E+01               0
GRID*             101817               03.7400000000E+03-1.666666667E+01+
*       5.0000000000E+01               0
GRID*             101818               03.7300000000E+031.6666666667E+01+
*       5.0000000000E+01               0
GRID*             101819               03.7300000000E+03-1.666666667E+01+
*       5.0000000000E+01               0
GRID*             101820               03.7200000000E+031.6666666667E+01+
*       5.0000000000E+01               0
GRID*             101821               03.7200000000E+03-1.666666667E+01+
*       5.0000000000E+01               0
GRID*             101822               03.7100000000E+031.6666666667E+01+
*       5.0000000000E+01               0
GRID*             101823               03.7100000000E+03-1.666666667E+01+
*       5.0000000000E+01               0
GRID*             101824               03.7000000000E+031.6666666667E+01+
*       5.0000000000E+01               0
GRID*             101825               03.7000000000E+03-1.666666667E+01+
*       5.0000000000E+01               0
GRID*             101826               03.6900000000E+031.6666666667E+01+
*       5.0000000000E+01               0
GRID*             101827               03.6900000000E+03-1.666666667E+01+
*       5.0000000000E+01               0
GRID*             101828               03.6800000000E+031.6666666667E+01+
*       5.0000000000E+01               0
GRID*             101829               03.6800000000E+03-1.666666667E+01+
*       5.0000000000E+01               0
GRID*             101830               03.6700000000E+031.6666666667E+01+
*       5.0000000000E+01               0
GRID*             101831               03.6700000000E+03-1.666666667E+01+
*       5.0000000000E+01               0
GRID*             101832               03.6600000000E+031.6666666667E+01+
*       5.0000000000E+01               0
GRID*             101833               03.6600000000E+03-1.666666667E+01+
*       5.0000000000E+01               0
GRID*             101834               03.6500000000E+031.6666666667E+01+
*       5.0000000000E+01               0
GRID*             101835               03.6500000000E+03-1.666666667E+01+
*       5.0000000000E+01               0
GRID*             101836               03.6400000000E+031.6666666667E+01+
*       5.0000000000E+01               0
GRID*             101837               03.6400000000E+03-1.666666667E+01+
*       5.0000000000E+01               0
GRID*             101838               03.6300000000E+031.6666666667E+01+
*       5.0000000000E+01               0
GRID*             101839               03.6300000000E+03-1.666666667E+01+
*       5.0000000000E+01               0
GRID*             101840               03.6200000000E+031.6666666667E+01+
*       5.0000000000E+01               0
GRID*             101841               03.6200000000E+03-1.666666667E+01+
*       5.0000000000E+01               0
GRID*             101842               03.6100000000E+031.6666666667E+01+
*       5.0000000000E+01               0
GRID*             101843               03.6100000000E+03-1.666666667E+01+
*       5.0000000000E+01               0
GRID*             101844               03.6000000000E+031.6666666667E+01+
*       5.0000000000E+01               0
GRID*             101845               03.6000000000E+03-1.666666667E+01+
*       5.0000000000E+01               0
GRID*             101846               03.5900000000E+031.6666666667E+01+
*       5.0000000000E+01               0
GRID*             101847               03.5900000000E+03-1.666666667E+01+
*       5.0000000000E+01               0
GRID*             101848               03.5800000000E+031.6666666667E+01+
*       5.0000000000E+01               0
GRID*             101849               03.5800000000E+03-1.666666667E+01+
*       5.0000000000E+01               0
GRID*             101850               03.5700000000E+031.6666666667E+01+
*       5.0000000000E+01               0
GRID*             101851               03.5700000000E+03-1.666666667E+01+
*       5.0000000000E+01               0
GRID*             101852               03.5600000000E+031.6666666667E+01+
*       5.0000000000E+01               0
GRID*             101853               03.5600000000E+03-1.666666667E+01+
*       5.0000000000E+01               0
GRID*             101854               03.5500000000E+031.6666666667E+01+
*       5.0000000000E+01               0
GRID*             101855               03.5500000000E+03-1.666666667E+01+
*       5.0000000000E+01               0
GRID*             101856               03.5400000000E+031.6666666667E+01+
*       5.0000000000E+01               0
GRID*             101857               03.5400000000E+03-1.666666667E+01+
*       5.0000000000E+01               0
GRID*             101858               03.5300000000E+031.6666666667E+01+
*       5.0000000000E+01               0
GRID*             101859               03.5300000000E+03-1.666666667E+01+
*       5.0000000000E+01               0
GRID*             101860               03.5200000000E+031.6666666667E+01+
*       5.0000000000E+01               0
GRID*             101861               03.5200000000E+03-1.666666667E+01+
*       5.0000000000E+01               0
GRID*             101862               03.5100000000E+031.6666666667E+01+
*       5.0000000000E+01               0
GRID*             101863               03.5100000000E+03-1.666666667E+01+
*       5.0000000000E+01               0
GRID*             101864               03.5000000000E+031.6666666667E+01+
*       5.0000000000E+01               0
GRID*             101865               03.5000000000E+03-1.666666667E+01+
*       5.0000000000E+01               0
GRID*             101866               03.4900000000E+031.6666666667E+01+
*       5.0000000000E+01               0
GRID*             101867               03.4900000000E+03-1.666666667E+01+
*       5.0000000000E+01               0
GRID*             101868               03.4800000000E+031.6666666667E+01+
*       5.0000000000E+01               0
GRID*             101869               03.4800000000E+03-1.666666667E+01+
*       5.0000000000E+01               0
GRID*             101870               03.4700000000E+031.6666666667E+01+
*       5.0000000000E+01               0
GRID*             101871               03.4700000000E+03-1.666666667E+01+
*       5.0000000000E+01               0
GRID*             101872               03.4600000000E+031.6666666667E+01+
*       5.0000000000E+01               0
GRID*             101873               03.4600000000E+03-1.666666667E+01+
*       5.0000000000E+01               0
GRID*             101874               03.4500000000E+031.6666666667E+01+
*       5.0000000000E+01               0
GRID*             101875               03.4500000000E+03-1.666666667E+01+
*       5.0000000000E+01               0
GRID*             101876               03.4400000000E+031.6666666667E+01+
*       5.0000000000E+01               0
GRID*             101877               03.4400000000E+03-1.666666667E+01+
*       5.0000000000E+01               0
GRID*             101878               03.4300000000E+031.6666666667E+01+
*       5.0000000000E+01               0
GRID*             101879               03.4300000000E+03-1.666666667E+01+
*       5.0000000000E+01               0
GRID*             101880               03.4200000000E+031.6666666667E+01+
*       5.0000000000E+01               0
GRID*             101881               03.4200000000E+03-1.666666667E+01+
*       5.0000000000E+01               0
GRID*             101882               03.4100000000E+031.6666666667E+01+
*       5.0000000000E+01               0
GRID*             101883               03.4100000000E+03-1.666666667E+01+
*       5.0000000000E+01               0
GRID*             101884               03.4000000000E+031.6666666667E+01+
*       5.0000000000E+01               0
GRID*             101885               03.4000000000E+03-1.666666667E+01+
*       5.0000000000E+01               0
GRID*             101886               03.3900000000E+031.6666666667E+01+
*       5.0000000000E+01               0
GRID*             101887               03.3900000000E+03-1.666666667E+01+
*       5.0000000000E+01               0
GRID*             101888               03.3800000000E+031.6666666667E+01+
*       5.0000000000E+01               0
GRID*             101889               03.3800000000E+03-1.666666667E+01+
*       5.0000000000E+01               0
GRID*             101890               03.3700000000E+031.6666666667E+01+
*       5.0000000000E+01               0
GRID*             101891               03.3700000000E+03-1.666666667E+01+
*       5.0000000000E+01               0
GRID*             101892               03.3600000000E+031.6666666667E+01+
*       5.0000000000E+01               0
GRID*             101893               03.3600000000E+03-1.666666667E+01+
*       5.0000000000E+01               0
GRID*             101894               03.3500000000E+031.6666666667E+01+
*       5.0000000000E+01               0
GRID*             101895               03.3500000000E+03-1.666666667E+01+
*       5.0000000000E+01               0
GRID*             101896               03.3400000000E+031.6666666667E+01+
*       5.0000000000E+01               0
GRID*             101897               03.3400000000E+03-1.666666667E+01+
*       5.0000000000E+01               0
GRID*             101898               03.3300000000E+031.6666666667E+01+
*       5.0000000000E+01               0
GRID*             101899               03.3300000000E+03-1.666666667E+01+
*       5.0000000000E+01               0
GRID*             101900               03.3200000000E+031.6666666667E+01+
*       5.0000000000E+01               0
GRID*             101901               03.3200000000E+03-1.666666667E+01+
*       5.0000000000E+01               0
GRID*             101902               03.3100000000E+031.6666666667E+01+
*       5.0000000000E+01               0
GRID*             101903               03.3100000000E+03-1.666666667E+01+
*       5.0000000000E+01               0
GRID*             101904               03.3000000000E+031.6666666667E+01+
*       5.0000000000E+01               0
GRID*             101905               03.3000000000E+03-1.666666667E+01+
*       5.0000000000E+01               0
GRID*             101906               03.2900000000E+031.6666666667E+01+
*       5.0000000000E+01               0
GRID*             101907               03.2900000000E+03-1.666666667E+01+
*       5.0000000000E+01               0
GRID*             101908               03.2800000000E+031.6666666667E+01+
*       5.0000000000E+01               0
GRID*             101909               03.2800000000E+03-1.666666667E+01+
*       5.0000000000E+01               0
GRID*             101910               03.2700000000E+031.6666666667E+01+
*       5.0000000000E+01               0
GRID*             101911               03.2700000000E+03-1.666666667E+01+
*       5.0000000000E+01               0
GRID*             101912               03.2600000000E+031.6666666667E+01+
*       5.0000000000E+01               0
GRID*             101913               03.2600000000E+03-1.666666667E+01+
*       5.0000000000E+01               0
GRID*             101914               03.2500000000E+031.6666666667E+01+
*       5.0000000000E+01               0
GRID*             101915               03.2500000000E+03-1.666666667E+01+
*       5.0000000000E+01               0
GRID*             101916               03.2400000000E+031.6666666667E+01+
*       5.0000000000E+01               0
GRID*             101917               03.2400000000E+03-1.666666667E+01+
*       5.0000000000E+01               0
GRID*             101918               03.2300000000E+031.6666666667E+01+
*       5.0000000000E+01               0
GRID*             101919               03.2300000000E+03-1.666666667E+01+
*       5.0000000000E+01               0
GRID*             101920               03.2200000000E+031.6666666667E+01+
*       5.0000000000E+01               0
GRID*             101921               03.2200000000E+03-1.666666667E+01+
*       5.0000000000E+01               0
GRID*             101922               03.2100000000E+031.6666666667E+01+
*       5.0000000000E+01               0
GRID*             101923               03.2100000000E+03-1.666666667E+01+
*       5.0000000000E+01               0
GRID*             101924               03.2000000000E+031.6666666667E+01+
*       5.0000000000E+01               0
GRID*             101925               03.2000000000E+03-1.666666667E+01+
*       5.0000000000E+01               0
GRID*             101926               03.1900000000E+031.6666666667E+01+
*       5.0000000000E+01               0
GRID*             101927               03.1900000000E+03-1.666666667E+01+
*       5.0000000000E+01               0
GRID*             101928               03.1800000000E+031.6666666667E+01+
*       5.0000000000E+01               0
GRID*             101929               03.1800000000E+03-1.666666667E+01+
*       5.0000000000E+01               0
GRID*             101930               03.1700000000E+031.6666666667E+01+
*       5.0000000000E+01               0
GRID*             101931               03.1700000000E+03-1.666666667E+01+
*       5.0000000000E+01               0
GRID*             101932               03.1600000000E+031.6666666667E+01+
*       5.0000000000E+01               0
GRID*             101933               03.1600000000E+03-1.666666667E+01+
*       5.0000000000E+01               0
GRID*             101934               03.1500000000E+031.6666666667E+01+
*       5.0000000000E+01               0
GRID*             101935               03.1500000000E+03-1.666666667E+01+
*       5.0000000000E+01               0
GRID*             101936               03.1400000000E+031.6666666667E+01+
*       5.0000000000E+01               0
GRID*             101937               03.1400000000E+03-1.666666667E+01+
*       5.0000000000E+01               0
GRID*             101938               03.1300000000E+031.6666666667E+01+
*       5.0000000000E+01               0
GRID*             101939               03.1300000000E+03-1.666666667E+01+
*       5.0000000000E+01               0
GRID*             101940               03.1200000000E+031.6666666667E+01+
*       5.0000000000E+01               0
GRID*             101941               03.1200000000E+03-1.666666667E+01+
*       5.0000000000E+01               0
GRID*             101942               03.1100000000E+031.6666666667E+01+
*       5.0000000000E+01               0
GRID*             101943               03.1100000000E+03-1.666666667E+01+
*       5.0000000000E+01               0
GRID*             101944               03.1000000000E+031.6666666667E+01+
*       5.0000000000E+01               0
GRID*             101945               03.1000000000E+03-1.666666667E+01+
*       5.0000000000E+01               0
GRID*             101946               03.0900000000E+031.6666666667E+01+
*       5.0000000000E+01               0
GRID*             101947               03.0900000000E+03-1.666666667E+01+
*       5.0000000000E+01               0
GRID*             101948               03.0800000000E+031.6666666667E+01+
*       5.0000000000E+01               0
GRID*             101949               03.0800000000E+03-1.666666667E+01+
*       5.0000000000E+01               0
GRID*             101950               03.0700000000E+031.6666666667E+01+
*       5.0000000000E+01               0
GRID*             101951               03.0700000000E+03-1.666666667E+01+
*       5.0000000000E+01               0
GRID*             101952               03.0600000000E+031.6666666667E+01+
*       5.0000000000E+01               0
GRID*             101953               03.0600000000E+03-1.666666667E+01+
*       5.0000000000E+01               0
GRID*             101954               03.0500000000E+031.6666666667E+01+
*       5.0000000000E+01               0
GRID*             101955               03.0500000000E+03-1.666666667E+01+
*       5.0000000000E+01               0
GRID*             101956               03.0400000000E+031.6666666667E+01+
*       5.0000000000E+01               0
GRID*             101957               03.0400000000E+03-1.666666667E+01+
*       5.0000000000E+01               0
GRID*             101958               03.0300000000E+031.6666666667E+01+
*       5.0000000000E+01               0
GRID*             101959               03.0300000000E+03-1.666666667E+01+
*       5.0000000000E+01               0
GRID*             101960               03.0200000000E+031.6666666667E+01+
*       5.0000000000E+01               0
GRID*             101961               03.0200000000E+03-1.666666667E+01+
*       5.0000000000E+01               0
GRID*             101962               03.0100000000E+031.6666666667E+01+
*       5.0000000000E+01               0
GRID*             101963               03.0100000000E+03-1.666666667E+01+
*       5.0000000000E+01               0
GRID*             101964               03.0000000000E+031.6666666667E+01+
*       5.0000000000E+01               0
GRID*             101965               03.0000000000E+03-1.666666667E+01+
*       5.0000000000E+01               0
GRID*             101966               02.9900000000E+031.6666666667E+01+
*       5.0000000000E+01               0
GRID*             101967               02.9900000000E+03-1.666666667E+01+
*       5.0000000000E+01               0
GRID*             101968               02.9800000000E+031.6666666667E+01+
*       5.0000000000E+01               0
GRID*             101969               02.9800000000E+03-1.666666667E+01+
*       5.0000000000E+01               0
GRID*             101970               02.9700000000E+031.6666666667E+01+
*       5.0000000000E+01               0
GRID*             101971               02.9700000000E+03-1.666666667E+01+
*       5.0000000000E+01               0
GRID*             101972               02.9600000000E+031.6666666667E+01+
*       5.0000000000E+01               0
GRID*             101973               02.9600000000E+03-1.666666667E+01+
*       5.0000000000E+01               0
GRID*             101974               02.9500000000E+031.6666666667E+01+
*       5.0000000000E+01               0
GRID*             101975               02.9500000000E+03-1.666666667E+01+
*       5.0000000000E+01               0
GRID*             101976               02.9400000000E+031.6666666667E+01+
*       5.0000000000E+01               0
GRID*             101977               02.9400000000E+03-1.666666667E+01+
*       5.0000000000E+01               0
GRID*             101978               02.9300000000E+031.6666666667E+01+
*       5.0000000000E+01               0
GRID*             101979               02.9300000000E+03-1.666666667E+01+
*       5.0000000000E+01               0
GRID*             101980               02.9200000000E+031.6666666667E+01+
*       5.0000000000E+01               0
GRID*             101981               02.9200000000E+03-1.666666667E+01+
*       5.0000000000E+01               0
GRID*             101982               02.9100000000E+031.6666666667E+01+
*       5.0000000000E+01               0
GRID*             101983               02.9100000000E+03-1.666666667E+01+
*       5.0000000000E+01               0
GRID*             101984               02.9000000000E+031.6666666667E+01+
*       5.0000000000E+01               0
GRID*             101985               02.9000000000E+03-1.666666667E+01+
*       5.0000000000E+01               0
GRID*             101986               02.8900000000E+031.6666666667E+01+
*       5.0000000000E+01               0
GRID*             101987               02.8900000000E+03-1.666666667E+01+
*       5.0000000000E+01               0
GRID*             101988               02.8800000000E+031.6666666667E+01+
*       5.0000000000E+01               0
GRID*             101989               02.8800000000E+03-1.666666667E+01+
*       5.0000000000E+01               0
GRID*             101990               02.8700000000E+031.6666666667E+01+
*       5.0000000000E+01               0
GRID*             101991               02.8700000000E+03-1.666666667E+01+
*       5.0000000000E+01               0
GRID*             101992               02.8600000000E+031.6666666667E+01+
*       5.0000000000E+01               0
GRID*             101993               02.8600000000E+03-1.666666667E+01+
*       5.0000000000E+01               0
GRID*             101994               02.8500000000E+031.6666666667E+01+
*       5.0000000000E+01               0
GRID*             101995               02.8500000000E+03-1.666666667E+01+
*       5.0000000000E+01               0
GRID*             101996               02.8400000000E+031.6666666667E+01+
*       5.0000000000E+01               0
GRID*             101997               02.8400000000E+03-1.666666667E+01+
*       5.0000000000E+01               0
GRID*             101998               02.8300000000E+031.6666666667E+01+
*       5.0000000000E+01               0
GRID*             101999               02.8300000000E+03-1.666666667E+01+
*       5.0000000000E+01               0
GRID*             102000               02.8200000000E+031.6666666667E+01+
*       5.0000000000E+01               0
GRID*             102001               02.8200000000E+03-1.666666667E+01+
*       5.0000000000E+01               0
GRID*             102002               02.8100000000E+031.6666666667E+01+
*       5.0000000000E+01               0
GRID*             102003               02.8100000000E+03-1.666666667E+01+
*       5.0000000000E+01               0
GRID*             102004               02.8000000000E+031.6666666667E+01+
*       5.0000000000E+01               0
GRID*             102005               02.8000000000E+03-1.666666667E+01+
*       5.0000000000E+01               0
GRID*             102006               02.7900000000E+031.6666666667E+01+
*       5.0000000000E+01               0
GRID*             102007               02.7900000000E+03-1.666666667E+01+
*       5.0000000000E+01               0
GRID*             102008               02.7800000000E+031.6666666667E+01+
*       5.0000000000E+01               0
GRID*             102009               02.7800000000E+03-1.666666667E+01+
*       5.0000000000E+01               0
GRID*             102010               02.7700000000E+031.6666666667E+01+
*       5.0000000000E+01               0
GRID*             102011               02.7700000000E+03-1.666666667E+01+
*       5.0000000000E+01               0
GRID*             102012               02.7600000000E+031.6666666667E+01+
*       5.0000000000E+01               0
GRID*             102013               02.7600000000E+03-1.666666667E+01+
*       5.0000000000E+01               0
GRID*             102014               02.7500000000E+031.6666666667E+01+
*       5.0000000000E+01               0
GRID*             102015               02.7500000000E+03-1.666666667E+01+
*       5.0000000000E+01               0
GRID*             102016               02.7400000000E+031.6666666667E+01+
*       5.0000000000E+01               0
GRID*             102017               02.7400000000E+03-1.666666667E+01+
*       5.0000000000E+01               0
GRID*             102018               02.7300000000E+031.6666666667E+01+
*       5.0000000000E+01               0
GRID*             102019               02.7300000000E+03-1.666666667E+01+
*       5.0000000000E+01               0
GRID*             102020               02.7200000000E+031.6666666667E+01+
*       5.0000000000E+01               0
GRID*             102021               02.7200000000E+03-1.666666667E+01+
*       5.0000000000E+01               0
GRID*             102022               02.7100000000E+031.6666666667E+01+
*       5.0000000000E+01               0
GRID*             102023               02.7100000000E+03-1.666666667E+01+
*       5.0000000000E+01               0
GRID*             102024               02.7000000000E+031.6666666667E+01+
*       5.0000000000E+01               0
GRID*             102025               02.7000000000E+03-1.666666667E+01+
*       5.0000000000E+01               0
GRID*             102026               02.6900000000E+031.6666666667E+01+
*       5.0000000000E+01               0
GRID*             102027               02.6900000000E+03-1.666666667E+01+
*       5.0000000000E+01               0
GRID*             102028               02.6800000000E+031.6666666667E+01+
*       5.0000000000E+01               0
GRID*             102029               02.6800000000E+03-1.666666667E+01+
*       5.0000000000E+01               0
GRID*             102030               02.6700000000E+031.6666666667E+01+
*       5.0000000000E+01               0
GRID*             102031               02.6700000000E+03-1.666666667E+01+
*       5.0000000000E+01               0
GRID*             102032               02.6600000000E+031.6666666667E+01+
*       5.0000000000E+01               0
GRID*             102033               02.6600000000E+03-1.666666667E+01+
*       5.0000000000E+01               0
GRID*             102034               02.6500000000E+031.6666666667E+01+
*       5.0000000000E+01               0
GRID*             102035               02.6500000000E+03-1.666666667E+01+
*       5.0000000000E+01               0
GRID*             102036               02.6400000000E+031.6666666667E+01+
*       5.0000000000E+01               0
GRID*             102037               02.6400000000E+03-1.666666667E+01+
*       5.0000000000E+01               0
GRID*             102038               02.6300000000E+031.6666666667E+01+
*       5.0000000000E+01               0
GRID*             102039               02.6300000000E+03-1.666666667E+01+
*       5.0000000000E+01               0
GRID*             102040               02.6200000000E+031.6666666667E+01+
*       5.0000000000E+01               0
GRID*             102041               02.6200000000E+03-1.666666667E+01+
*       5.0000000000E+01               0
GRID*             102042               02.6100000000E+031.6666666667E+01+
*       5.0000000000E+01               0
GRID*             102043               02.6100000000E+03-1.666666667E+01+
*       5.0000000000E+01               0
GRID*             102044               02.6000000000E+031.6666666667E+01+
*       5.0000000000E+01               0
GRID*             102045               02.6000000000E+03-1.666666667E+01+
*       5.0000000000E+01               0
GRID*             102046               02.5900000000E+031.6666666667E+01+
*       5.0000000000E+01               0
GRID*             102047               02.5900000000E+03-1.666666667E+01+
*       5.0000000000E+01               0
GRID*             102048               02.5800000000E+031.6666666667E+01+
*       5.0000000000E+01               0
GRID*             102049               02.5800000000E+03-1.666666667E+01+
*       5.0000000000E+01               0
GRID*             102050               02.5700000000E+031.6666666667E+01+
*       5.0000000000E+01               0
GRID*             102051               02.5700000000E+03-1.666666667E+01+
*       5.0000000000E+01               0
GRID*             102052               02.5600000000E+031.6666666667E+01+
*       5.0000000000E+01               0
GRID*             102053               02.5600000000E+03-1.666666667E+01+
*       5.0000000000E+01               0
GRID*             102054               02.5500000000E+031.6666666667E+01+
*       5.0000000000E+01               0
GRID*             102055               02.5500000000E+03-1.666666667E+01+
*       5.0000000000E+01               0
GRID*             102056               02.5400000000E+031.6666666667E+01+
*       5.0000000000E+01               0
GRID*             102057               02.5400000000E+03-1.666666667E+01+
*       5.0000000000E+01               0
GRID*             102058               02.5300000000E+031.6666666667E+01+
*       5.0000000000E+01               0
GRID*             102059               02.5300000000E+03-1.666666667E+01+
*       5.0000000000E+01               0
GRID*             102060               02.5200000000E+031.6666666667E+01+
*       5.0000000000E+01               0
GRID*             102061               02.5200000000E+03-1.666666667E+01+
*       5.0000000000E+01               0
GRID*             102062               02.5100000000E+031.6666666667E+01+
*       5.0000000000E+01               0
GRID*             102063               02.5100000000E+03-1.666666667E+01+
*       5.0000000000E+01               0
GRID*             102064               02.5000000000E+031.6666666667E+01+
*       5.0000000000E+01               0
GRID*             102065               02.5000000000E+03-1.666666667E+01+
*       5.0000000000E+01               0
GRID*             102066               02.4900000000E+031.6666666667E+01+
*       5.0000000000E+01               0
GRID*             102067               02.4900000000E+03-1.666666667E+01+
*       5.0000000000E+01               0
GRID*             102068               02.4800000000E+031.6666666667E+01+
*       5.0000000000E+01               0
GRID*             102069               02.4800000000E+03-1.666666667E+01+
*       5.0000000000E+01               0
GRID*             102070               02.4700000000E+031.6666666667E+01+
*       5.0000000000E+01               0
GRID*             102071               02.4700000000E+03-1.666666667E+01+
*       5.0000000000E+01               0
GRID*             102072               02.4600000000E+031.6666666667E+01+
*       5.0000000000E+01               0
GRID*             102073               02.4600000000E+03-1.666666667E+01+
*       5.0000000000E+01               0
GRID*             102074               02.4500000000E+031.6666666667E+01+
*       5.0000000000E+01               0
GRID*             102075               02.4500000000E+03-1.666666667E+01+
*       5.0000000000E+01               0
GRID*             102076               02.4400000000E+031.6666666667E+01+
*       5.0000000000E+01               0
GRID*             102077               02.4400000000E+03-1.666666667E+01+
*       5.0000000000E+01               0
GRID*             102078               02.4300000000E+031.6666666667E+01+
*       5.0000000000E+01               0
GRID*             102079               02.4300000000E+03-1.666666667E+01+
*       5.0000000000E+01               0
GRID*             102080               02.4200000000E+031.6666666667E+01+
*       5.0000000000E+01               0
GRID*             102081               02.4200000000E+03-1.666666667E+01+
*       5.0000000000E+01               0
GRID*             102082               02.4100000000E+031.6666666667E+01+
*       5.0000000000E+01               0
GRID*             102083               02.4100000000E+03-1.666666667E+01+
*       5.0000000000E+01               0
GRID*             102084               02.4000000000E+031.6666666667E+01+
*       5.0000000000E+01               0
GRID*             102085               02.4000000000E+03-1.666666667E+01+
*       5.0000000000E+01               0
GRID*             102086               02.3900000000E+031.6666666667E+01+
*       5.0000000000E+01               0
GRID*             102087               02.3900000000E+03-1.666666667E+01+
*       5.0000000000E+01               0
GRID*             102088               02.3800000000E+031.6666666667E+01+
*       5.0000000000E+01               0
GRID*             102089               02.3800000000E+03-1.666666667E+01+
*       5.0000000000E+01               0
GRID*             102090               02.3700000000E+031.6666666667E+01+
*       5.0000000000E+01               0
GRID*             102091               02.3700000000E+03-1.666666667E+01+
*       5.0000000000E+01               0
GRID*             102092               02.3600000000E+031.6666666667E+01+
*       5.0000000000E+01               0
GRID*             102093               02.3600000000E+03-1.666666667E+01+
*       5.0000000000E+01               0
GRID*             102094               02.3500000000E+031.6666666667E+01+
*       5.0000000000E+01               0
GRID*             102095               02.3500000000E+03-1.666666667E+01+
*       5.0000000000E+01               0
GRID*             102096               02.3400000000E+031.6666666667E+01+
*       5.0000000000E+01               0
GRID*             102097               02.3400000000E+03-1.666666667E+01+
*       5.0000000000E+01               0
GRID*             102098               02.3300000000E+031.6666666667E+01+
*       5.0000000000E+01               0
GRID*             102099               02.3300000000E+03-1.666666667E+01+
*       5.0000000000E+01               0
GRID*             102100               02.3200000000E+031.6666666667E+01+
*       5.0000000000E+01               0
GRID*             102101               02.3200000000E+03-1.666666667E+01+
*       5.0000000000E+01               0
GRID*             102102               02.3100000000E+031.6666666667E+01+
*       5.0000000000E+01               0
GRID*             102103               02.3100000000E+03-1.666666667E+01+
*       5.0000000000E+01               0
GRID*             102104               02.3000000000E+031.6666666667E+01+
*       5.0000000000E+01               0
GRID*             102105               02.3000000000E+03-1.666666667E+01+
*       5.0000000000E+01               0
GRID*             102106               02.2900000000E+031.6666666667E+01+
*       5.0000000000E+01               0
GRID*             102107               02.2900000000E+03-1.666666667E+01+
*       5.0000000000E+01               0
GRID*             102108               02.2800000000E+031.6666666667E+01+
*       5.0000000000E+01               0
GRID*             102109               02.2800000000E+03-1.666666667E+01+
*       5.0000000000E+01               0
GRID*             102110               02.2700000000E+031.6666666667E+01+
*       5.0000000000E+01               0
GRID*             102111               02.2700000000E+03-1.666666667E+01+
*       5.0000000000E+01               0
GRID*             102112               02.2600000000E+031.6666666667E+01+
*       5.0000000000E+01               0
GRID*             102113               02.2600000000E+03-1.666666667E+01+
*       5.0000000000E+01               0
GRID*             102114               02.2500000000E+031.6666666667E+01+
*       5.0000000000E+01               0
GRID*             102115               02.2500000000E+03-1.666666667E+01+
*       5.0000000000E+01               0
GRID*             102116               02.2400000000E+031.6666666667E+01+
*       5.0000000000E+01               0
GRID*             102117               02.2400000000E+03-1.666666667E+01+
*       5.0000000000E+01               0
GRID*             102118               02.2300000000E+031.6666666667E+01+
*       5.0000000000E+01               0
GRID*             102119               02.2300000000E+03-1.666666667E+01+
*       5.0000000000E+01               0
GRID*             102120               02.2200000000E+031.6666666667E+01+
*       5.0000000000E+01               0
GRID*             102121               02.2200000000E+03-1.666666667E+01+
*       5.0000000000E+01               0
GRID*             102122               02.2100000000E+031.6666666667E+01+
*       5.0000000000E+01               0
GRID*             102123               02.2100000000E+03-1.666666667E+01+
*       5.0000000000E+01               0
GRID*             102124               02.2000000000E+031.6666666667E+01+
*       5.0000000000E+01               0
GRID*             102125               02.2000000000E+03-1.666666667E+01+
*       5.0000000000E+01               0
GRID*             102126               02.1900000000E+031.6666666667E+01+
*       5.0000000000E+01               0
GRID*             102127               02.1900000000E+03-1.666666667E+01+
*       5.0000000000E+01               0
GRID*             102128               02.1800000000E+031.6666666667E+01+
*       5.0000000000E+01               0
GRID*             102129               02.1800000000E+03-1.666666667E+01+
*       5.0000000000E+01               0
GRID*             102130               02.1700000000E+031.6666666667E+01+
*       5.0000000000E+01               0
GRID*             102131               02.1700000000E+03-1.666666667E+01+
*       5.0000000000E+01               0
GRID*             102132               02.1600000000E+031.6666666667E+01+
*       5.0000000000E+01               0
GRID*             102133               02.1600000000E+03-1.666666667E+01+
*       5.0000000000E+01               0
GRID*             102134               02.1500000000E+031.6666666667E+01+
*       5.0000000000E+01               0
GRID*             102135               02.1500000000E+03-1.666666667E+01+
*       5.0000000000E+01               0
GRID*             102136               02.1400000000E+031.6666666667E+01+
*       5.0000000000E+01               0
GRID*             102137               02.1400000000E+03-1.666666667E+01+
*       5.0000000000E+01               0
GRID*             102138               02.1300000000E+031.6666666667E+01+
*       5.0000000000E+01               0
GRID*             102139               02.1300000000E+03-1.666666667E+01+
*       5.0000000000E+01               0
GRID*             102140               02.1200000000E+031.6666666667E+01+
*       5.0000000000E+01               0
GRID*             102141               02.1200000000E+03-1.666666667E+01+
*       5.0000000000E+01               0
GRID*             102142               02.1100000000E+031.6666666667E+01+
*       5.0000000000E+01               0
GRID*             102143               02.1100000000E+03-1.666666667E+01+
*       5.0000000000E+01               0
GRID*             102144               02.1000000000E+031.6666666667E+01+
*       5.0000000000E+01               0
GRID*             102145               02.1000000000E+03-1.666666667E+01+
*       5.0000000000E+01               0
GRID*             102146               02.0900000000E+031.6666666667E+01+
*       5.0000000000E+01               0
GRID*             102147               02.0900000000E+03-1.666666667E+01+
*       5.0000000000E+01               0
GRID*             102148               02.0800000000E+031.6666666667E+01+
*       5.0000000000E+01               0
GRID*             102149               02.0800000000E+03-1.666666667E+01+
*       5.0000000000E+01               0
GRID*             102150               02.0700000000E+031.6666666667E+01+
*       5.0000000000E+01               0
GRID*             102151               02.0700000000E+03-1.666666667E+01+
*       5.0000000000E+01               0
GRID*             102152               02.0600000000E+031.6666666667E+01+
*       5.0000000000E+01               0
GRID*             102153               02.0600000000E+03-1.666666667E+01+
*       5.0000000000E+01               0
GRID*             102154               02.0500000000E+031.6666666667E+01+
*       5.0000000000E+01               0
GRID*             102155               02.0500000000E+03-1.666666667E+01+
*       5.0000000000E+01               0
GRID*             102156               02.0400000000E+031.6666666667E+01+
*       5.0000000000E+01               0
GRID*             102157               02.0400000000E+03-1.666666667E+01+
*       5.0000000000E+01               0
GRID*             102158               02.0300000000E+031.6666666667E+01+
*       5.0000000000E+01               0
GRID*             102159               02.0300000000E+03-1.666666667E+01+
*       5.0000000000E+01               0
GRID*             102160               02.0200000000E+031.6666666667E+01+
*       5.0000000000E+01               0
GRID*             102161               02.0200000000E+03-1.666666667E+01+
*       5.0000000000E+01               0
GRID*             102162               02.0100000000E+031.6666666667E+01+
*       5.0000000000E+01               0
GRID*             102163               02.0100000000E+03-1.666666667E+01+
*       5.0000000000E+01               0
GRID*             102164               02.0100000000E+035.0000000000E+01+
*       1.6666666667E+01               0
GRID*             102165               02.0100000000E+035.0000000000E+01+
*       -1.666666667E+01               0
GRID*             102166               02.0200000000E+035.0000000000E+01+
*       1.6666666667E+01               0
GRID*             102167               02.0200000000E+035.0000000000E+01+
*       -1.666666667E+01               0
GRID*             102168               02.0300000000E+035.0000000000E+01+
*       1.6666666667E+01               0
GRID*             102169               02.0300000000E+035.0000000000E+01+
*       -1.666666667E+01               0
GRID*             102170               02.0400000000E+035.0000000000E+01+
*       1.6666666667E+01               0
GRID*             102171               02.0400000000E+035.0000000000E+01+
*       -1.666666667E+01               0
GRID*             102172               02.0500000000E+035.0000000000E+01+
*       1.6666666667E+01               0
GRID*             102173               02.0500000000E+035.0000000000E+01+
*       -1.666666667E+01               0
GRID*             102174               02.0600000000E+035.0000000000E+01+
*       1.6666666667E+01               0
GRID*             102175               02.0600000000E+035.0000000000E+01+
*       -1.666666667E+01               0
GRID*             102176               02.0700000000E+035.0000000000E+01+
*       1.6666666667E+01               0
GRID*             102177               02.0700000000E+035.0000000000E+01+
*       -1.666666667E+01               0
GRID*             102178               02.0800000000E+035.0000000000E+01+
*       1.6666666667E+01               0
GRID*             102179               02.0800000000E+035.0000000000E+01+
*       -1.666666667E+01               0
GRID*             102180               02.0900000000E+035.0000000000E+01+
*       1.6666666667E+01               0
GRID*             102181               02.0900000000E+035.0000000000E+01+
*       -1.666666667E+01               0
GRID*             102182               02.1000000000E+035.0000000000E+01+
*       1.6666666667E+01               0
GRID*             102183               02.1000000000E+035.0000000000E+01+
*       -1.666666667E+01               0
GRID*             102184               02.1100000000E+035.0000000000E+01+
*       1.6666666667E+01               0
GRID*             102185               02.1100000000E+035.0000000000E+01+
*       -1.666666667E+01               0
GRID*             102186               02.1200000000E+035.0000000000E+01+
*       1.6666666667E+01               0
GRID*             102187               02.1200000000E+035.0000000000E+01+
*       -1.666666667E+01               0
GRID*             102188               02.1300000000E+035.0000000000E+01+
*       1.6666666667E+01               0
GRID*             102189               02.1300000000E+035.0000000000E+01+
*       -1.666666667E+01               0
GRID*             102190               02.1400000000E+035.0000000000E+01+
*       1.6666666667E+01               0
GRID*             102191               02.1400000000E+035.0000000000E+01+
*       -1.666666667E+01               0
GRID*             102192               02.1500000000E+035.0000000000E+01+
*       1.6666666667E+01               0
GRID*             102193               02.1500000000E+035.0000000000E+01+
*       -1.666666667E+01               0
GRID*             102194               02.1600000000E+035.0000000000E+01+
*       1.6666666667E+01               0
GRID*             102195               02.1600000000E+035.0000000000E+01+
*       -1.666666667E+01               0
GRID*             102196               02.1700000000E+035.0000000000E+01+
*       1.6666666667E+01               0
GRID*             102197               02.1700000000E+035.0000000000E+01+
*       -1.666666667E+01               0
GRID*             102198               02.1800000000E+035.0000000000E+01+
*       1.6666666667E+01               0
GRID*             102199               02.1800000000E+035.0000000000E+01+
*       -1.666666667E+01               0
GRID*             102200               02.1900000000E+035.0000000000E+01+
*       1.6666666667E+01               0
GRID*             102201               02.1900000000E+035.0000000000E+01+
*       -1.666666667E+01               0
GRID*             102202               02.2000000000E+035.0000000000E+01+
*       1.6666666667E+01               0
GRID*             102203               02.2000000000E+035.0000000000E+01+
*       -1.666666667E+01               0
GRID*             102204               02.2100000000E+035.0000000000E+01+
*       1.6666666667E+01               0
GRID*             102205               02.2100000000E+035.0000000000E+01+
*       -1.666666667E+01               0
GRID*             102206               02.2200000000E+035.0000000000E+01+
*       1.6666666667E+01               0
GRID*             102207               02.2200000000E+035.0000000000E+01+
*       -1.666666667E+01               0
GRID*             102208               02.2300000000E+035.0000000000E+01+
*       1.6666666667E+01               0
GRID*             102209               02.2300000000E+035.0000000000E+01+
*       -1.666666667E+01               0
GRID*             102210               02.2400000000E+035.0000000000E+01+
*       1.6666666667E+01               0
GRID*             102211               02.2400000000E+035.0000000000E+01+
*       -1.666666667E+01               0
GRID*             102212               02.2500000000E+035.0000000000E+01+
*       1.6666666667E+01               0
GRID*             102213               02.2500000000E+035.0000000000E+01+
*       -1.666666667E+01               0
GRID*             102214               02.2600000000E+035.0000000000E+01+
*       1.6666666667E+01               0
GRID*             102215               02.2600000000E+035.0000000000E+01+
*       -1.666666667E+01               0
GRID*             102216               02.2700000000E+035.0000000000E+01+
*       1.6666666667E+01               0
GRID*             102217               02.2700000000E+035.0000000000E+01+
*       -1.666666667E+01               0
GRID*             102218               02.2800000000E+035.0000000000E+01+
*       1.6666666667E+01               0
GRID*             102219               02.2800000000E+035.0000000000E+01+
*       -1.666666667E+01               0
GRID*             102220               02.2900000000E+035.0000000000E+01+
*       1.6666666667E+01               0
GRID*             102221               02.2900000000E+035.0000000000E+01+
*       -1.666666667E+01               0
GRID*             102222               02.3000000000E+035.0000000000E+01+
*       1.6666666667E+01               0
GRID*             102223               02.3000000000E+035.0000000000E+01+
*       -1.666666667E+01               0
GRID*             102224               02.3100000000E+035.0000000000E+01+
*       1.6666666667E+01               0
GRID*             102225               02.3100000000E+035.0000000000E+01+
*       -1.666666667E+01               0
GRID*             102226               02.3200000000E+035.0000000000E+01+
*       1.6666666667E+01               0
GRID*             102227               02.3200000000E+035.0000000000E+01+
*       -1.666666667E+01               0
GRID*             102228               02.3300000000E+035.0000000000E+01+
*       1.6666666667E+01               0
GRID*             102229               02.3300000000E+035.0000000000E+01+
*       -1.666666667E+01               0
GRID*             102230               02.3400000000E+035.0000000000E+01+
*       1.6666666667E+01               0
GRID*             102231               02.3400000000E+035.0000000000E+01+
*       -1.666666667E+01               0
GRID*             102232               02.3500000000E+035.0000000000E+01+
*       1.6666666667E+01               0
GRID*             102233               02.3500000000E+035.0000000000E+01+
*       -1.666666667E+01               0
GRID*             102234               02.3600000000E+035.0000000000E+01+
*       1.6666666667E+01               0
GRID*             102235               02.3600000000E+035.0000000000E+01+
*       -1.666666667E+01               0
GRID*             102236               02.3700000000E+035.0000000000E+01+
*       1.6666666667E+01               0
GRID*             102237               02.3700000000E+035.0000000000E+01+
*       -1.666666667E+01               0
GRID*             102238               02.3800000000E+035.0000000000E+01+
*       1.6666666667E+01               0
GRID*             102239               02.3800000000E+035.0000000000E+01+
*       -1.666666667E+01               0
GRID*             102240               02.3900000000E+035.0000000000E+01+
*       1.6666666667E+01               0
GRID*             102241               02.3900000000E+035.0000000000E+01+
*       -1.666666667E+01               0
GRID*             102242               02.4000000000E+035.0000000000E+01+
*       1.6666666667E+01               0
GRID*             102243               02.4000000000E+035.0000000000E+01+
*       -1.666666667E+01               0
GRID*             102244               02.4100000000E+035.0000000000E+01+
*       1.6666666667E+01               0
GRID*             102245               02.4100000000E+035.0000000000E+01+
*       -1.666666667E+01               0
GRID*             102246               02.4200000000E+035.0000000000E+01+
*       1.6666666667E+01               0
GRID*             102247               02.4200000000E+035.0000000000E+01+
*       -1.666666667E+01               0
GRID*             102248               02.4300000000E+035.0000000000E+01+
*       1.6666666667E+01               0
GRID*             102249               02.4300000000E+035.0000000000E+01+
*       -1.666666667E+01               0
GRID*             102250               02.4400000000E+035.0000000000E+01+
*       1.6666666667E+01               0
GRID*             102251               02.4400000000E+035.0000000000E+01+
*       -1.666666667E+01               0
GRID*             102252               02.4500000000E+035.0000000000E+01+
*       1.6666666667E+01               0
GRID*             102253               02.4500000000E+035.0000000000E+01+
*       -1.666666667E+01               0
GRID*             102254               02.4600000000E+035.0000000000E+01+
*       1.6666666667E+01               0
GRID*             102255               02.4600000000E+035.0000000000E+01+
*       -1.666666667E+01               0
GRID*             102256               02.4700000000E+035.0000000000E+01+
*       1.6666666667E+01               0
GRID*             102257               02.4700000000E+035.0000000000E+01+
*       -1.666666667E+01               0
GRID*             102258               02.4800000000E+035.0000000000E+01+
*       1.6666666667E+01               0
GRID*             102259               02.4800000000E+035.0000000000E+01+
*       -1.666666667E+01               0
GRID*             102260               02.4900000000E+035.0000000000E+01+
*       1.6666666667E+01               0
GRID*             102261               02.4900000000E+035.0000000000E+01+
*       -1.666666667E+01               0
GRID*             102262               02.5000000000E+035.0000000000E+01+
*       1.6666666667E+01               0
GRID*             102263               02.5000000000E+035.0000000000E+01+
*       -1.666666667E+01               0
GRID*             102264               02.5100000000E+035.0000000000E+01+
*       1.6666666667E+01               0
GRID*             102265               02.5100000000E+035.0000000000E+01+
*       -1.666666667E+01               0
GRID*             102266               02.5200000000E+035.0000000000E+01+
*       1.6666666667E+01               0
GRID*             102267               02.5200000000E+035.0000000000E+01+
*       -1.666666667E+01               0
GRID*             102268               02.5300000000E+035.0000000000E+01+
*       1.6666666667E+01               0
GRID*             102269               02.5300000000E+035.0000000000E+01+
*       -1.666666667E+01               0
GRID*             102270               02.5400000000E+035.0000000000E+01+
*       1.6666666667E+01               0
GRID*             102271               02.5400000000E+035.0000000000E+01+
*       -1.666666667E+01               0
GRID*             102272               02.5500000000E+035.0000000000E+01+
*       1.6666666667E+01               0
GRID*             102273               02.5500000000E+035.0000000000E+01+
*       -1.666666667E+01               0
GRID*             102274               02.5600000000E+035.0000000000E+01+
*       1.6666666667E+01               0
GRID*             102275               02.5600000000E+035.0000000000E+01+
*       -1.666666667E+01               0
GRID*             102276               02.5700000000E+035.0000000000E+01+
*       1.6666666667E+01               0
GRID*             102277               02.5700000000E+035.0000000000E+01+
*       -1.666666667E+01               0
GRID*             102278               02.5800000000E+035.0000000000E+01+
*       1.6666666667E+01               0
GRID*             102279               02.5800000000E+035.0000000000E+01+
*       -1.666666667E+01               0
GRID*             102280               02.5900000000E+035.0000000000E+01+
*       1.6666666667E+01               0
GRID*             102281               02.5900000000E+035.0000000000E+01+
*       -1.666666667E+01               0
GRID*             102282               02.6000000000E+035.0000000000E+01+
*       1.6666666667E+01               0
GRID*             102283               02.6000000000E+035.0000000000E+01+
*       -1.666666667E+01               0
GRID*             102284               02.6100000000E+035.0000000000E+01+
*       1.6666666667E+01               0
GRID*             102285               02.6100000000E+035.0000000000E+01+
*       -1.666666667E+01               0
GRID*             102286               02.6200000000E+035.0000000000E+01+
*       1.6666666667E+01               0
GRID*             102287               02.6200000000E+035.0000000000E+01+
*       -1.666666667E+01               0
GRID*             102288               02.6300000000E+035.0000000000E+01+
*       1.6666666667E+01               0
GRID*             102289               02.6300000000E+035.0000000000E+01+
*       -1.666666667E+01               0
GRID*             102290               02.6400000000E+035.0000000000E+01+
*       1.6666666667E+01               0
GRID*             102291               02.6400000000E+035.0000000000E+01+
*       -1.666666667E+01               0
GRID*             102292               02.6500000000E+035.0000000000E+01+
*       1.6666666667E+01               0
GRID*             102293               02.6500000000E+035.0000000000E+01+
*       -1.666666667E+01               0
GRID*             102294               02.6600000000E+035.0000000000E+01+
*       1.6666666667E+01               0
GRID*             102295               02.6600000000E+035.0000000000E+01+
*       -1.666666667E+01               0
GRID*             102296               02.6700000000E+035.0000000000E+01+
*       1.6666666667E+01               0
GRID*             102297               02.6700000000E+035.0000000000E+01+
*       -1.666666667E+01               0
GRID*             102298               02.6800000000E+035.0000000000E+01+
*       1.6666666667E+01               0
GRID*             102299               02.6800000000E+035.0000000000E+01+
*       -1.666666667E+01               0
GRID*             102300               02.6900000000E+035.0000000000E+01+
*       1.6666666667E+01               0
GRID*             102301               02.6900000000E+035.0000000000E+01+
*       -1.666666667E+01               0
GRID*             102302               02.7000000000E+035.0000000000E+01+
*       1.6666666667E+01               0
GRID*             102303               02.7000000000E+035.0000000000E+01+
*       -1.666666667E+01               0
GRID*             102304               02.7100000000E+035.0000000000E+01+
*       1.6666666667E+01               0
GRID*             102305               02.7100000000E+035.0000000000E+01+
*       -1.666666667E+01               0
GRID*             102306               02.7200000000E+035.0000000000E+01+
*       1.6666666667E+01               0
GRID*             102307               02.7200000000E+035.0000000000E+01+
*       -1.666666667E+01               0
GRID*             102308               02.7300000000E+035.0000000000E+01+
*       1.6666666667E+01               0
GRID*             102309               02.7300000000E+035.0000000000E+01+
*       -1.666666667E+01               0
GRID*             102310               02.7400000000E+035.0000000000E+01+
*       1.6666666667E+01               0
GRID*             102311               02.7400000000E+035.0000000000E+01+
*       -1.666666667E+01               0
GRID*             102312               02.7500000000E+035.0000000000E+01+
*       1.6666666667E+01               0
GRID*             102313               02.7500000000E+035.0000000000E+01+
*       -1.666666667E+01               0
GRID*             102314               02.7600000000E+035.0000000000E+01+
*       1.6666666667E+01               0
GRID*             102315               02.7600000000E+035.0000000000E+01+
*       -1.666666667E+01               0
GRID*             102316               02.7700000000E+035.0000000000E+01+
*       1.6666666667E+01               0
GRID*             102317               02.7700000000E+035.0000000000E+01+
*       -1.666666667E+01               0
GRID*             102318               02.7800000000E+035.0000000000E+01+
*       1.6666666667E+01               0
GRID*             102319               02.7800000000E+035.0000000000E+01+
*       -1.666666667E+01               0
GRID*             102320               02.7900000000E+035.0000000000E+01+
*       1.6666666667E+01               0
GRID*             102321               02.7900000000E+035.0000000000E+01+
*       -1.666666667E+01               0
GRID*             102322               02.8000000000E+035.0000000000E+01+
*       1.6666666667E+01               0
GRID*             102323               02.8000000000E+035.0000000000E+01+
*       -1.666666667E+01               0
GRID*             102324               02.8100000000E+035.0000000000E+01+
*       1.6666666667E+01               0
GRID*             102325               02.8100000000E+035.0000000000E+01+
*       -1.666666667E+01               0
GRID*             102326               02.8200000000E+035.0000000000E+01+
*       1.6666666667E+01               0
GRID*             102327               02.8200000000E+035.0000000000E+01+
*       -1.666666667E+01               0
GRID*             102328               02.8300000000E+035.0000000000E+01+
*       1.6666666667E+01               0
GRID*             102329               02.8300000000E+035.0000000000E+01+
*       -1.666666667E+01               0
GRID*             102330               02.8400000000E+035.0000000000E+01+
*       1.6666666667E+01               0
GRID*             102331               02.8400000000E+035.0000000000E+01+
*       -1.666666667E+01               0
GRID*             102332               02.8500000000E+035.0000000000E+01+
*       1.6666666667E+01               0
GRID*             102333               02.8500000000E+035.0000000000E+01+
*       -1.666666667E+01               0
GRID*             102334               02.8600000000E+035.0000000000E+01+
*       1.6666666667E+01               0
GRID*             102335               02.8600000000E+035.0000000000E+01+
*       -1.666666667E+01               0
GRID*             102336               02.8700000000E+035.0000000000E+01+
*       1.6666666667E+01               0
GRID*             102337               02.8700000000E+035.0000000000E+01+
*       -1.666666667E+01               0
GRID*             102338               02.8800000000E+035.0000000000E+01+
*       1.6666666667E+01               0
GRID*             102339               02.8800000000E+035.0000000000E+01+
*       -1.666666667E+01               0
GRID*             102340               02.8900000000E+035.0000000000E+01+
*       1.6666666667E+01               0
GRID*             102341               02.8900000000E+035.0000000000E+01+
*       -1.666666667E+01               0
GRID*             102342               02.9000000000E+035.0000000000E+01+
*       1.6666666667E+01               0
GRID*             102343               02.9000000000E+035.0000000000E+01+
*       -1.666666667E+01               0
GRID*             102344               02.9100000000E+035.0000000000E+01+
*       1.6666666667E+01               0
GRID*             102345               02.9100000000E+035.0000000000E+01+
*       -1.666666667E+01               0
GRID*             102346               02.9200000000E+035.0000000000E+01+
*       1.6666666667E+01               0
GRID*             102347               02.9200000000E+035.0000000000E+01+
*       -1.666666667E+01               0
GRID*             102348               02.9300000000E+035.0000000000E+01+
*       1.6666666667E+01               0
GRID*             102349               02.9300000000E+035.0000000000E+01+
*       -1.666666667E+01               0
GRID*             102350               02.9400000000E+035.0000000000E+01+
*       1.6666666667E+01               0
GRID*             102351               02.9400000000E+035.0000000000E+01+
*       -1.666666667E+01               0
GRID*             102352               02.9500000000E+035.0000000000E+01+
*       1.6666666667E+01               0
GRID*             102353               02.9500000000E+035.0000000000E+01+
*       -1.666666667E+01               0
GRID*             102354               02.9600000000E+035.0000000000E+01+
*       1.6666666667E+01               0
GRID*             102355               02.9600000000E+035.0000000000E+01+
*       -1.666666667E+01               0
GRID*             102356               02.9700000000E+035.0000000000E+01+
*       1.6666666667E+01               0
GRID*             102357               02.9700000000E+035.0000000000E+01+
*       -1.666666667E+01               0
GRID*             102358               02.9800000000E+035.0000000000E+01+
*       1.6666666667E+01               0
GRID*             102359               02.9800000000E+035.0000000000E+01+
*       -1.666666667E+01               0
GRID*             102360               02.9900000000E+035.0000000000E+01+
*       1.6666666667E+01               0
GRID*             102361               02.9900000000E+035.0000000000E+01+
*       -1.666666667E+01               0
GRID*             102362               03.0000000000E+035.0000000000E+01+
*       1.6666666667E+01               0
GRID*             102363               03.0000000000E+035.0000000000E+01+
*       -1.666666667E+01               0
GRID*             102364               03.0100000000E+035.0000000000E+01+
*       1.6666666667E+01               0
GRID*             102365               03.0100000000E+035.0000000000E+01+
*       -1.666666667E+01               0
GRID*             102366               03.0200000000E+035.0000000000E+01+
*       1.6666666667E+01               0
GRID*             102367               03.0200000000E+035.0000000000E+01+
*       -1.666666667E+01               0
GRID*             102368               03.0300000000E+035.0000000000E+01+
*       1.6666666667E+01               0
GRID*             102369               03.0300000000E+035.0000000000E+01+
*       -1.666666667E+01               0
GRID*             102370               03.0400000000E+035.0000000000E+01+
*       1.6666666667E+01               0
GRID*             102371               03.0400000000E+035.0000000000E+01+
*       -1.666666667E+01               0
GRID*             102372               03.0500000000E+035.0000000000E+01+
*       1.6666666667E+01               0
GRID*             102373               03.0500000000E+035.0000000000E+01+
*       -1.666666667E+01               0
GRID*             102374               03.0600000000E+035.0000000000E+01+
*       1.6666666667E+01               0
GRID*             102375               03.0600000000E+035.0000000000E+01+
*       -1.666666667E+01               0
GRID*             102376               03.0700000000E+035.0000000000E+01+
*       1.6666666667E+01               0
GRID*             102377               03.0700000000E+035.0000000000E+01+
*       -1.666666667E+01               0
GRID*             102378               03.0800000000E+035.0000000000E+01+
*       1.6666666667E+01               0
GRID*             102379               03.0800000000E+035.0000000000E+01+
*       -1.666666667E+01               0
GRID*             102380               03.0900000000E+035.0000000000E+01+
*       1.6666666667E+01               0
GRID*             102381               03.0900000000E+035.0000000000E+01+
*       -1.666666667E+01               0
GRID*             102382               03.1000000000E+035.0000000000E+01+
*       1.6666666667E+01               0
GRID*             102383               03.1000000000E+035.0000000000E+01+
*       -1.666666667E+01               0
GRID*             102384               03.1100000000E+035.0000000000E+01+
*       1.6666666667E+01               0
GRID*             102385               03.1100000000E+035.0000000000E+01+
*       -1.666666667E+01               0
GRID*             102386               03.1200000000E+035.0000000000E+01+
*       1.6666666667E+01               0
GRID*             102387               03.1200000000E+035.0000000000E+01+
*       -1.666666667E+01               0
GRID*             102388               03.1300000000E+035.0000000000E+01+
*       1.6666666667E+01               0
GRID*             102389               03.1300000000E+035.0000000000E+01+
*       -1.666666667E+01               0
GRID*             102390               03.1400000000E+035.0000000000E+01+
*       1.6666666667E+01               0
GRID*             102391               03.1400000000E+035.0000000000E+01+
*       -1.666666667E+01               0
GRID*             102392               03.1500000000E+035.0000000000E+01+
*       1.6666666667E+01               0
GRID*             102393               03.1500000000E+035.0000000000E+01+
*       -1.666666667E+01               0
GRID*             102394               03.1600000000E+035.0000000000E+01+
*       1.6666666667E+01               0
GRID*             102395               03.1600000000E+035.0000000000E+01+
*       -1.666666667E+01               0
GRID*             102396               03.1700000000E+035.0000000000E+01+
*       1.6666666667E+01               0
GRID*             102397               03.1700000000E+035.0000000000E+01+
*       -1.666666667E+01               0
GRID*             102398               03.1800000000E+035.0000000000E+01+
*       1.6666666667E+01               0
GRID*             102399               03.1800000000E+035.0000000000E+01+
*       -1.666666667E+01               0
GRID*             102400               03.1900000000E+035.0000000000E+01+
*       1.6666666667E+01               0
GRID*             102401               03.1900000000E+035.0000000000E+01+
*       -1.666666667E+01               0
GRID*             102402               03.2000000000E+035.0000000000E+01+
*       1.6666666667E+01               0
GRID*             102403               03.2000000000E+035.0000000000E+01+
*       -1.666666667E+01               0
GRID*             102404               03.2100000000E+035.0000000000E+01+
*       1.6666666667E+01               0
GRID*             102405               03.2100000000E+035.0000000000E+01+
*       -1.666666667E+01               0
GRID*             102406               03.2200000000E+035.0000000000E+01+
*       1.6666666667E+01               0
GRID*             102407               03.2200000000E+035.0000000000E+01+
*       -1.666666667E+01               0
GRID*             102408               03.2300000000E+035.0000000000E+01+
*       1.6666666667E+01               0
GRID*             102409               03.2300000000E+035.0000000000E+01+
*       -1.666666667E+01               0
GRID*             102410               03.2400000000E+035.0000000000E+01+
*       1.6666666667E+01               0
GRID*             102411               03.2400000000E+035.0000000000E+01+
*       -1.666666667E+01               0
GRID*             102412               03.2500000000E+035.0000000000E+01+
*       1.6666666667E+01               0
GRID*             102413               03.2500000000E+035.0000000000E+01+
*       -1.666666667E+01               0
GRID*             102414               03.2600000000E+035.0000000000E+01+
*       1.6666666667E+01               0
GRID*             102415               03.2600000000E+035.0000000000E+01+
*       -1.666666667E+01               0
GRID*             102416               03.2700000000E+035.0000000000E+01+
*       1.6666666667E+01               0
GRID*             102417               03.2700000000E+035.0000000000E+01+
*       -1.666666667E+01               0
GRID*             102418               03.2800000000E+035.0000000000E+01+
*       1.6666666667E+01               0
GRID*             102419               03.2800000000E+035.0000000000E+01+
*       -1.666666667E+01               0
GRID*             102420               03.2900000000E+035.0000000000E+01+
*       1.6666666667E+01               0
GRID*             102421               03.2900000000E+035.0000000000E+01+
*       -1.666666667E+01               0
GRID*             102422               03.3000000000E+035.0000000000E+01+
*       1.6666666667E+01               0
GRID*             102423               03.3000000000E+035.0000000000E+01+
*       -1.666666667E+01               0
GRID*             102424               03.3100000000E+035.0000000000E+01+
*       1.6666666667E+01               0
GRID*             102425               03.3100000000E+035.0000000000E+01+
*       -1.666666667E+01               0
GRID*             102426               03.3200000000E+035.0000000000E+01+
*       1.6666666667E+01               0
GRID*             102427               03.3200000000E+035.0000000000E+01+
*       -1.666666667E+01               0
GRID*             102428               03.3300000000E+035.0000000000E+01+
*       1.6666666667E+01               0
GRID*             102429               03.3300000000E+035.0000000000E+01+
*       -1.666666667E+01               0
GRID*             102430               03.3400000000E+035.0000000000E+01+
*       1.6666666667E+01               0
GRID*             102431               03.3400000000E+035.0000000000E+01+
*       -1.666666667E+01               0
GRID*             102432               03.3500000000E+035.0000000000E+01+
*       1.6666666667E+01               0
GRID*             102433               03.3500000000E+035.0000000000E+01+
*       -1.666666667E+01               0
GRID*             102434               03.3600000000E+035.0000000000E+01+
*       1.6666666667E+01               0
GRID*             102435               03.3600000000E+035.0000000000E+01+
*       -1.666666667E+01               0
GRID*             102436               03.3700000000E+035.0000000000E+01+
*       1.6666666667E+01               0
GRID*             102437               03.3700000000E+035.0000000000E+01+
*       -1.666666667E+01               0
GRID*             102438               03.3800000000E+035.0000000000E+01+
*       1.6666666667E+01               0
GRID*             102439               03.3800000000E+035.0000000000E+01+
*       -1.666666667E+01               0
GRID*             102440               03.3900000000E+035.0000000000E+01+
*       1.6666666667E+01               0
GRID*             102441               03.3900000000E+035.0000000000E+01+
*       -1.666666667E+01               0
GRID*             102442               03.4000000000E+035.0000000000E+01+
*       1.6666666667E+01               0
GRID*             102443               03.4000000000E+035.0000000000E+01+
*       -1.666666667E+01               0
GRID*             102444               03.4100000000E+035.0000000000E+01+
*       1.6666666667E+01               0
GRID*             102445               03.4100000000E+035.0000000000E+01+
*       -1.666666667E+01               0
GRID*             102446               03.4200000000E+035.0000000000E+01+
*       1.6666666667E+01               0
GRID*             102447               03.4200000000E+035.0000000000E+01+
*       -1.666666667E+01               0
GRID*             102448               03.4300000000E+035.0000000000E+01+
*       1.6666666667E+01               0
GRID*             102449               03.4300000000E+035.0000000000E+01+
*       -1.666666667E+01               0
GRID*             102450               03.4400000000E+035.0000000000E+01+
*       1.6666666667E+01               0
GRID*             102451               03.4400000000E+035.0000000000E+01+
*       -1.666666667E+01               0
GRID*             102452               03.4500000000E+035.0000000000E+01+
*       1.6666666667E+01               0
GRID*             102453               03.4500000000E+035.0000000000E+01+
*       -1.666666667E+01               0
GRID*             102454               03.4600000000E+035.0000000000E+01+
*       1.6666666667E+01               0
GRID*             102455               03.4600000000E+035.0000000000E+01+
*       -1.666666667E+01               0
GRID*             102456               03.4700000000E+035.0000000000E+01+
*       1.6666666667E+01               0
GRID*             102457               03.4700000000E+035.0000000000E+01+
*       -1.666666667E+01               0
GRID*             102458               03.4800000000E+035.0000000000E+01+
*       1.6666666667E+01               0
GRID*             102459               03.4800000000E+035.0000000000E+01+
*       -1.666666667E+01               0
GRID*             102460               03.4900000000E+035.0000000000E+01+
*       1.6666666667E+01               0
GRID*             102461               03.4900000000E+035.0000000000E+01+
*       -1.666666667E+01               0
GRID*             102462               03.5000000000E+035.0000000000E+01+
*       1.6666666667E+01               0
GRID*             102463               03.5000000000E+035.0000000000E+01+
*       -1.666666667E+01               0
GRID*             102464               03.5100000000E+035.0000000000E+01+
*       1.6666666667E+01               0
GRID*             102465               03.5100000000E+035.0000000000E+01+
*       -1.666666667E+01               0
GRID*             102466               03.5200000000E+035.0000000000E+01+
*       1.6666666667E+01               0
GRID*             102467               03.5200000000E+035.0000000000E+01+
*       -1.666666667E+01               0
GRID*             102468               03.5300000000E+035.0000000000E+01+
*       1.6666666667E+01               0
GRID*             102469               03.5300000000E+035.0000000000E+01+
*       -1.666666667E+01               0
GRID*             102470               03.5400000000E+035.0000000000E+01+
*       1.6666666667E+01               0
GRID*             102471               03.5400000000E+035.0000000000E+01+
*       -1.666666667E+01               0
GRID*             102472               03.5500000000E+035.0000000000E+01+
*       1.6666666667E+01               0
GRID*             102473               03.5500000000E+035.0000000000E+01+
*       -1.666666667E+01               0
GRID*             102474               03.5600000000E+035.0000000000E+01+
*       1.6666666667E+01               0
GRID*             102475               03.5600000000E+035.0000000000E+01+
*       -1.666666667E+01               0
GRID*             102476               03.5700000000E+035.0000000000E+01+
*       1.6666666667E+01               0
GRID*             102477               03.5700000000E+035.0000000000E+01+
*       -1.666666667E+01               0
GRID*             102478               03.5800000000E+035.0000000000E+01+
*       1.6666666667E+01               0
GRID*             102479               03.5800000000E+035.0000000000E+01+
*       -1.666666667E+01               0
GRID*             102480               03.5900000000E+035.0000000000E+01+
*       1.6666666667E+01               0
GRID*             102481               03.5900000000E+035.0000000000E+01+
*       -1.666666667E+01               0
GRID*             102482               03.6000000000E+035.0000000000E+01+
*       1.6666666667E+01               0
GRID*             102483               03.6000000000E+035.0000000000E+01+
*       -1.666666667E+01               0
GRID*             102484               03.6100000000E+035.0000000000E+01+
*       1.6666666667E+01               0
GRID*             102485               03.6100000000E+035.0000000000E+01+
*       -1.666666667E+01               0
GRID*             102486               03.6200000000E+035.0000000000E+01+
*       1.6666666667E+01               0
GRID*             102487               03.6200000000E+035.0000000000E+01+
*       -1.666666667E+01               0
GRID*             102488               03.6300000000E+035.0000000000E+01+
*       1.6666666667E+01               0
GRID*             102489               03.6300000000E+035.0000000000E+01+
*       -1.666666667E+01               0
GRID*             102490               03.6400000000E+035.0000000000E+01+
*       1.6666666667E+01               0
GRID*             102491               03.6400000000E+035.0000000000E+01+
*       -1.666666667E+01               0
GRID*             102492               03.6500000000E+035.0000000000E+01+
*       1.6666666667E+01               0
GRID*             102493               03.6500000000E+035.0000000000E+01+
*       -1.666666667E+01               0
GRID*             102494               03.6600000000E+035.0000000000E+01+
*       1.6666666667E+01               0
GRID*             102495               03.6600000000E+035.0000000000E+01+
*       -1.666666667E+01               0
GRID*             102496               03.6700000000E+035.0000000000E+01+
*       1.6666666667E+01               0
GRID*             102497               03.6700000000E+035.0000000000E+01+
*       -1.666666667E+01               0
GRID*             102498               03.6800000000E+035.0000000000E+01+
*       1.6666666667E+01               0
GRID*             102499               03.6800000000E+035.0000000000E+01+
*       -1.666666667E+01               0
GRID*             102500               03.6900000000E+035.0000000000E+01+
*       1.6666666667E+01               0
GRID*             102501               03.6900000000E+035.0000000000E+01+
*       -1.666666667E+01               0
GRID*             102502               03.7000000000E+035.0000000000E+01+
*       1.6666666667E+01               0
GRID*             102503               03.7000000000E+035.0000000000E+01+
*       -1.666666667E+01               0
GRID*             102504               03.7100000000E+035.0000000000E+01+
*       1.6666666667E+01               0
GRID*             102505               03.7100000000E+035.0000000000E+01+
*       -1.666666667E+01               0
GRID*             102506               03.7200000000E+035.0000000000E+01+
*       1.6666666667E+01               0
GRID*             102507               03.7200000000E+035.0000000000E+01+
*       -1.666666667E+01               0
GRID*             102508               03.7300000000E+035.0000000000E+01+
*       1.6666666667E+01               0
GRID*             102509               03.7300000000E+035.0000000000E+01+
*       -1.666666667E+01               0
GRID*             102510               03.7400000000E+035.0000000000E+01+
*       1.6666666667E+01               0
GRID*             102511               03.7400000000E+035.0000000000E+01+
*       -1.666666667E+01               0
GRID*             102512               03.7500000000E+035.0000000000E+01+
*       1.6666666667E+01               0
GRID*             102513               03.7500000000E+035.0000000000E+01+
*       -1.666666667E+01               0
GRID*             102514               03.7600000000E+035.0000000000E+01+
*       1.6666666667E+01               0
GRID*             102515               03.7600000000E+035.0000000000E+01+
*       -1.666666667E+01               0
GRID*             102516               03.7700000000E+035.0000000000E+01+
*       1.6666666667E+01               0
GRID*             102517               03.7700000000E+035.0000000000E+01+
*       -1.666666667E+01               0
GRID*             102518               03.7800000000E+035.0000000000E+01+
*       1.6666666667E+01               0
GRID*             102519               03.7800000000E+035.0000000000E+01+
*       -1.666666667E+01               0
GRID*             102520               03.7900000000E+035.0000000000E+01+
*       1.6666666667E+01               0
GRID*             102521               03.7900000000E+035.0000000000E+01+
*       -1.666666667E+01               0
GRID*             102522               03.8000000000E+035.0000000000E+01+
*       1.6666666667E+01               0
GRID*             102523               03.8000000000E+035.0000000000E+01+
*       -1.666666667E+01               0
GRID*             102524               03.8100000000E+035.0000000000E+01+
*       1.6666666667E+01               0
GRID*             102525               03.8100000000E+035.0000000000E+01+
*       -1.666666667E+01               0
GRID*             102526               03.8200000000E+035.0000000000E+01+
*       1.6666666667E+01               0
GRID*             102527               03.8200000000E+035.0000000000E+01+
*       -1.666666667E+01               0
GRID*             102528               03.8300000000E+035.0000000000E+01+
*       1.6666666667E+01               0
GRID*             102529               03.8300000000E+035.0000000000E+01+
*       -1.666666667E+01               0
GRID*             102530               03.8400000000E+035.0000000000E+01+
*       1.6666666667E+01               0
GRID*             102531               03.8400000000E+035.0000000000E+01+
*       -1.666666667E+01               0
GRID*             102532               03.8500000000E+035.0000000000E+01+
*       1.6666666667E+01               0
GRID*             102533               03.8500000000E+035.0000000000E+01+
*       -1.666666667E+01               0
GRID*             102534               03.8600000000E+035.0000000000E+01+
*       1.6666666667E+01               0
GRID*             102535               03.8600000000E+035.0000000000E+01+
*       -1.666666667E+01               0
GRID*             102536               03.8700000000E+035.0000000000E+01+
*       1.6666666667E+01               0
GRID*             102537               03.8700000000E+035.0000000000E+01+
*       -1.666666667E+01               0
GRID*             102538               03.8800000000E+035.0000000000E+01+
*       1.6666666667E+01               0
GRID*             102539               03.8800000000E+035.0000000000E+01+
*       -1.666666667E+01               0
GRID*             102540               03.8900000000E+035.0000000000E+01+
*       1.6666666667E+01               0
GRID*             102541               03.8900000000E+035.0000000000E+01+
*       -1.666666667E+01               0
GRID*             102542               03.9000000000E+035.0000000000E+01+
*       1.6666666667E+01               0
GRID*             102543               03.9000000000E+035.0000000000E+01+
*       -1.666666667E+01               0
GRID*             102544               03.9100000000E+035.0000000000E+01+
*       1.6666666667E+01               0
GRID*             102545               03.9100000000E+035.0000000000E+01+
*       -1.666666667E+01               0
GRID*             102546               03.9200000000E+035.0000000000E+01+
*       1.6666666667E+01               0
GRID*             102547               03.9200000000E+035.0000000000E+01+
*       -1.666666667E+01               0
GRID*             102548               03.9300000000E+035.0000000000E+01+
*       1.6666666667E+01               0
GRID*             102549               03.9300000000E+035.0000000000E+01+
*       -1.666666667E+01               0
GRID*             102550               03.9400000000E+035.0000000000E+01+
*       1.6666666667E+01               0
GRID*             102551               03.9400000000E+035.0000000000E+01+
*       -1.666666667E+01               0
GRID*             102552               03.9500000000E+035.0000000000E+01+
*       1.6666666667E+01               0
GRID*             102553               03.9500000000E+035.0000000000E+01+
*       -1.666666667E+01               0
GRID*             102554               03.9600000000E+035.0000000000E+01+
*       1.6666666667E+01               0
GRID*             102555               03.9600000000E+035.0000000000E+01+
*       -1.666666667E+01               0
GRID*             102556               03.9700000000E+035.0000000000E+01+
*       1.6666666667E+01               0
GRID*             102557               03.9700000000E+035.0000000000E+01+
*       -1.666666667E+01               0
GRID*             102558               03.9800000000E+035.0000000000E+01+
*       1.6666666667E+01               0
GRID*             102559               03.9800000000E+035.0000000000E+01+
*       -1.666666667E+01               0
GRID*             102560               03.9900000000E+035.0000000000E+01+
*       1.6666666667E+01               0
GRID*             102561               03.9900000000E+035.0000000000E+01+
*       -1.666666667E+01               0
GRID*             102562               04.0000000000E+031.6666666667E+01+
*       1.6666666667E+01               0
GRID*             102563               04.0000000000E+031.6666666667E+01+
*       -1.666666667E+01               0
GRID*             102564               04.0000000000E+03-1.666666667E+01+
*       -1.666666667E+01               0
GRID*             102565               04.0000000000E+03-1.666666667E+01+
*       1.6666666667E+01               0
GRID*             102566               02.0100000000E+031.6666666667E+01+
*       1.6666666667E+01               0
GRID*             102567               02.0100000000E+031.6666666667E+01+
*       -1.666666667E+01               0
GRID*             102568               02.0100000000E+03-1.666666667E+01+
*       -1.666666667E+01               0
GRID*             102569               02.0100000000E+03-1.666666667E+01+
*       1.6666666667E+01               0
GRID*             102570               02.0200000000E+031.6666666667E+01+
*       1.6666666667E+01               0
GRID*             102571               02.0200000000E+031.6666666667E+01+
*       -1.666666667E+01               0
GRID*             102572               02.0200000000E+03-1.666666667E+01+
*       -1.666666667E+01               0
GRID*             102573               02.0200000000E+03-1.666666667E+01+
*       1.6666666667E+01               0
GRID*             102574               02.0300000000E+031.6666666667E+01+
*       1.6666666667E+01               0
GRID*             102575               02.0300000000E+031.6666666667E+01+
*       -1.666666667E+01               0
GRID*             102576               02.0300000000E+03-1.666666667E+01+
*       -1.666666667E+01               0
GRID*             102577               02.0300000000E+03-1.666666667E+01+
*       1.6666666667E+01               0
GRID*             102578               02.0400000000E+031.6666666667E+01+
*       1.6666666667E+01               0
GRID*             102579               02.0400000000E+031.6666666667E+01+
*       -1.666666667E+01               0
GRID*             102580               02.0400000000E+03-1.666666667E+01+
*       -1.666666667E+01               0
GRID*             102581               02.0400000000E+03-1.666666667E+01+
*       1.6666666667E+01               0
GRID*             102582               02.0500000000E+031.6666666667E+01+
*       1.6666666667E+01               0
GRID*             102583               02.0500000000E+031.6666666667E+01+
*       -1.666666667E+01               0
GRID*             102584               02.0500000000E+03-1.666666667E+01+
*       -1.666666667E+01               0
GRID*             102585               02.0500000000E+03-1.666666667E+01+
*       1.6666666667E+01               0
GRID*             102586               02.0600000000E+031.6666666667E+01+
*       1.6666666667E+01               0
GRID*             102587               02.0600000000E+031.6666666667E+01+
*       -1.666666667E+01               0
GRID*             102588               02.0600000000E+03-1.666666667E+01+
*       -1.666666667E+01               0
GRID*             102589               02.0600000000E+03-1.666666667E+01+
*       1.6666666667E+01               0
GRID*             102590               02.0700000000E+031.6666666667E+01+
*       1.6666666667E+01               0
GRID*             102591               02.0700000000E+031.6666666667E+01+
*       -1.666666667E+01               0
GRID*             102592               02.0700000000E+03-1.666666667E+01+
*       -1.666666667E+01               0
GRID*             102593               02.0700000000E+03-1.666666667E+01+
*       1.6666666667E+01               0
GRID*             102594               02.0800000000E+031.6666666667E+01+
*       1.6666666667E+01               0
GRID*             102595               02.0800000000E+031.6666666667E+01+
*       -1.666666667E+01               0
GRID*             102596               02.0800000000E+03-1.666666667E+01+
*       -1.666666667E+01               0
GRID*             102597               02.0800000000E+03-1.666666667E+01+
*       1.6666666667E+01               0
GRID*             102598               02.0900000000E+031.6666666667E+01+
*       1.6666666667E+01               0
GRID*             102599               02.0900000000E+031.6666666667E+01+
*       -1.666666667E+01               0
GRID*             102600               02.0900000000E+03-1.666666667E+01+
*       -1.666666667E+01               0
GRID*             102601               02.0900000000E+03-1.666666667E+01+
*       1.6666666667E+01               0
GRID*             102602               02.1000000000E+031.6666666667E+01+
*       1.6666666667E+01               0
GRID*             102603               02.1000000000E+031.6666666667E+01+
*       -1.666666667E+01               0
GRID*             102604               02.1000000000E+03-1.666666667E+01+
*       -1.666666667E+01               0
GRID*             102605               02.1000000000E+03-1.666666667E+01+
*       1.6666666667E+01               0
GRID*             102606               02.1100000000E+031.6666666667E+01+
*       1.6666666667E+01               0
GRID*             102607               02.1100000000E+031.6666666667E+01+
*       -1.666666667E+01               0
GRID*             102608               02.1100000000E+03-1.666666667E+01+
*       -1.666666667E+01               0
GRID*             102609               02.1100000000E+03-1.666666667E+01+
*       1.6666666667E+01               0
GRID*             102610               02.1200000000E+031.6666666667E+01+
*       1.6666666667E+01               0
GRID*             102611               02.1200000000E+031.6666666667E+01+
*       -1.666666667E+01               0
GRID*             102612               02.1200000000E+03-1.666666667E+01+
*       -1.666666667E+01               0
GRID*             102613               02.1200000000E+03-1.666666667E+01+
*       1.6666666667E+01               0
GRID*             102614               02.1300000000E+031.6666666667E+01+
*       1.6666666667E+01               0
GRID*             102615               02.1300000000E+031.6666666667E+01+
*       -1.666666667E+01               0
GRID*             102616               02.1300000000E+03-1.666666667E+01+
*       -1.666666667E+01               0
GRID*             102617               02.1300000000E+03-1.666666667E+01+
*       1.6666666667E+01               0
GRID*             102618               02.1400000000E+031.6666666667E+01+
*       1.6666666667E+01               0
GRID*             102619               02.1400000000E+031.6666666667E+01+
*       -1.666666667E+01               0
GRID*             102620               02.1400000000E+03-1.666666667E+01+
*       -1.666666667E+01               0
GRID*             102621               02.1400000000E+03-1.666666667E+01+
*       1.6666666667E+01               0
GRID*             102622               02.1500000000E+031.6666666667E+01+
*       1.6666666667E+01               0
GRID*             102623               02.1500000000E+031.6666666667E+01+
*       -1.666666667E+01               0
GRID*             102624               02.1500000000E+03-1.666666667E+01+
*       -1.666666667E+01               0
GRID*             102625               02.1500000000E+03-1.666666667E+01+
*       1.6666666667E+01               0
GRID*             102626               02.1600000000E+031.6666666667E+01+
*       1.6666666667E+01               0
GRID*             102627               02.1600000000E+031.6666666667E+01+
*       -1.666666667E+01               0
GRID*             102628               02.1600000000E+03-1.666666667E+01+
*       -1.666666667E+01               0
GRID*             102629               02.1600000000E+03-1.666666667E+01+
*       1.6666666667E+01               0
GRID*             102630               02.1700000000E+031.6666666667E+01+
*       1.6666666667E+01               0
GRID*             102631               02.1700000000E+031.6666666667E+01+
*       -1.666666667E+01               0
GRID*             102632               02.1700000000E+03-1.666666667E+01+
*       -1.666666667E+01               0
GRID*             102633               02.1700000000E+03-1.666666667E+01+
*       1.6666666667E+01               0
GRID*             102634               02.1800000000E+031.6666666667E+01+
*       1.6666666667E+01               0
GRID*             102635               02.1800000000E+031.6666666667E+01+
*       -1.666666667E+01               0
GRID*             102636               02.1800000000E+03-1.666666667E+01+
*       -1.666666667E+01               0
GRID*             102637               02.1800000000E+03-1.666666667E+01+
*       1.6666666667E+01               0
GRID*             102638               02.1900000000E+031.6666666667E+01+
*       1.6666666667E+01               0
GRID*             102639               02.1900000000E+031.6666666667E+01+
*       -1.666666667E+01               0
GRID*             102640               02.1900000000E+03-1.666666667E+01+
*       -1.666666667E+01               0
GRID*             102641               02.1900000000E+03-1.666666667E+01+
*       1.6666666667E+01               0
GRID*             102642               02.2000000000E+031.6666666667E+01+
*       1.6666666667E+01               0
GRID*             102643               02.2000000000E+031.6666666667E+01+
*       -1.666666667E+01               0
GRID*             102644               02.2000000000E+03-1.666666667E+01+
*       -1.666666667E+01               0
GRID*             102645               02.2000000000E+03-1.666666667E+01+
*       1.6666666667E+01               0
GRID*             102646               02.2100000000E+031.6666666667E+01+
*       1.6666666667E+01               0
GRID*             102647               02.2100000000E+031.6666666667E+01+
*       -1.666666667E+01               0
GRID*             102648               02.2100000000E+03-1.666666667E+01+
*       -1.666666667E+01               0
GRID*             102649               02.2100000000E+03-1.666666667E+01+
*       1.6666666667E+01               0
GRID*             102650               02.2200000000E+031.6666666667E+01+
*       1.6666666667E+01               0
GRID*             102651               02.2200000000E+031.6666666667E+01+
*       -1.666666667E+01               0
GRID*             102652               02.2200000000E+03-1.666666667E+01+
*       -1.666666667E+01               0
GRID*             102653               02.2200000000E+03-1.666666667E+01+
*       1.6666666667E+01               0
GRID*             102654               02.2300000000E+031.6666666667E+01+
*       1.6666666667E+01               0
GRID*             102655               02.2300000000E+031.6666666667E+01+
*       -1.666666667E+01               0
GRID*             102656               02.2300000000E+03-1.666666667E+01+
*       -1.666666667E+01               0
GRID*             102657               02.2300000000E+03-1.666666667E+01+
*       1.6666666667E+01               0
GRID*             102658               02.2400000000E+031.6666666667E+01+
*       1.6666666667E+01               0
GRID*             102659               02.2400000000E+031.6666666667E+01+
*       -1.666666667E+01               0
GRID*             102660               02.2400000000E+03-1.666666667E+01+
*       -1.666666667E+01               0
GRID*             102661               02.2400000000E+03-1.666666667E+01+
*       1.6666666667E+01               0
GRID*             102662               02.2500000000E+031.6666666667E+01+
*       1.6666666667E+01               0
GRID*             102663               02.2500000000E+031.6666666667E+01+
*       -1.666666667E+01               0
GRID*             102664               02.2500000000E+03-1.666666667E+01+
*       -1.666666667E+01               0
GRID*             102665               02.2500000000E+03-1.666666667E+01+
*       1.6666666667E+01               0
GRID*             102666               02.2600000000E+031.6666666667E+01+
*       1.6666666667E+01               0
GRID*             102667               02.2600000000E+031.6666666667E+01+
*       -1.666666667E+01               0
GRID*             102668               02.2600000000E+03-1.666666667E+01+
*       -1.666666667E+01               0
GRID*             102669               02.2600000000E+03-1.666666667E+01+
*       1.6666666667E+01               0
GRID*             102670               02.2700000000E+031.6666666667E+01+
*       1.6666666667E+01               0
GRID*             102671               02.2700000000E+031.6666666667E+01+
*       -1.666666667E+01               0
GRID*             102672               02.2700000000E+03-1.666666667E+01+
*       -1.666666667E+01               0
GRID*             102673               02.2700000000E+03-1.666666667E+01+
*       1.6666666667E+01               0
GRID*             102674               02.2800000000E+031.6666666667E+01+
*       1.6666666667E+01               0
GRID*             102675               02.2800000000E+031.6666666667E+01+
*       -1.666666667E+01               0
GRID*             102676               02.2800000000E+03-1.666666667E+01+
*       -1.666666667E+01               0
GRID*             102677               02.2800000000E+03-1.666666667E+01+
*       1.6666666667E+01               0
GRID*             102678               02.2900000000E+031.6666666667E+01+
*       1.6666666667E+01               0
GRID*             102679               02.2900000000E+031.6666666667E+01+
*       -1.666666667E+01               0
GRID*             102680               02.2900000000E+03-1.666666667E+01+
*       -1.666666667E+01               0
GRID*             102681               02.2900000000E+03-1.666666667E+01+
*       1.6666666667E+01               0
GRID*             102682               02.3000000000E+031.6666666667E+01+
*       1.6666666667E+01               0
GRID*             102683               02.3000000000E+031.6666666667E+01+
*       -1.666666667E+01               0
GRID*             102684               02.3000000000E+03-1.666666667E+01+
*       -1.666666667E+01               0
GRID*             102685               02.3000000000E+03-1.666666667E+01+
*       1.6666666667E+01               0
GRID*             102686               02.3100000000E+031.6666666667E+01+
*       1.6666666667E+01               0
GRID*             102687               02.3100000000E+031.6666666667E+01+
*       -1.666666667E+01               0
GRID*             102688               02.3100000000E+03-1.666666667E+01+
*       -1.666666667E+01               0
GRID*             102689               02.3100000000E+03-1.666666667E+01+
*       1.6666666667E+01               0
GRID*             102690               02.3200000000E+031.6666666667E+01+
*       1.6666666667E+01               0
GRID*             102691               02.3200000000E+031.6666666667E+01+
*       -1.666666667E+01               0
GRID*             102692               02.3200000000E+03-1.666666667E+01+
*       -1.666666667E+01               0
GRID*             102693               02.3200000000E+03-1.666666667E+01+
*       1.6666666667E+01               0
GRID*             102694               02.3300000000E+031.6666666667E+01+
*       1.6666666667E+01               0
GRID*             102695               02.3300000000E+031.6666666667E+01+
*       -1.666666667E+01               0
GRID*             102696               02.3300000000E+03-1.666666667E+01+
*       -1.666666667E+01               0
GRID*             102697               02.3300000000E+03-1.666666667E+01+
*       1.6666666667E+01               0
GRID*             102698               02.3400000000E+031.6666666667E+01+
*       1.6666666667E+01               0
GRID*             102699               02.3400000000E+031.6666666667E+01+
*       -1.666666667E+01               0
GRID*             102700               02.3400000000E+03-1.666666667E+01+
*       -1.666666667E+01               0
GRID*             102701               02.3400000000E+03-1.666666667E+01+
*       1.6666666667E+01               0
GRID*             102702               02.3500000000E+031.6666666667E+01+
*       1.6666666667E+01               0
GRID*             102703               02.3500000000E+031.6666666667E+01+
*       -1.666666667E+01               0
GRID*             102704               02.3500000000E+03-1.666666667E+01+
*       -1.666666667E+01               0
GRID*             102705               02.3500000000E+03-1.666666667E+01+
*       1.6666666667E+01               0
GRID*             102706               02.3600000000E+031.6666666667E+01+
*       1.6666666667E+01               0
GRID*             102707               02.3600000000E+031.6666666667E+01+
*       -1.666666667E+01               0
GRID*             102708               02.3600000000E+03-1.666666667E+01+
*       -1.666666667E+01               0
GRID*             102709               02.3600000000E+03-1.666666667E+01+
*       1.6666666667E+01               0
GRID*             102710               02.3700000000E+031.6666666667E+01+
*       1.6666666667E+01               0
GRID*             102711               02.3700000000E+031.6666666667E+01+
*       -1.666666667E+01               0
GRID*             102712               02.3700000000E+03-1.666666667E+01+
*       -1.666666667E+01               0
GRID*             102713               02.3700000000E+03-1.666666667E+01+
*       1.6666666667E+01               0
GRID*             102714               02.3800000000E+031.6666666667E+01+
*       1.6666666667E+01               0
GRID*             102715               02.3800000000E+031.6666666667E+01+
*       -1.666666667E+01               0
GRID*             102716               02.3800000000E+03-1.666666667E+01+
*       -1.666666667E+01               0
GRID*             102717               02.3800000000E+03-1.666666667E+01+
*       1.6666666667E+01               0
GRID*             102718               02.3900000000E+031.6666666667E+01+
*       1.6666666667E+01               0
GRID*             102719               02.3900000000E+031.6666666667E+01+
*       -1.666666667E+01               0
GRID*             102720               02.3900000000E+03-1.666666667E+01+
*       -1.666666667E+01               0
GRID*             102721               02.3900000000E+03-1.666666667E+01+
*       1.6666666667E+01               0
GRID*             102722               02.4000000000E+031.6666666667E+01+
*       1.6666666667E+01               0
GRID*             102723               02.4000000000E+031.6666666667E+01+
*       -1.666666667E+01               0
GRID*             102724               02.4000000000E+03-1.666666667E+01+
*       -1.666666667E+01               0
GRID*             102725               02.4000000000E+03-1.666666667E+01+
*       1.6666666667E+01               0
GRID*             102726               02.4100000000E+031.6666666667E+01+
*       1.6666666667E+01               0
GRID*             102727               02.4100000000E+031.6666666667E+01+
*       -1.666666667E+01               0
GRID*             102728               02.4100000000E+03-1.666666667E+01+
*       -1.666666667E+01               0
GRID*             102729               02.4100000000E+03-1.666666667E+01+
*       1.6666666667E+01               0
GRID*             102730               02.4200000000E+031.6666666667E+01+
*       1.6666666667E+01               0
GRID*             102731               02.4200000000E+031.6666666667E+01+
*       -1.666666667E+01               0
GRID*             102732               02.4200000000E+03-1.666666667E+01+
*       -1.666666667E+01               0
GRID*             102733               02.4200000000E+03-1.666666667E+01+
*       1.6666666667E+01               0
GRID*             102734               02.4300000000E+031.6666666667E+01+
*       1.6666666667E+01               0
GRID*             102735               02.4300000000E+031.6666666667E+01+
*       -1.666666667E+01               0
GRID*             102736               02.4300000000E+03-1.666666667E+01+
*       -1.666666667E+01               0
GRID*             102737               02.4300000000E+03-1.666666667E+01+
*       1.6666666667E+01               0
GRID*             102738               02.4400000000E+031.6666666667E+01+
*       1.6666666667E+01               0
GRID*             102739               02.4400000000E+031.6666666667E+01+
*       -1.666666667E+01               0
GRID*             102740               02.4400000000E+03-1.666666667E+01+
*       -1.666666667E+01               0
GRID*             102741               02.4400000000E+03-1.666666667E+01+
*       1.6666666667E+01               0
GRID*             102742               02.4500000000E+031.6666666667E+01+
*       1.6666666667E+01               0
GRID*             102743               02.4500000000E+031.6666666667E+01+
*       -1.666666667E+01               0
GRID*             102744               02.4500000000E+03-1.666666667E+01+
*       -1.666666667E+01               0
GRID*             102745               02.4500000000E+03-1.666666667E+01+
*       1.6666666667E+01               0
GRID*             102746               02.4600000000E+031.6666666667E+01+
*       1.6666666667E+01               0
GRID*             102747               02.4600000000E+031.6666666667E+01+
*       -1.666666667E+01               0
GRID*             102748               02.4600000000E+03-1.666666667E+01+
*       -1.666666667E+01               0
GRID*             102749               02.4600000000E+03-1.666666667E+01+
*       1.6666666667E+01               0
GRID*             102750               02.4700000000E+031.6666666667E+01+
*       1.6666666667E+01               0
GRID*             102751               02.4700000000E+031.6666666667E+01+
*       -1.666666667E+01               0
GRID*             102752               02.4700000000E+03-1.666666667E+01+
*       -1.666666667E+01               0
GRID*             102753               02.4700000000E+03-1.666666667E+01+
*       1.6666666667E+01               0
GRID*             102754               02.4800000000E+031.6666666667E+01+
*       1.6666666667E+01               0
GRID*             102755               02.4800000000E+031.6666666667E+01+
*       -1.666666667E+01               0
GRID*             102756               02.4800000000E+03-1.666666667E+01+
*       -1.666666667E+01               0
GRID*             102757               02.4800000000E+03-1.666666667E+01+
*       1.6666666667E+01               0
GRID*             102758               02.4900000000E+031.6666666667E+01+
*       1.6666666667E+01               0
GRID*             102759               02.4900000000E+031.6666666667E+01+
*       -1.666666667E+01               0
GRID*             102760               02.4900000000E+03-1.666666667E+01+
*       -1.666666667E+01               0
GRID*             102761               02.4900000000E+03-1.666666667E+01+
*       1.6666666667E+01               0
GRID*             102762               02.5000000000E+031.6666666667E+01+
*       1.6666666667E+01               0
GRID*             102763               02.5000000000E+031.6666666667E+01+
*       -1.666666667E+01               0
GRID*             102764               02.5000000000E+03-1.666666667E+01+
*       -1.666666667E+01               0
GRID*             102765               02.5000000000E+03-1.666666667E+01+
*       1.6666666667E+01               0
GRID*             102766               02.5100000000E+031.6666666667E+01+
*       1.6666666667E+01               0
GRID*             102767               02.5100000000E+031.6666666667E+01+
*       -1.666666667E+01               0
GRID*             102768               02.5100000000E+03-1.666666667E+01+
*       -1.666666667E+01               0
GRID*             102769               02.5100000000E+03-1.666666667E+01+
*       1.6666666667E+01               0
GRID*             102770               02.5200000000E+031.6666666667E+01+
*       1.6666666667E+01               0
GRID*             102771               02.5200000000E+031.6666666667E+01+
*       -1.666666667E+01               0
GRID*             102772               02.5200000000E+03-1.666666667E+01+
*       -1.666666667E+01               0
GRID*             102773               02.5200000000E+03-1.666666667E+01+
*       1.6666666667E+01               0
GRID*             102774               02.5300000000E+031.6666666667E+01+
*       1.6666666667E+01               0
GRID*             102775               02.5300000000E+031.6666666667E+01+
*       -1.666666667E+01               0
GRID*             102776               02.5300000000E+03-1.666666667E+01+
*       -1.666666667E+01               0
GRID*             102777               02.5300000000E+03-1.666666667E+01+
*       1.6666666667E+01               0
GRID*             102778               02.5400000000E+031.6666666667E+01+
*       1.6666666667E+01               0
GRID*             102779               02.5400000000E+031.6666666667E+01+
*       -1.666666667E+01               0
GRID*             102780               02.5400000000E+03-1.666666667E+01+
*       -1.666666667E+01               0
GRID*             102781               02.5400000000E+03-1.666666667E+01+
*       1.6666666667E+01               0
GRID*             102782               02.5500000000E+031.6666666667E+01+
*       1.6666666667E+01               0
GRID*             102783               02.5500000000E+031.6666666667E+01+
*       -1.666666667E+01               0
GRID*             102784               02.5500000000E+03-1.666666667E+01+
*       -1.666666667E+01               0
GRID*             102785               02.5500000000E+03-1.666666667E+01+
*       1.6666666667E+01               0
GRID*             102786               02.5600000000E+031.6666666667E+01+
*       1.6666666667E+01               0
GRID*             102787               02.5600000000E+031.6666666667E+01+
*       -1.666666667E+01               0
GRID*             102788               02.5600000000E+03-1.666666667E+01+
*       -1.666666667E+01               0
GRID*             102789               02.5600000000E+03-1.666666667E+01+
*       1.6666666667E+01               0
GRID*             102790               02.5700000000E+031.6666666667E+01+
*       1.6666666667E+01               0
GRID*             102791               02.5700000000E+031.6666666667E+01+
*       -1.666666667E+01               0
GRID*             102792               02.5700000000E+03-1.666666667E+01+
*       -1.666666667E+01               0
GRID*             102793               02.5700000000E+03-1.666666667E+01+
*       1.6666666667E+01               0
GRID*             102794               02.5800000000E+031.6666666667E+01+
*       1.6666666667E+01               0
GRID*             102795               02.5800000000E+031.6666666667E+01+
*       -1.666666667E+01               0
GRID*             102796               02.5800000000E+03-1.666666667E+01+
*       -1.666666667E+01               0
GRID*             102797               02.5800000000E+03-1.666666667E+01+
*       1.6666666667E+01               0
GRID*             102798               02.5900000000E+031.6666666667E+01+
*       1.6666666667E+01               0
GRID*             102799               02.5900000000E+031.6666666667E+01+
*       -1.666666667E+01               0
GRID*             102800               02.5900000000E+03-1.666666667E+01+
*       -1.666666667E+01               0
GRID*             102801               02.5900000000E+03-1.666666667E+01+
*       1.6666666667E+01               0
GRID*             102802               02.6000000000E+031.6666666667E+01+
*       1.6666666667E+01               0
GRID*             102803               02.6000000000E+031.6666666667E+01+
*       -1.666666667E+01               0
GRID*             102804               02.6000000000E+03-1.666666667E+01+
*       -1.666666667E+01               0
GRID*             102805               02.6000000000E+03-1.666666667E+01+
*       1.6666666667E+01               0
GRID*             102806               02.6100000000E+031.6666666667E+01+
*       1.6666666667E+01               0
GRID*             102807               02.6100000000E+031.6666666667E+01+
*       -1.666666667E+01               0
GRID*             102808               02.6100000000E+03-1.666666667E+01+
*       -1.666666667E+01               0
GRID*             102809               02.6100000000E+03-1.666666667E+01+
*       1.6666666667E+01               0
GRID*             102810               02.6200000000E+031.6666666667E+01+
*       1.6666666667E+01               0
GRID*             102811               02.6200000000E+031.6666666667E+01+
*       -1.666666667E+01               0
GRID*             102812               02.6200000000E+03-1.666666667E+01+
*       -1.666666667E+01               0
GRID*             102813               02.6200000000E+03-1.666666667E+01+
*       1.6666666667E+01               0
GRID*             102814               02.6300000000E+031.6666666667E+01+
*       1.6666666667E+01               0
GRID*             102815               02.6300000000E+031.6666666667E+01+
*       -1.666666667E+01               0
GRID*             102816               02.6300000000E+03-1.666666667E+01+
*       -1.666666667E+01               0
GRID*             102817               02.6300000000E+03-1.666666667E+01+
*       1.6666666667E+01               0
GRID*             102818               02.6400000000E+031.6666666667E+01+
*       1.6666666667E+01               0
GRID*             102819               02.6400000000E+031.6666666667E+01+
*       -1.666666667E+01               0
GRID*             102820               02.6400000000E+03-1.666666667E+01+
*       -1.666666667E+01               0
GRID*             102821               02.6400000000E+03-1.666666667E+01+
*       1.6666666667E+01               0
GRID*             102822               02.6500000000E+031.6666666667E+01+
*       1.6666666667E+01               0
GRID*             102823               02.6500000000E+031.6666666667E+01+
*       -1.666666667E+01               0
GRID*             102824               02.6500000000E+03-1.666666667E+01+
*       -1.666666667E+01               0
GRID*             102825               02.6500000000E+03-1.666666667E+01+
*       1.6666666667E+01               0
GRID*             102826               02.6600000000E+031.6666666667E+01+
*       1.6666666667E+01               0
GRID*             102827               02.6600000000E+031.6666666667E+01+
*       -1.666666667E+01               0
GRID*             102828               02.6600000000E+03-1.666666667E+01+
*       -1.666666667E+01               0
GRID*             102829               02.6600000000E+03-1.666666667E+01+
*       1.6666666667E+01               0
GRID*             102830               02.6700000000E+031.6666666667E+01+
*       1.6666666667E+01               0
GRID*             102831               02.6700000000E+031.6666666667E+01+
*       -1.666666667E+01               0
GRID*             102832               02.6700000000E+03-1.666666667E+01+
*       -1.666666667E+01               0
GRID*             102833               02.6700000000E+03-1.666666667E+01+
*       1.6666666667E+01               0
GRID*             102834               02.6800000000E+031.6666666667E+01+
*       1.6666666667E+01               0
GRID*             102835               02.6800000000E+031.6666666667E+01+
*       -1.666666667E+01               0
GRID*             102836               02.6800000000E+03-1.666666667E+01+
*       -1.666666667E+01               0
GRID*             102837               02.6800000000E+03-1.666666667E+01+
*       1.6666666667E+01               0
GRID*             102838               02.6900000000E+031.6666666667E+01+
*       1.6666666667E+01               0
GRID*             102839               02.6900000000E+031.6666666667E+01+
*       -1.666666667E+01               0
GRID*             102840               02.6900000000E+03-1.666666667E+01+
*       -1.666666667E+01               0
GRID*             102841               02.6900000000E+03-1.666666667E+01+
*       1.6666666667E+01               0
GRID*             102842               02.7000000000E+031.6666666667E+01+
*       1.6666666667E+01               0
GRID*             102843               02.7000000000E+031.6666666667E+01+
*       -1.666666667E+01               0
GRID*             102844               02.7000000000E+03-1.666666667E+01+
*       -1.666666667E+01               0
GRID*             102845               02.7000000000E+03-1.666666667E+01+
*       1.6666666667E+01               0
GRID*             102846               02.7100000000E+031.6666666667E+01+
*       1.6666666667E+01               0
GRID*             102847               02.7100000000E+031.6666666667E+01+
*       -1.666666667E+01               0
GRID*             102848               02.7100000000E+03-1.666666667E+01+
*       -1.666666667E+01               0
GRID*             102849               02.7100000000E+03-1.666666667E+01+
*       1.6666666667E+01               0
GRID*             102850               02.7200000000E+031.6666666667E+01+
*       1.6666666667E+01               0
GRID*             102851               02.7200000000E+031.6666666667E+01+
*       -1.666666667E+01               0
GRID*             102852               02.7200000000E+03-1.666666667E+01+
*       -1.666666667E+01               0
GRID*             102853               02.7200000000E+03-1.666666667E+01+
*       1.6666666667E+01               0
GRID*             102854               02.7300000000E+031.6666666667E+01+
*       1.6666666667E+01               0
GRID*             102855               02.7300000000E+031.6666666667E+01+
*       -1.666666667E+01               0
GRID*             102856               02.7300000000E+03-1.666666667E+01+
*       -1.666666667E+01               0
GRID*             102857               02.7300000000E+03-1.666666667E+01+
*       1.6666666667E+01               0
GRID*             102858               02.7400000000E+031.6666666667E+01+
*       1.6666666667E+01               0
GRID*             102859               02.7400000000E+031.6666666667E+01+
*       -1.666666667E+01               0
GRID*             102860               02.7400000000E+03-1.666666667E+01+
*       -1.666666667E+01               0
GRID*             102861               02.7400000000E+03-1.666666667E+01+
*       1.6666666667E+01               0
GRID*             102862               02.7500000000E+031.6666666667E+01+
*       1.6666666667E+01               0
GRID*             102863               02.7500000000E+031.6666666667E+01+
*       -1.666666667E+01               0
GRID*             102864               02.7500000000E+03-1.666666667E+01+
*       -1.666666667E+01               0
GRID*             102865               02.7500000000E+03-1.666666667E+01+
*       1.6666666667E+01               0
GRID*             102866               02.7600000000E+031.6666666667E+01+
*       1.6666666667E+01               0
GRID*             102867               02.7600000000E+031.6666666667E+01+
*       -1.666666667E+01               0
GRID*             102868               02.7600000000E+03-1.666666667E+01+
*       -1.666666667E+01               0
GRID*             102869               02.7600000000E+03-1.666666667E+01+
*       1.6666666667E+01               0
GRID*             102870               02.7700000000E+031.6666666667E+01+
*       1.6666666667E+01               0
GRID*             102871               02.7700000000E+031.6666666667E+01+
*       -1.666666667E+01               0
GRID*             102872               02.7700000000E+03-1.666666667E+01+
*       -1.666666667E+01               0
GRID*             102873               02.7700000000E+03-1.666666667E+01+
*       1.6666666667E+01               0
GRID*             102874               02.7800000000E+031.6666666667E+01+
*       1.6666666667E+01               0
GRID*             102875               02.7800000000E+031.6666666667E+01+
*       -1.666666667E+01               0
GRID*             102876               02.7800000000E+03-1.666666667E+01+
*       -1.666666667E+01               0
GRID*             102877               02.7800000000E+03-1.666666667E+01+
*       1.6666666667E+01               0
GRID*             102878               02.7900000000E+031.6666666667E+01+
*       1.6666666667E+01               0
GRID*             102879               02.7900000000E+031.6666666667E+01+
*       -1.666666667E+01               0
GRID*             102880               02.7900000000E+03-1.666666667E+01+
*       -1.666666667E+01               0
GRID*             102881               02.7900000000E+03-1.666666667E+01+
*       1.6666666667E+01               0
GRID*             102882               02.8000000000E+031.6666666667E+01+
*       1.6666666667E+01               0
GRID*             102883               02.8000000000E+031.6666666667E+01+
*       -1.666666667E+01               0
GRID*             102884               02.8000000000E+03-1.666666667E+01+
*       -1.666666667E+01               0
GRID*             102885               02.8000000000E+03-1.666666667E+01+
*       1.6666666667E+01               0
GRID*             102886               02.8100000000E+031.6666666667E+01+
*       1.6666666667E+01               0
GRID*             102887               02.8100000000E+031.6666666667E+01+
*       -1.666666667E+01               0
GRID*             102888               02.8100000000E+03-1.666666667E+01+
*       -1.666666667E+01               0
GRID*             102889               02.8100000000E+03-1.666666667E+01+
*       1.6666666667E+01               0
GRID*             102890               02.8200000000E+031.6666666667E+01+
*       1.6666666667E+01               0
GRID*             102891               02.8200000000E+031.6666666667E+01+
*       -1.666666667E+01               0
GRID*             102892               02.8200000000E+03-1.666666667E+01+
*       -1.666666667E+01               0
GRID*             102893               02.8200000000E+03-1.666666667E+01+
*       1.6666666667E+01               0
GRID*             102894               02.8300000000E+031.6666666667E+01+
*       1.6666666667E+01               0
GRID*             102895               02.8300000000E+031.6666666667E+01+
*       -1.666666667E+01               0
GRID*             102896               02.8300000000E+03-1.666666667E+01+
*       -1.666666667E+01               0
GRID*             102897               02.8300000000E+03-1.666666667E+01+
*       1.6666666667E+01               0
GRID*             102898               02.8400000000E+031.6666666667E+01+
*       1.6666666667E+01               0
GRID*             102899               02.8400000000E+031.6666666667E+01+
*       -1.666666667E+01               0
GRID*             102900               02.8400000000E+03-1.666666667E+01+
*       -1.666666667E+01               0
GRID*             102901               02.8400000000E+03-1.666666667E+01+
*       1.6666666667E+01               0
GRID*             102902               02.8500000000E+031.6666666667E+01+
*       1.6666666667E+01               0
GRID*             102903               02.8500000000E+031.6666666667E+01+
*       -1.666666667E+01               0
GRID*             102904               02.8500000000E+03-1.666666667E+01+
*       -1.666666667E+01               0
GRID*             102905               02.8500000000E+03-1.666666667E+01+
*       1.6666666667E+01               0
GRID*             102906               02.8600000000E+031.6666666667E+01+
*       1.6666666667E+01               0
GRID*             102907               02.8600000000E+031.6666666667E+01+
*       -1.666666667E+01               0
GRID*             102908               02.8600000000E+03-1.666666667E+01+
*       -1.666666667E+01               0
GRID*             102909               02.8600000000E+03-1.666666667E+01+
*       1.6666666667E+01               0
GRID*             102910               02.8700000000E+031.6666666667E+01+
*       1.6666666667E+01               0
GRID*             102911               02.8700000000E+031.6666666667E+01+
*       -1.666666667E+01               0
GRID*             102912               02.8700000000E+03-1.666666667E+01+
*       -1.666666667E+01               0
GRID*             102913               02.8700000000E+03-1.666666667E+01+
*       1.6666666667E+01               0
GRID*             102914               02.8800000000E+031.6666666667E+01+
*       1.6666666667E+01               0
GRID*             102915               02.8800000000E+031.6666666667E+01+
*       -1.666666667E+01               0
GRID*             102916               02.8800000000E+03-1.666666667E+01+
*       -1.666666667E+01               0
GRID*             102917               02.8800000000E+03-1.666666667E+01+
*       1.6666666667E+01               0
GRID*             102918               02.8900000000E+031.6666666667E+01+
*       1.6666666667E+01               0
GRID*             102919               02.8900000000E+031.6666666667E+01+
*       -1.666666667E+01               0
GRID*             102920               02.8900000000E+03-1.666666667E+01+
*       -1.666666667E+01               0
GRID*             102921               02.8900000000E+03-1.666666667E+01+
*       1.6666666667E+01               0
GRID*             102922               02.9000000000E+031.6666666667E+01+
*       1.6666666667E+01               0
GRID*             102923               02.9000000000E+031.6666666667E+01+
*       -1.666666667E+01               0
GRID*             102924               02.9000000000E+03-1.666666667E+01+
*       -1.666666667E+01               0
GRID*             102925               02.9000000000E+03-1.666666667E+01+
*       1.6666666667E+01               0
GRID*             102926               02.9100000000E+031.6666666667E+01+
*       1.6666666667E+01               0
GRID*             102927               02.9100000000E+031.6666666667E+01+
*       -1.666666667E+01               0
GRID*             102928               02.9100000000E+03-1.666666667E+01+
*       -1.666666667E+01               0
GRID*             102929               02.9100000000E+03-1.666666667E+01+
*       1.6666666667E+01               0
GRID*             102930               02.9200000000E+031.6666666667E+01+
*       1.6666666667E+01               0
GRID*             102931               02.9200000000E+031.6666666667E+01+
*       -1.666666667E+01               0
GRID*             102932               02.9200000000E+03-1.666666667E+01+
*       -1.666666667E+01               0
GRID*             102933               02.9200000000E+03-1.666666667E+01+
*       1.6666666667E+01               0
GRID*             102934               02.9300000000E+031.6666666667E+01+
*       1.6666666667E+01               0
GRID*             102935               02.9300000000E+031.6666666667E+01+
*       -1.666666667E+01               0
GRID*             102936               02.9300000000E+03-1.666666667E+01+
*       -1.666666667E+01               0
GRID*             102937               02.9300000000E+03-1.666666667E+01+
*       1.6666666667E+01               0
GRID*             102938               02.9400000000E+031.6666666667E+01+
*       1.6666666667E+01               0
GRID*             102939               02.9400000000E+031.6666666667E+01+
*       -1.666666667E+01               0
GRID*             102940               02.9400000000E+03-1.666666667E+01+
*       -1.666666667E+01               0
GRID*             102941               02.9400000000E+03-1.666666667E+01+
*       1.6666666667E+01               0
GRID*             102942               02.9500000000E+031.6666666667E+01+
*       1.6666666667E+01               0
GRID*             102943               02.9500000000E+031.6666666667E+01+
*       -1.666666667E+01               0
GRID*             102944               02.9500000000E+03-1.666666667E+01+
*       -1.666666667E+01               0
GRID*             102945               02.9500000000E+03-1.666666667E+01+
*       1.6666666667E+01               0
GRID*             102946               02.9600000000E+031.6666666667E+01+
*       1.6666666667E+01               0
GRID*             102947               02.9600000000E+031.6666666667E+01+
*       -1.666666667E+01               0
GRID*             102948               02.9600000000E+03-1.666666667E+01+
*       -1.666666667E+01               0
GRID*             102949               02.9600000000E+03-1.666666667E+01+
*       1.6666666667E+01               0
GRID*             102950               02.9700000000E+031.6666666667E+01+
*       1.6666666667E+01               0
GRID*             102951               02.9700000000E+031.6666666667E+01+
*       -1.666666667E+01               0
GRID*             102952               02.9700000000E+03-1.666666667E+01+
*       -1.666666667E+01               0
GRID*             102953               02.9700000000E+03-1.666666667E+01+
*       1.6666666667E+01               0
GRID*             102954               02.9800000000E+031.6666666667E+01+
*       1.6666666667E+01               0
GRID*             102955               02.9800000000E+031.6666666667E+01+
*       -1.666666667E+01               0
GRID*             102956               02.9800000000E+03-1.666666667E+01+
*       -1.666666667E+01               0
GRID*             102957               02.9800000000E+03-1.666666667E+01+
*       1.6666666667E+01               0
GRID*             102958               02.9900000000E+031.6666666667E+01+
*       1.6666666667E+01               0
GRID*             102959               02.9900000000E+031.6666666667E+01+
*       -1.666666667E+01               0
GRID*             102960               02.9900000000E+03-1.666666667E+01+
*       -1.666666667E+01               0
GRID*             102961               02.9900000000E+03-1.666666667E+01+
*       1.6666666667E+01               0
GRID*             102962               03.0000000000E+031.6666666667E+01+
*       1.6666666667E+01               0
GRID*             102963               03.0000000000E+031.6666666667E+01+
*       -1.666666667E+01               0
GRID*             102964               03.0000000000E+03-1.666666667E+01+
*       -1.666666667E+01               0
GRID*             102965               03.0000000000E+03-1.666666667E+01+
*       1.6666666667E+01               0
GRID*             102966               03.0100000000E+031.6666666667E+01+
*       1.6666666667E+01               0
GRID*             102967               03.0100000000E+031.6666666667E+01+
*       -1.666666667E+01               0
GRID*             102968               03.0100000000E+03-1.666666667E+01+
*       -1.666666667E+01               0
GRID*             102969               03.0100000000E+03-1.666666667E+01+
*       1.6666666667E+01               0
GRID*             102970               03.0200000000E+031.6666666667E+01+
*       1.6666666667E+01               0
GRID*             102971               03.0200000000E+031.6666666667E+01+
*       -1.666666667E+01               0
GRID*             102972               03.0200000000E+03-1.666666667E+01+
*       -1.666666667E+01               0
GRID*             102973               03.0200000000E+03-1.666666667E+01+
*       1.6666666667E+01               0
GRID*             102974               03.0300000000E+031.6666666667E+01+
*       1.6666666667E+01               0
GRID*             102975               03.0300000000E+031.6666666667E+01+
*       -1.666666667E+01               0
GRID*             102976               03.0300000000E+03-1.666666667E+01+
*       -1.666666667E+01               0
GRID*             102977               03.0300000000E+03-1.666666667E+01+
*       1.6666666667E+01               0
GRID*             102978               03.0400000000E+031.6666666667E+01+
*       1.6666666667E+01               0
GRID*             102979               03.0400000000E+031.6666666667E+01+
*       -1.666666667E+01               0
GRID*             102980               03.0400000000E+03-1.666666667E+01+
*       -1.666666667E+01               0
GRID*             102981               03.0400000000E+03-1.666666667E+01+
*       1.6666666667E+01               0
GRID*             102982               03.0500000000E+031.6666666667E+01+
*       1.6666666667E+01               0
GRID*             102983               03.0500000000E+031.6666666667E+01+
*       -1.666666667E+01               0
GRID*             102984               03.0500000000E+03-1.666666667E+01+
*       -1.666666667E+01               0
GRID*             102985               03.0500000000E+03-1.666666667E+01+
*       1.6666666667E+01               0
GRID*             102986               03.0600000000E+031.6666666667E+01+
*       1.6666666667E+01               0
GRID*             102987               03.0600000000E+031.6666666667E+01+
*       -1.666666667E+01               0
GRID*             102988               03.0600000000E+03-1.666666667E+01+
*       -1.666666667E+01               0
GRID*             102989               03.0600000000E+03-1.666666667E+01+
*       1.6666666667E+01               0
GRID*             102990               03.0700000000E+031.6666666667E+01+
*       1.6666666667E+01               0
GRID*             102991               03.0700000000E+031.6666666667E+01+
*       -1.666666667E+01               0
GRID*             102992               03.0700000000E+03-1.666666667E+01+
*       -1.666666667E+01               0
GRID*             102993               03.0700000000E+03-1.666666667E+01+
*       1.6666666667E+01               0
GRID*             102994               03.0800000000E+031.6666666667E+01+
*       1.6666666667E+01               0
GRID*             102995               03.0800000000E+031.6666666667E+01+
*       -1.666666667E+01               0
GRID*             102996               03.0800000000E+03-1.666666667E+01+
*       -1.666666667E+01               0
GRID*             102997               03.0800000000E+03-1.666666667E+01+
*       1.6666666667E+01               0
GRID*             102998               03.0900000000E+031.6666666667E+01+
*       1.6666666667E+01               0
GRID*             102999               03.0900000000E+031.6666666667E+01+
*       -1.666666667E+01               0
GRID*             103000               03.0900000000E+03-1.666666667E+01+
*       -1.666666667E+01               0
GRID*             103001               03.0900000000E+03-1.666666667E+01+
*       1.6666666667E+01               0
GRID*             103002               03.1000000000E+031.6666666667E+01+
*       1.6666666667E+01               0
GRID*             103003               03.1000000000E+031.6666666667E+01+
*       -1.666666667E+01               0
GRID*             103004               03.1000000000E+03-1.666666667E+01+
*       -1.666666667E+01               0
GRID*             103005               03.1000000000E+03-1.666666667E+01+
*       1.6666666667E+01               0
GRID*             103006               03.1100000000E+031.6666666667E+01+
*       1.6666666667E+01               0
GRID*             103007               03.1100000000E+031.6666666667E+01+
*       -1.666666667E+01               0
GRID*             103008               03.1100000000E+03-1.666666667E+01+
*       -1.666666667E+01               0
GRID*             103009               03.1100000000E+03-1.666666667E+01+
*       1.6666666667E+01               0
GRID*             103010               03.1200000000E+031.6666666667E+01+
*       1.6666666667E+01               0
GRID*             103011               03.1200000000E+031.6666666667E+01+
*       -1.666666667E+01               0
GRID*             103012               03.1200000000E+03-1.666666667E+01+
*       -1.666666667E+01               0
GRID*             103013               03.1200000000E+03-1.666666667E+01+
*       1.6666666667E+01               0
GRID*             103014               03.1300000000E+031.6666666667E+01+
*       1.6666666667E+01               0
GRID*             103015               03.1300000000E+031.6666666667E+01+
*       -1.666666667E+01               0
GRID*             103016               03.1300000000E+03-1.666666667E+01+
*       -1.666666667E+01               0
GRID*             103017               03.1300000000E+03-1.666666667E+01+
*       1.6666666667E+01               0
GRID*             103018               03.1400000000E+031.6666666667E+01+
*       1.6666666667E+01               0
GRID*             103019               03.1400000000E+031.6666666667E+01+
*       -1.666666667E+01               0
GRID*             103020               03.1400000000E+03-1.666666667E+01+
*       -1.666666667E+01               0
GRID*             103021               03.1400000000E+03-1.666666667E+01+
*       1.6666666667E+01               0
GRID*             103022               03.1500000000E+031.6666666667E+01+
*       1.6666666667E+01               0
GRID*             103023               03.1500000000E+031.6666666667E+01+
*       -1.666666667E+01               0
GRID*             103024               03.1500000000E+03-1.666666667E+01+
*       -1.666666667E+01               0
GRID*             103025               03.1500000000E+03-1.666666667E+01+
*       1.6666666667E+01               0
GRID*             103026               03.1600000000E+031.6666666667E+01+
*       1.6666666667E+01               0
GRID*             103027               03.1600000000E+031.6666666667E+01+
*       -1.666666667E+01               0
GRID*             103028               03.1600000000E+03-1.666666667E+01+
*       -1.666666667E+01               0
GRID*             103029               03.1600000000E+03-1.666666667E+01+
*       1.6666666667E+01               0
GRID*             103030               03.1700000000E+031.6666666667E+01+
*       1.6666666667E+01               0
GRID*             103031               03.1700000000E+031.6666666667E+01+
*       -1.666666667E+01               0
GRID*             103032               03.1700000000E+03-1.666666667E+01+
*       -1.666666667E+01               0
GRID*             103033               03.1700000000E+03-1.666666667E+01+
*       1.6666666667E+01               0
GRID*             103034               03.1800000000E+031.6666666667E+01+
*       1.6666666667E+01               0
GRID*             103035               03.1800000000E+031.6666666667E+01+
*       -1.666666667E+01               0
GRID*             103036               03.1800000000E+03-1.666666667E+01+
*       -1.666666667E+01               0
GRID*             103037               03.1800000000E+03-1.666666667E+01+
*       1.6666666667E+01               0
GRID*             103038               03.1900000000E+031.6666666667E+01+
*       1.6666666667E+01               0
GRID*             103039               03.1900000000E+031.6666666667E+01+
*       -1.666666667E+01               0
GRID*             103040               03.1900000000E+03-1.666666667E+01+
*       -1.666666667E+01               0
GRID*             103041               03.1900000000E+03-1.666666667E+01+
*       1.6666666667E+01               0
GRID*             103042               03.2000000000E+031.6666666667E+01+
*       1.6666666667E+01               0
GRID*             103043               03.2000000000E+031.6666666667E+01+
*       -1.666666667E+01               0
GRID*             103044               03.2000000000E+03-1.666666667E+01+
*       -1.666666667E+01               0
GRID*             103045               03.2000000000E+03-1.666666667E+01+
*       1.6666666667E+01               0
GRID*             103046               03.2100000000E+031.6666666667E+01+
*       1.6666666667E+01               0
GRID*             103047               03.2100000000E+031.6666666667E+01+
*       -1.666666667E+01               0
GRID*             103048               03.2100000000E+03-1.666666667E+01+
*       -1.666666667E+01               0
GRID*             103049               03.2100000000E+03-1.666666667E+01+
*       1.6666666667E+01               0
GRID*             103050               03.2200000000E+031.6666666667E+01+
*       1.6666666667E+01               0
GRID*             103051               03.2200000000E+031.6666666667E+01+
*       -1.666666667E+01               0
GRID*             103052               03.2200000000E+03-1.666666667E+01+
*       -1.666666667E+01               0
GRID*             103053               03.2200000000E+03-1.666666667E+01+
*       1.6666666667E+01               0
GRID*             103054               03.2300000000E+031.6666666667E+01+
*       1.6666666667E+01               0
GRID*             103055               03.2300000000E+031.6666666667E+01+
*       -1.666666667E+01               0
GRID*             103056               03.2300000000E+03-1.666666667E+01+
*       -1.666666667E+01               0
GRID*             103057               03.2300000000E+03-1.666666667E+01+
*       1.6666666667E+01               0
GRID*             103058               03.2400000000E+031.6666666667E+01+
*       1.6666666667E+01               0
GRID*             103059               03.2400000000E+031.6666666667E+01+
*       -1.666666667E+01               0
GRID*             103060               03.2400000000E+03-1.666666667E+01+
*       -1.666666667E+01               0
GRID*             103061               03.2400000000E+03-1.666666667E+01+
*       1.6666666667E+01               0
GRID*             103062               03.2500000000E+031.6666666667E+01+
*       1.6666666667E+01               0
GRID*             103063               03.2500000000E+031.6666666667E+01+
*       -1.666666667E+01               0
GRID*             103064               03.2500000000E+03-1.666666667E+01+
*       -1.666666667E+01               0
GRID*             103065               03.2500000000E+03-1.666666667E+01+
*       1.6666666667E+01               0
GRID*             103066               03.2600000000E+031.6666666667E+01+
*       1.6666666667E+01               0
GRID*             103067               03.2600000000E+031.6666666667E+01+
*       -1.666666667E+01               0
GRID*             103068               03.2600000000E+03-1.666666667E+01+
*       -1.666666667E+01               0
GRID*             103069               03.2600000000E+03-1.666666667E+01+
*       1.6666666667E+01               0
GRID*             103070               03.2700000000E+031.6666666667E+01+
*       1.6666666667E+01               0
GRID*             103071               03.2700000000E+031.6666666667E+01+
*       -1.666666667E+01               0
GRID*             103072               03.2700000000E+03-1.666666667E+01+
*       -1.666666667E+01               0
GRID*             103073               03.2700000000E+03-1.666666667E+01+
*       1.6666666667E+01               0
GRID*             103074               03.2800000000E+031.6666666667E+01+
*       1.6666666667E+01               0
GRID*             103075               03.2800000000E+031.6666666667E+01+
*       -1.666666667E+01               0
GRID*             103076               03.2800000000E+03-1.666666667E+01+
*       -1.666666667E+01               0
GRID*             103077               03.2800000000E+03-1.666666667E+01+
*       1.6666666667E+01               0
GRID*             103078               03.2900000000E+031.6666666667E+01+
*       1.6666666667E+01               0
GRID*             103079               03.2900000000E+031.6666666667E+01+
*       -1.666666667E+01               0
GRID*             103080               03.2900000000E+03-1.666666667E+01+
*       -1.666666667E+01               0
GRID*             103081               03.2900000000E+03-1.666666667E+01+
*       1.6666666667E+01               0
GRID*             103082               03.3000000000E+031.6666666667E+01+
*       1.6666666667E+01               0
GRID*             103083               03.3000000000E+031.6666666667E+01+
*       -1.666666667E+01               0
GRID*             103084               03.3000000000E+03-1.666666667E+01+
*       -1.666666667E+01               0
GRID*             103085               03.3000000000E+03-1.666666667E+01+
*       1.6666666667E+01               0
GRID*             103086               03.3100000000E+031.6666666667E+01+
*       1.6666666667E+01               0
GRID*             103087               03.3100000000E+031.6666666667E+01+
*       -1.666666667E+01               0
GRID*             103088               03.3100000000E+03-1.666666667E+01+
*       -1.666666667E+01               0
GRID*             103089               03.3100000000E+03-1.666666667E+01+
*       1.6666666667E+01               0
GRID*             103090               03.3200000000E+031.6666666667E+01+
*       1.6666666667E+01               0
GRID*             103091               03.3200000000E+031.6666666667E+01+
*       -1.666666667E+01               0
GRID*             103092               03.3200000000E+03-1.666666667E+01+
*       -1.666666667E+01               0
GRID*             103093               03.3200000000E+03-1.666666667E+01+
*       1.6666666667E+01               0
GRID*             103094               03.3300000000E+031.6666666667E+01+
*       1.6666666667E+01               0
GRID*             103095               03.3300000000E+031.6666666667E+01+
*       -1.666666667E+01               0
GRID*             103096               03.3300000000E+03-1.666666667E+01+
*       -1.666666667E+01               0
GRID*             103097               03.3300000000E+03-1.666666667E+01+
*       1.6666666667E+01               0
GRID*             103098               03.3400000000E+031.6666666667E+01+
*       1.6666666667E+01               0
GRID*             103099               03.3400000000E+031.6666666667E+01+
*       -1.666666667E+01               0
GRID*             103100               03.3400000000E+03-1.666666667E+01+
*       -1.666666667E+01               0
GRID*             103101               03.3400000000E+03-1.666666667E+01+
*       1.6666666667E+01               0
GRID*             103102               03.3500000000E+031.6666666667E+01+
*       1.6666666667E+01               0
GRID*             103103               03.3500000000E+031.6666666667E+01+
*       -1.666666667E+01               0
GRID*             103104               03.3500000000E+03-1.666666667E+01+
*       -1.666666667E+01               0
GRID*             103105               03.3500000000E+03-1.666666667E+01+
*       1.6666666667E+01               0
GRID*             103106               03.3600000000E+031.6666666667E+01+
*       1.6666666667E+01               0
GRID*             103107               03.3600000000E+031.6666666667E+01+
*       -1.666666667E+01               0
GRID*             103108               03.3600000000E+03-1.666666667E+01+
*       -1.666666667E+01               0
GRID*             103109               03.3600000000E+03-1.666666667E+01+
*       1.6666666667E+01               0
GRID*             103110               03.3700000000E+031.6666666667E+01+
*       1.6666666667E+01               0
GRID*             103111               03.3700000000E+031.6666666667E+01+
*       -1.666666667E+01               0
GRID*             103112               03.3700000000E+03-1.666666667E+01+
*       -1.666666667E+01               0
GRID*             103113               03.3700000000E+03-1.666666667E+01+
*       1.6666666667E+01               0
GRID*             103114               03.3800000000E+031.6666666667E+01+
*       1.6666666667E+01               0
GRID*             103115               03.3800000000E+031.6666666667E+01+
*       -1.666666667E+01               0
GRID*             103116               03.3800000000E+03-1.666666667E+01+
*       -1.666666667E+01               0
GRID*             103117               03.3800000000E+03-1.666666667E+01+
*       1.6666666667E+01               0
GRID*             103118               03.3900000000E+031.6666666667E+01+
*       1.6666666667E+01               0
GRID*             103119               03.3900000000E+031.6666666667E+01+
*       -1.666666667E+01               0
GRID*             103120               03.3900000000E+03-1.666666667E+01+
*       -1.666666667E+01               0
GRID*             103121               03.3900000000E+03-1.666666667E+01+
*       1.6666666667E+01               0
GRID*             103122               03.4000000000E+031.6666666667E+01+
*       1.6666666667E+01               0
GRID*             103123               03.4000000000E+031.6666666667E+01+
*       -1.666666667E+01               0
GRID*             103124               03.4000000000E+03-1.666666667E+01+
*       -1.666666667E+01               0
GRID*             103125               03.4000000000E+03-1.666666667E+01+
*       1.6666666667E+01               0
GRID*             103126               03.4100000000E+031.6666666667E+01+
*       1.6666666667E+01               0
GRID*             103127               03.4100000000E+031.6666666667E+01+
*       -1.666666667E+01               0
GRID*             103128               03.4100000000E+03-1.666666667E+01+
*       -1.666666667E+01               0
GRID*             103129               03.4100000000E+03-1.666666667E+01+
*       1.6666666667E+01               0
GRID*             103130               03.4200000000E+031.6666666667E+01+
*       1.6666666667E+01               0
GRID*             103131               03.4200000000E+031.6666666667E+01+
*       -1.666666667E+01               0
GRID*             103132               03.4200000000E+03-1.666666667E+01+
*       -1.666666667E+01               0
GRID*             103133               03.4200000000E+03-1.666666667E+01+
*       1.6666666667E+01               0
GRID*             103134               03.4300000000E+031.6666666667E+01+
*       1.6666666667E+01               0
GRID*             103135               03.4300000000E+031.6666666667E+01+
*       -1.666666667E+01               0
GRID*             103136               03.4300000000E+03-1.666666667E+01+
*       -1.666666667E+01               0
GRID*             103137               03.4300000000E+03-1.666666667E+01+
*       1.6666666667E+01               0
GRID*             103138               03.4400000000E+031.6666666667E+01+
*       1.6666666667E+01               0
GRID*             103139               03.4400000000E+031.6666666667E+01+
*       -1.666666667E+01               0
GRID*             103140               03.4400000000E+03-1.666666667E+01+
*       -1.666666667E+01               0
GRID*             103141               03.4400000000E+03-1.666666667E+01+
*       1.6666666667E+01               0
GRID*             103142               03.4500000000E+031.6666666667E+01+
*       1.6666666667E+01               0
GRID*             103143               03.4500000000E+031.6666666667E+01+
*       -1.666666667E+01               0
GRID*             103144               03.4500000000E+03-1.666666667E+01+
*       -1.666666667E+01               0
GRID*             103145               03.4500000000E+03-1.666666667E+01+
*       1.6666666667E+01               0
GRID*             103146               03.4600000000E+031.6666666667E+01+
*       1.6666666667E+01               0
GRID*             103147               03.4600000000E+031.6666666667E+01+
*       -1.666666667E+01               0
GRID*             103148               03.4600000000E+03-1.666666667E+01+
*       -1.666666667E+01               0
GRID*             103149               03.4600000000E+03-1.666666667E+01+
*       1.6666666667E+01               0
GRID*             103150               03.4700000000E+031.6666666667E+01+
*       1.6666666667E+01               0
GRID*             103151               03.4700000000E+031.6666666667E+01+
*       -1.666666667E+01               0
GRID*             103152               03.4700000000E+03-1.666666667E+01+
*       -1.666666667E+01               0
GRID*             103153               03.4700000000E+03-1.666666667E+01+
*       1.6666666667E+01               0
GRID*             103154               03.4800000000E+031.6666666667E+01+
*       1.6666666667E+01               0
GRID*             103155               03.4800000000E+031.6666666667E+01+
*       -1.666666667E+01               0
GRID*             103156               03.4800000000E+03-1.666666667E+01+
*       -1.666666667E+01               0
GRID*             103157               03.4800000000E+03-1.666666667E+01+
*       1.6666666667E+01               0
GRID*             103158               03.4900000000E+031.6666666667E+01+
*       1.6666666667E+01               0
GRID*             103159               03.4900000000E+031.6666666667E+01+
*       -1.666666667E+01               0
GRID*             103160               03.4900000000E+03-1.666666667E+01+
*       -1.666666667E+01               0
GRID*             103161               03.4900000000E+03-1.666666667E+01+
*       1.6666666667E+01               0
GRID*             103162               03.5000000000E+031.6666666667E+01+
*       1.6666666667E+01               0
GRID*             103163               03.5000000000E+031.6666666667E+01+
*       -1.666666667E+01               0
GRID*             103164               03.5000000000E+03-1.666666667E+01+
*       -1.666666667E+01               0
GRID*             103165               03.5000000000E+03-1.666666667E+01+
*       1.6666666667E+01               0
GRID*             103166               03.5100000000E+031.6666666667E+01+
*       1.6666666667E+01               0
GRID*             103167               03.5100000000E+031.6666666667E+01+
*       -1.666666667E+01               0
GRID*             103168               03.5100000000E+03-1.666666667E+01+
*       -1.666666667E+01               0
GRID*             103169               03.5100000000E+03-1.666666667E+01+
*       1.6666666667E+01               0
GRID*             103170               03.5200000000E+031.6666666667E+01+
*       1.6666666667E+01               0
GRID*             103171               03.5200000000E+031.6666666667E+01+
*       -1.666666667E+01               0
GRID*             103172               03.5200000000E+03-1.666666667E+01+
*       -1.666666667E+01               0
GRID*             103173               03.5200000000E+03-1.666666667E+01+
*       1.6666666667E+01               0
GRID*             103174               03.5300000000E+031.6666666667E+01+
*       1.6666666667E+01               0
GRID*             103175               03.5300000000E+031.6666666667E+01+
*       -1.666666667E+01               0
GRID*             103176               03.5300000000E+03-1.666666667E+01+
*       -1.666666667E+01               0
GRID*             103177               03.5300000000E+03-1.666666667E+01+
*       1.6666666667E+01               0
GRID*             103178               03.5400000000E+031.6666666667E+01+
*       1.6666666667E+01               0
GRID*             103179               03.5400000000E+031.6666666667E+01+
*       -1.666666667E+01               0
GRID*             103180               03.5400000000E+03-1.666666667E+01+
*       -1.666666667E+01               0
GRID*             103181               03.5400000000E+03-1.666666667E+01+
*       1.6666666667E+01               0
GRID*             103182               03.5500000000E+031.6666666667E+01+
*       1.6666666667E+01               0
GRID*             103183               03.5500000000E+031.6666666667E+01+
*       -1.666666667E+01               0
GRID*             103184               03.5500000000E+03-1.666666667E+01+
*       -1.666666667E+01               0
GRID*             103185               03.5500000000E+03-1.666666667E+01+
*       1.6666666667E+01               0
GRID*             103186               03.5600000000E+031.6666666667E+01+
*       1.6666666667E+01               0
GRID*             103187               03.5600000000E+031.6666666667E+01+
*       -1.666666667E+01               0
GRID*             103188               03.5600000000E+03-1.666666667E+01+
*       -1.666666667E+01               0
GRID*             103189               03.5600000000E+03-1.666666667E+01+
*       1.6666666667E+01               0
GRID*             103190               03.5700000000E+031.6666666667E+01+
*       1.6666666667E+01               0
GRID*             103191               03.5700000000E+031.6666666667E+01+
*       -1.666666667E+01               0
GRID*             103192               03.5700000000E+03-1.666666667E+01+
*       -1.666666667E+01               0
GRID*             103193               03.5700000000E+03-1.666666667E+01+
*       1.6666666667E+01               0
GRID*             103194               03.5800000000E+031.6666666667E+01+
*       1.6666666667E+01               0
GRID*             103195               03.5800000000E+031.6666666667E+01+
*       -1.666666667E+01               0
GRID*             103196               03.5800000000E+03-1.666666667E+01+
*       -1.666666667E+01               0
GRID*             103197               03.5800000000E+03-1.666666667E+01+
*       1.6666666667E+01               0
GRID*             103198               03.5900000000E+031.6666666667E+01+
*       1.6666666667E+01               0
GRID*             103199               03.5900000000E+031.6666666667E+01+
*       -1.666666667E+01               0
GRID*             103200               03.5900000000E+03-1.666666667E+01+
*       -1.666666667E+01               0
GRID*             103201               03.5900000000E+03-1.666666667E+01+
*       1.6666666667E+01               0
GRID*             103202               03.6000000000E+031.6666666667E+01+
*       1.6666666667E+01               0
GRID*             103203               03.6000000000E+031.6666666667E+01+
*       -1.666666667E+01               0
GRID*             103204               03.6000000000E+03-1.666666667E+01+
*       -1.666666667E+01               0
GRID*             103205               03.6000000000E+03-1.666666667E+01+
*       1.6666666667E+01               0
GRID*             103206               03.6100000000E+031.6666666667E+01+
*       1.6666666667E+01               0
GRID*             103207               03.6100000000E+031.6666666667E+01+
*       -1.666666667E+01               0
GRID*             103208               03.6100000000E+03-1.666666667E+01+
*       -1.666666667E+01               0
GRID*             103209               03.6100000000E+03-1.666666667E+01+
*       1.6666666667E+01               0
GRID*             103210               03.6200000000E+031.6666666667E+01+
*       1.6666666667E+01               0
GRID*             103211               03.6200000000E+031.6666666667E+01+
*       -1.666666667E+01               0
GRID*             103212               03.6200000000E+03-1.666666667E+01+
*       -1.666666667E+01               0
GRID*             103213               03.6200000000E+03-1.666666667E+01+
*       1.6666666667E+01               0
GRID*             103214               03.6300000000E+031.6666666667E+01+
*       1.6666666667E+01               0
GRID*             103215               03.6300000000E+031.6666666667E+01+
*       -1.666666667E+01               0
GRID*             103216               03.6300000000E+03-1.666666667E+01+
*       -1.666666667E+01               0
GRID*             103217               03.6300000000E+03-1.666666667E+01+
*       1.6666666667E+01               0
GRID*             103218               03.6400000000E+031.6666666667E+01+
*       1.6666666667E+01               0
GRID*             103219               03.6400000000E+031.6666666667E+01+
*       -1.666666667E+01               0
GRID*             103220               03.6400000000E+03-1.666666667E+01+
*       -1.666666667E+01               0
GRID*             103221               03.6400000000E+03-1.666666667E+01+
*       1.6666666667E+01               0
GRID*             103222               03.6500000000E+031.6666666667E+01+
*       1.6666666667E+01               0
GRID*             103223               03.6500000000E+031.6666666667E+01+
*       -1.666666667E+01               0
GRID*             103224               03.6500000000E+03-1.666666667E+01+
*       -1.666666667E+01               0
GRID*             103225               03.6500000000E+03-1.666666667E+01+
*       1.6666666667E+01               0
GRID*             103226               03.6600000000E+031.6666666667E+01+
*       1.6666666667E+01               0
GRID*             103227               03.6600000000E+031.6666666667E+01+
*       -1.666666667E+01               0
GRID*             103228               03.6600000000E+03-1.666666667E+01+
*       -1.666666667E+01               0
GRID*             103229               03.6600000000E+03-1.666666667E+01+
*       1.6666666667E+01               0
GRID*             103230               03.6700000000E+031.6666666667E+01+
*       1.6666666667E+01               0
GRID*             103231               03.6700000000E+031.6666666667E+01+
*       -1.666666667E+01               0
GRID*             103232               03.6700000000E+03-1.666666667E+01+
*       -1.666666667E+01               0
GRID*             103233               03.6700000000E+03-1.666666667E+01+
*       1.6666666667E+01               0
GRID*             103234               03.6800000000E+031.6666666667E+01+
*       1.6666666667E+01               0
GRID*             103235               03.6800000000E+031.6666666667E+01+
*       -1.666666667E+01               0
GRID*             103236               03.6800000000E+03-1.666666667E+01+
*       -1.666666667E+01               0
GRID*             103237               03.6800000000E+03-1.666666667E+01+
*       1.6666666667E+01               0
GRID*             103238               03.6900000000E+031.6666666667E+01+
*       1.6666666667E+01               0
GRID*             103239               03.6900000000E+031.6666666667E+01+
*       -1.666666667E+01               0
GRID*             103240               03.6900000000E+03-1.666666667E+01+
*       -1.666666667E+01               0
GRID*             103241               03.6900000000E+03-1.666666667E+01+
*       1.6666666667E+01               0
GRID*             103242               03.7000000000E+031.6666666667E+01+
*       1.6666666667E+01               0
GRID*             103243               03.7000000000E+031.6666666667E+01+
*       -1.666666667E+01               0
GRID*             103244               03.7000000000E+03-1.666666667E+01+
*       -1.666666667E+01               0
GRID*             103245               03.7000000000E+03-1.666666667E+01+
*       1.6666666667E+01               0
GRID*             103246               03.7100000000E+031.6666666667E+01+
*       1.6666666667E+01               0
GRID*             103247               03.7100000000E+031.6666666667E+01+
*       -1.666666667E+01               0
GRID*             103248               03.7100000000E+03-1.666666667E+01+
*       -1.666666667E+01               0
GRID*             103249               03.7100000000E+03-1.666666667E+01+
*       1.6666666667E+01               0
GRID*             103250               03.7200000000E+031.6666666667E+01+
*       1.6666666667E+01               0
GRID*             103251               03.7200000000E+031.6666666667E+01+
*       -1.666666667E+01               0
GRID*             103252               03.7200000000E+03-1.666666667E+01+
*       -1.666666667E+01               0
GRID*             103253               03.7200000000E+03-1.666666667E+01+
*       1.6666666667E+01               0
GRID*             103254               03.7300000000E+031.6666666667E+01+
*       1.6666666667E+01               0
GRID*             103255               03.7300000000E+031.6666666667E+01+
*       -1.666666667E+01               0
GRID*             103256               03.7300000000E+03-1.666666667E+01+
*       -1.666666667E+01               0
GRID*             103257               03.7300000000E+03-1.666666667E+01+
*       1.6666666667E+01               0
GRID*             103258               03.7400000000E+031.6666666667E+01+
*       1.6666666667E+01               0
GRID*             103259               03.7400000000E+031.6666666667E+01+
*       -1.666666667E+01               0
GRID*             103260               03.7400000000E+03-1.666666667E+01+
*       -1.666666667E+01               0
GRID*             103261               03.7400000000E+03-1.666666667E+01+
*       1.6666666667E+01               0
GRID*             103262               03.7500000000E+031.6666666667E+01+
*       1.6666666667E+01               0
GRID*             103263               03.7500000000E+031.6666666667E+01+
*       -1.666666667E+01               0
GRID*             103264               03.7500000000E+03-1.666666667E+01+
*       -1.666666667E+01               0
GRID*             103265               03.7500000000E+03-1.666666667E+01+
*       1.6666666667E+01               0
GRID*             103266               03.7600000000E+031.6666666667E+01+
*       1.6666666667E+01               0
GRID*             103267               03.7600000000E+031.6666666667E+01+
*       -1.666666667E+01               0
GRID*             103268               03.7600000000E+03-1.666666667E+01+
*       -1.666666667E+01               0
GRID*             103269               03.7600000000E+03-1.666666667E+01+
*       1.6666666667E+01               0
GRID*             103270               03.7700000000E+031.6666666667E+01+
*       1.6666666667E+01               0
GRID*             103271               03.7700000000E+031.6666666667E+01+
*       -1.666666667E+01               0
GRID*             103272               03.7700000000E+03-1.666666667E+01+
*       -1.666666667E+01               0
GRID*             103273               03.7700000000E+03-1.666666667E+01+
*       1.6666666667E+01               0
GRID*             103274               03.7800000000E+031.6666666667E+01+
*       1.6666666667E+01               0
GRID*             103275               03.7800000000E+031.6666666667E+01+
*       -1.666666667E+01               0
GRID*             103276               03.7800000000E+03-1.666666667E+01+
*       -1.666666667E+01               0
GRID*             103277               03.7800000000E+03-1.666666667E+01+
*       1.6666666667E+01               0
GRID*             103278               03.7900000000E+031.6666666667E+01+
*       1.6666666667E+01               0
GRID*             103279               03.7900000000E+031.6666666667E+01+
*       -1.666666667E+01               0
GRID*             103280               03.7900000000E+03-1.666666667E+01+
*       -1.666666667E+01               0
GRID*             103281               03.7900000000E+03-1.666666667E+01+
*       1.6666666667E+01               0
GRID*             103282               03.8000000000E+031.6666666667E+01+
*       1.6666666667E+01               0
GRID*             103283               03.8000000000E+031.6666666667E+01+
*       -1.666666667E+01               0
GRID*             103284               03.8000000000E+03-1.666666667E+01+
*       -1.666666667E+01               0
GRID*             103285               03.8000000000E+03-1.666666667E+01+
*       1.6666666667E+01               0
GRID*             103286               03.8100000000E+031.6666666667E+01+
*       1.6666666667E+01               0
GRID*             103287               03.8100000000E+031.6666666667E+01+
*       -1.666666667E+01               0
GRID*             103288               03.8100000000E+03-1.666666667E+01+
*       -1.666666667E+01               0
GRID*             103289               03.8100000000E+03-1.666666667E+01+
*       1.6666666667E+01               0
GRID*             103290               03.8200000000E+031.6666666667E+01+
*       1.6666666667E+01               0
GRID*             103291               03.8200000000E+031.6666666667E+01+
*       -1.666666667E+01               0
GRID*             103292               03.8200000000E+03-1.666666667E+01+
*       -1.666666667E+01               0
GRID*             103293               03.8200000000E+03-1.666666667E+01+
*       1.6666666667E+01               0
GRID*             103294               03.8300000000E+031.6666666667E+01+
*       1.6666666667E+01               0
GRID*             103295               03.8300000000E+031.6666666667E+01+
*       -1.666666667E+01               0
GRID*             103296               03.8300000000E+03-1.666666667E+01+
*       -1.666666667E+01               0
GRID*             103297               03.8300000000E+03-1.666666667E+01+
*       1.6666666667E+01               0
GRID*             103298               03.8400000000E+031.6666666667E+01+
*       1.6666666667E+01               0
GRID*             103299               03.8400000000E+031.6666666667E+01+
*       -1.666666667E+01               0
GRID*             103300               03.8400000000E+03-1.666666667E+01+
*       -1.666666667E+01               0
GRID*             103301               03.8400000000E+03-1.666666667E+01+
*       1.6666666667E+01               0
GRID*             103302               03.8500000000E+031.6666666667E+01+
*       1.6666666667E+01               0
GRID*             103303               03.8500000000E+031.6666666667E+01+
*       -1.666666667E+01               0
GRID*             103304               03.8500000000E+03-1.666666667E+01+
*       -1.666666667E+01               0
GRID*             103305               03.8500000000E+03-1.666666667E+01+
*       1.6666666667E+01               0
GRID*             103306               03.8600000000E+031.6666666667E+01+
*       1.6666666667E+01               0
GRID*             103307               03.8600000000E+031.6666666667E+01+
*       -1.666666667E+01               0
GRID*             103308               03.8600000000E+03-1.666666667E+01+
*       -1.666666667E+01               0
GRID*             103309               03.8600000000E+03-1.666666667E+01+
*       1.6666666667E+01               0
GRID*             103310               03.8700000000E+031.6666666667E+01+
*       1.6666666667E+01               0
GRID*             103311               03.8700000000E+031.6666666667E+01+
*       -1.666666667E+01               0
GRID*             103312               03.8700000000E+03-1.666666667E+01+
*       -1.666666667E+01               0
GRID*             103313               03.8700000000E+03-1.666666667E+01+
*       1.6666666667E+01               0
GRID*             103314               03.8800000000E+031.6666666667E+01+
*       1.6666666667E+01               0
GRID*             103315               03.8800000000E+031.6666666667E+01+
*       -1.666666667E+01               0
GRID*             103316               03.8800000000E+03-1.666666667E+01+
*       -1.666666667E+01               0
GRID*             103317               03.8800000000E+03-1.666666667E+01+
*       1.6666666667E+01               0
GRID*             103318               03.8900000000E+031.6666666667E+01+
*       1.6666666667E+01               0
GRID*             103319               03.8900000000E+031.6666666667E+01+
*       -1.666666667E+01               0
GRID*             103320               03.8900000000E+03-1.666666667E+01+
*       -1.666666667E+01               0
GRID*             103321               03.8900000000E+03-1.666666667E+01+
*       1.6666666667E+01               0
GRID*             103322               03.9000000000E+031.6666666667E+01+
*       1.6666666667E+01               0
GRID*             103323               03.9000000000E+031.6666666667E+01+
*       -1.666666667E+01               0
GRID*             103324               03.9000000000E+03-1.666666667E+01+
*       -1.666666667E+01               0
GRID*             103325               03.9000000000E+03-1.666666667E+01+
*       1.6666666667E+01               0
GRID*             103326               03.9100000000E+031.6666666667E+01+
*       1.6666666667E+01               0
GRID*             103327               03.9100000000E+031.6666666667E+01+
*       -1.666666667E+01               0
GRID*             103328               03.9100000000E+03-1.666666667E+01+
*       -1.666666667E+01               0
GRID*             103329               03.9100000000E+03-1.666666667E+01+
*       1.6666666667E+01               0
GRID*             103330               03.9200000000E+031.6666666667E+01+
*       1.6666666667E+01               0
GRID*             103331               03.9200000000E+031.6666666667E+01+
*       -1.666666667E+01               0
GRID*             103332               03.9200000000E+03-1.666666667E+01+
*       -1.666666667E+01               0
GRID*             103333               03.9200000000E+03-1.666666667E+01+
*       1.6666666667E+01               0
GRID*             103334               03.9300000000E+031.6666666667E+01+
*       1.6666666667E+01               0
GRID*             103335               03.9300000000E+031.6666666667E+01+
*       -1.666666667E+01               0
GRID*             103336               03.9300000000E+03-1.666666667E+01+
*       -1.666666667E+01               0
GRID*             103337               03.9300000000E+03-1.666666667E+01+
*       1.6666666667E+01               0
GRID*             103338               03.9400000000E+031.6666666667E+01+
*       1.6666666667E+01               0
GRID*             103339               03.9400000000E+031.6666666667E+01+
*       -1.666666667E+01               0
GRID*             103340               03.9400000000E+03-1.666666667E+01+
*       -1.666666667E+01               0
GRID*             103341               03.9400000000E+03-1.666666667E+01+
*       1.6666666667E+01               0
GRID*             103342               03.9500000000E+031.6666666667E+01+
*       1.6666666667E+01               0
GRID*             103343               03.9500000000E+031.6666666667E+01+
*       -1.666666667E+01               0
GRID*             103344               03.9500000000E+03-1.666666667E+01+
*       -1.666666667E+01               0
GRID*             103345               03.9500000000E+03-1.666666667E+01+
*       1.6666666667E+01               0
GRID*             103346               03.9600000000E+031.6666666667E+01+
*       1.6666666667E+01               0
GRID*             103347               03.9600000000E+031.6666666667E+01+
*       -1.666666667E+01               0
GRID*             103348               03.9600000000E+03-1.666666667E+01+
*       -1.666666667E+01               0
GRID*             103349               03.9600000000E+03-1.666666667E+01+
*       1.6666666667E+01               0
GRID*             103350               03.9700000000E+031.6666666667E+01+
*       1.6666666667E+01               0
GRID*             103351               03.9700000000E+031.6666666667E+01+
*       -1.666666667E+01               0
GRID*             103352               03.9700000000E+03-1.666666667E+01+
*       -1.666666667E+01               0
GRID*             103353               03.9700000000E+03-1.666666667E+01+
*       1.6666666667E+01               0
GRID*             103354               03.9800000000E+031.6666666667E+01+
*       1.6666666667E+01               0
GRID*             103355               03.9800000000E+031.6666666667E+01+
*       -1.666666667E+01               0
GRID*             103356               03.9800000000E+03-1.666666667E+01+
*       -1.666666667E+01               0
GRID*             103357               03.9800000000E+03-1.666666667E+01+
*       1.6666666667E+01               0
GRID*             103358               03.9900000000E+031.6666666667E+01+
*       1.6666666667E+01               0
GRID*             103359               03.9900000000E+031.6666666667E+01+
*       -1.666666667E+01               0
GRID*             103360               03.9900000000E+03-1.666666667E+01+
*       -1.666666667E+01               0
GRID*             103361               03.9900000000E+03-1.666666667E+01+
*       1.6666666667E+01               0
GRID*             103362               07.0000000000E+03-5.000000000E+01+
*       5.0000000000E+01               0
GRID*             103363               07.0000000000E+03-5.000000000E+01+
*       -5.000000000E+01               0
GRID*             103364               07.0000000000E+035.0000000000E+01+
*       -5.000000000E+01               0
GRID*             103365               07.0000000000E+035.0000000000E+01+
*       5.0000000000E+01               0
GRID*             103366               07.0000000000E+03-5.000000000E+01+
*       1.6666666667E+01               0
GRID*             103367               07.0000000000E+03-5.000000000E+01+
*       -1.666666667E+01               0
GRID*             103368               07.0000000000E+031.6666666667E+01+
*       -5.000000000E+01               0
GRID*             103369               07.0000000000E+03-1.666666667E+01+
*       -5.000000000E+01               0
GRID*             103370               07.0000000000E+031.6666666667E+01+
*       5.0000000000E+01               0
GRID*             103371               07.0000000000E+03-1.666666667E+01+
*       5.0000000000E+01               0
GRID*             103372               07.0000000000E+035.0000000000E+01+
*       1.6666666667E+01               0
GRID*             103373               07.0000000000E+035.0000000000E+01+
*       -1.666666667E+01               0
GRID*             103374               06.9900000000E+03-5.000000000E+01+
*       5.0000000000E+01               0
GRID*             103375               06.9800000000E+03-5.000000000E+01+
*       5.0000000000E+01               0
GRID*             103376               06.9700000000E+03-5.000000000E+01+
*       5.0000000000E+01               0
GRID*             103377               06.9600000000E+03-5.000000000E+01+
*       5.0000000000E+01               0
GRID*             103378               06.9500000000E+03-5.000000000E+01+
*       5.0000000000E+01               0
GRID*             103379               06.9400000000E+03-5.000000000E+01+
*       5.0000000000E+01               0
GRID*             103380               06.9300000000E+03-5.000000000E+01+
*       5.0000000000E+01               0
GRID*             103381               06.9200000000E+03-5.000000000E+01+
*       5.0000000000E+01               0
GRID*             103382               06.9100000000E+03-5.000000000E+01+
*       5.0000000000E+01               0
GRID*             103383               06.9000000000E+03-5.000000000E+01+
*       5.0000000000E+01               0
GRID*             103384               06.8900000000E+03-5.000000000E+01+
*       5.0000000000E+01               0
GRID*             103385               06.8800000000E+03-5.000000000E+01+
*       5.0000000000E+01               0
GRID*             103386               06.8700000000E+03-5.000000000E+01+
*       5.0000000000E+01               0
GRID*             103387               06.8600000000E+03-5.000000000E+01+
*       5.0000000000E+01               0
GRID*             103388               06.8500000000E+03-5.000000000E+01+
*       5.0000000000E+01               0
GRID*             103389               06.8400000000E+03-5.000000000E+01+
*       5.0000000000E+01               0
GRID*             103390               06.8300000000E+03-5.000000000E+01+
*       5.0000000000E+01               0
GRID*             103391               06.8200000000E+03-5.000000000E+01+
*       5.0000000000E+01               0
GRID*             103392               06.8100000000E+03-5.000000000E+01+
*       5.0000000000E+01               0
GRID*             103393               06.8000000000E+03-5.000000000E+01+
*       5.0000000000E+01               0
GRID*             103394               06.7900000000E+03-5.000000000E+01+
*       5.0000000000E+01               0
GRID*             103395               06.7800000000E+03-5.000000000E+01+
*       5.0000000000E+01               0
GRID*             103396               06.7700000000E+03-5.000000000E+01+
*       5.0000000000E+01               0
GRID*             103397               06.7600000000E+03-5.000000000E+01+
*       5.0000000000E+01               0
GRID*             103398               06.7500000000E+03-5.000000000E+01+
*       5.0000000000E+01               0
GRID*             103399               06.7400000000E+03-5.000000000E+01+
*       5.0000000000E+01               0
GRID*             103400               06.7300000000E+03-5.000000000E+01+
*       5.0000000000E+01               0
GRID*             103401               06.7200000000E+03-5.000000000E+01+
*       5.0000000000E+01               0
GRID*             103402               06.7100000000E+03-5.000000000E+01+
*       5.0000000000E+01               0
GRID*             103403               06.7000000000E+03-5.000000000E+01+
*       5.0000000000E+01               0
GRID*             103404               06.6900000000E+03-5.000000000E+01+
*       5.0000000000E+01               0
GRID*             103405               06.6800000000E+03-5.000000000E+01+
*       5.0000000000E+01               0
GRID*             103406               06.6700000000E+03-5.000000000E+01+
*       5.0000000000E+01               0
GRID*             103407               06.6600000000E+03-5.000000000E+01+
*       5.0000000000E+01               0
GRID*             103408               06.6500000000E+03-5.000000000E+01+
*       5.0000000000E+01               0
GRID*             103409               06.6400000000E+03-5.000000000E+01+
*       5.0000000000E+01               0
GRID*             103410               06.6300000000E+03-5.000000000E+01+
*       5.0000000000E+01               0
GRID*             103411               06.6200000000E+03-5.000000000E+01+
*       5.0000000000E+01               0
GRID*             103412               06.6100000000E+03-5.000000000E+01+
*       5.0000000000E+01               0
GRID*             103413               06.6000000000E+03-5.000000000E+01+
*       5.0000000000E+01               0
GRID*             103414               06.5900000000E+03-5.000000000E+01+
*       5.0000000000E+01               0
GRID*             103415               06.5800000000E+03-5.000000000E+01+
*       5.0000000000E+01               0
GRID*             103416               06.5700000000E+03-5.000000000E+01+
*       5.0000000000E+01               0
GRID*             103417               06.5600000000E+03-5.000000000E+01+
*       5.0000000000E+01               0
GRID*             103418               06.5500000000E+03-5.000000000E+01+
*       5.0000000000E+01               0
GRID*             103419               06.5400000000E+03-5.000000000E+01+
*       5.0000000000E+01               0
GRID*             103420               06.5300000000E+03-5.000000000E+01+
*       5.0000000000E+01               0
GRID*             103421               06.5200000000E+03-5.000000000E+01+
*       5.0000000000E+01               0
GRID*             103422               06.5100000000E+03-5.000000000E+01+
*       5.0000000000E+01               0
GRID*             103423               06.5000000000E+03-5.000000000E+01+
*       5.0000000000E+01               0
GRID*             103424               06.4900000000E+03-5.000000000E+01+
*       5.0000000000E+01               0
GRID*             103425               06.4800000000E+03-5.000000000E+01+
*       5.0000000000E+01               0
GRID*             103426               06.4700000000E+03-5.000000000E+01+
*       5.0000000000E+01               0
GRID*             103427               06.4600000000E+03-5.000000000E+01+
*       5.0000000000E+01               0
GRID*             103428               06.4500000000E+03-5.000000000E+01+
*       5.0000000000E+01               0
GRID*             103429               06.4400000000E+03-5.000000000E+01+
*       5.0000000000E+01               0
GRID*             103430               06.4300000000E+03-5.000000000E+01+
*       5.0000000000E+01               0
GRID*             103431               06.4200000000E+03-5.000000000E+01+
*       5.0000000000E+01               0
GRID*             103432               06.4100000000E+03-5.000000000E+01+
*       5.0000000000E+01               0
GRID*             103433               06.4000000000E+03-5.000000000E+01+
*       5.0000000000E+01               0
GRID*             103434               06.3900000000E+03-5.000000000E+01+
*       5.0000000000E+01               0
GRID*             103435               06.3800000000E+03-5.000000000E+01+
*       5.0000000000E+01               0
GRID*             103436               06.3700000000E+03-5.000000000E+01+
*       5.0000000000E+01               0
GRID*             103437               06.3600000000E+03-5.000000000E+01+
*       5.0000000000E+01               0
GRID*             103438               06.3500000000E+03-5.000000000E+01+
*       5.0000000000E+01               0
GRID*             103439               06.3400000000E+03-5.000000000E+01+
*       5.0000000000E+01               0
GRID*             103440               06.3300000000E+03-5.000000000E+01+
*       5.0000000000E+01               0
GRID*             103441               06.3200000000E+03-5.000000000E+01+
*       5.0000000000E+01               0
GRID*             103442               06.3100000000E+03-5.000000000E+01+
*       5.0000000000E+01               0
GRID*             103443               06.3000000000E+03-5.000000000E+01+
*       5.0000000000E+01               0
GRID*             103444               06.2900000000E+03-5.000000000E+01+
*       5.0000000000E+01               0
GRID*             103445               06.2800000000E+03-5.000000000E+01+
*       5.0000000000E+01               0
GRID*             103446               06.2700000000E+03-5.000000000E+01+
*       5.0000000000E+01               0
GRID*             103447               06.2600000000E+03-5.000000000E+01+
*       5.0000000000E+01               0
GRID*             103448               06.2500000000E+03-5.000000000E+01+
*       5.0000000000E+01               0
GRID*             103449               06.2400000000E+03-5.000000000E+01+
*       5.0000000000E+01               0
GRID*             103450               06.2300000000E+03-5.000000000E+01+
*       5.0000000000E+01               0
GRID*             103451               06.2200000000E+03-5.000000000E+01+
*       5.0000000000E+01               0
GRID*             103452               06.2100000000E+03-5.000000000E+01+
*       5.0000000000E+01               0
GRID*             103453               06.2000000000E+03-5.000000000E+01+
*       5.0000000000E+01               0
GRID*             103454               06.1900000000E+03-5.000000000E+01+
*       5.0000000000E+01               0
GRID*             103455               06.1800000000E+03-5.000000000E+01+
*       5.0000000000E+01               0
GRID*             103456               06.1700000000E+03-5.000000000E+01+
*       5.0000000000E+01               0
GRID*             103457               06.1600000000E+03-5.000000000E+01+
*       5.0000000000E+01               0
GRID*             103458               06.1500000000E+03-5.000000000E+01+
*       5.0000000000E+01               0
GRID*             103459               06.1400000000E+03-5.000000000E+01+
*       5.0000000000E+01               0
GRID*             103460               06.1300000000E+03-5.000000000E+01+
*       5.0000000000E+01               0
GRID*             103461               06.1200000000E+03-5.000000000E+01+
*       5.0000000000E+01               0
GRID*             103462               06.1100000000E+03-5.000000000E+01+
*       5.0000000000E+01               0
GRID*             103463               06.1000000000E+03-5.000000000E+01+
*       5.0000000000E+01               0
GRID*             103464               06.0900000000E+03-5.000000000E+01+
*       5.0000000000E+01               0
GRID*             103465               06.0800000000E+03-5.000000000E+01+
*       5.0000000000E+01               0
GRID*             103466               06.0700000000E+03-5.000000000E+01+
*       5.0000000000E+01               0
GRID*             103467               06.0600000000E+03-5.000000000E+01+
*       5.0000000000E+01               0
GRID*             103468               06.0500000000E+03-5.000000000E+01+
*       5.0000000000E+01               0
GRID*             103469               06.0400000000E+03-5.000000000E+01+
*       5.0000000000E+01               0
GRID*             103470               06.0300000000E+03-5.000000000E+01+
*       5.0000000000E+01               0
GRID*             103471               06.0200000000E+03-5.000000000E+01+
*       5.0000000000E+01               0
GRID*             103472               06.0100000000E+03-5.000000000E+01+
*       5.0000000000E+01               0
GRID*             103473               06.0000000000E+03-5.000000000E+01+
*       5.0000000000E+01               0
GRID*             103474               05.9900000000E+03-5.000000000E+01+
*       5.0000000000E+01               0
GRID*             103475               05.9800000000E+03-5.000000000E+01+
*       5.0000000000E+01               0
GRID*             103476               05.9700000000E+03-5.000000000E+01+
*       5.0000000000E+01               0
GRID*             103477               05.9600000000E+03-5.000000000E+01+
*       5.0000000000E+01               0
GRID*             103478               05.9500000000E+03-5.000000000E+01+
*       5.0000000000E+01               0
GRID*             103479               05.9400000000E+03-5.000000000E+01+
*       5.0000000000E+01               0
GRID*             103480               05.9300000000E+03-5.000000000E+01+
*       5.0000000000E+01               0
GRID*             103481               05.9200000000E+03-5.000000000E+01+
*       5.0000000000E+01               0
GRID*             103482               05.9100000000E+03-5.000000000E+01+
*       5.0000000000E+01               0
GRID*             103483               05.9000000000E+03-5.000000000E+01+
*       5.0000000000E+01               0
GRID*             103484               05.8900000000E+03-5.000000000E+01+
*       5.0000000000E+01               0
GRID*             103485               05.8800000000E+03-5.000000000E+01+
*       5.0000000000E+01               0
GRID*             103486               05.8700000000E+03-5.000000000E+01+
*       5.0000000000E+01               0
GRID*             103487               05.8600000000E+03-5.000000000E+01+
*       5.0000000000E+01               0
GRID*             103488               05.8500000000E+03-5.000000000E+01+
*       5.0000000000E+01               0
GRID*             103489               05.8400000000E+03-5.000000000E+01+
*       5.0000000000E+01               0
GRID*             103490               05.8300000000E+03-5.000000000E+01+
*       5.0000000000E+01               0
GRID*             103491               05.8200000000E+03-5.000000000E+01+
*       5.0000000000E+01               0
GRID*             103492               05.8100000000E+03-5.000000000E+01+
*       5.0000000000E+01               0
GRID*             103493               05.8000000000E+03-5.000000000E+01+
*       5.0000000000E+01               0
GRID*             103494               05.7900000000E+03-5.000000000E+01+
*       5.0000000000E+01               0
GRID*             103495               05.7800000000E+03-5.000000000E+01+
*       5.0000000000E+01               0
GRID*             103496               05.7700000000E+03-5.000000000E+01+
*       5.0000000000E+01               0
GRID*             103497               05.7600000000E+03-5.000000000E+01+
*       5.0000000000E+01               0
GRID*             103498               05.7500000000E+03-5.000000000E+01+
*       5.0000000000E+01               0
GRID*             103499               05.7400000000E+03-5.000000000E+01+
*       5.0000000000E+01               0
GRID*             103500               05.7300000000E+03-5.000000000E+01+
*       5.0000000000E+01               0
GRID*             103501               05.7200000000E+03-5.000000000E+01+
*       5.0000000000E+01               0
GRID*             103502               05.7100000000E+03-5.000000000E+01+
*       5.0000000000E+01               0
GRID*             103503               05.7000000000E+03-5.000000000E+01+
*       5.0000000000E+01               0
GRID*             103504               05.6900000000E+03-5.000000000E+01+
*       5.0000000000E+01               0
GRID*             103505               05.6800000000E+03-5.000000000E+01+
*       5.0000000000E+01               0
GRID*             103506               05.6700000000E+03-5.000000000E+01+
*       5.0000000000E+01               0
GRID*             103507               05.6600000000E+03-5.000000000E+01+
*       5.0000000000E+01               0
GRID*             103508               05.6500000000E+03-5.000000000E+01+
*       5.0000000000E+01               0
GRID*             103509               05.6400000000E+03-5.000000000E+01+
*       5.0000000000E+01               0
GRID*             103510               05.6300000000E+03-5.000000000E+01+
*       5.0000000000E+01               0
GRID*             103511               05.6200000000E+03-5.000000000E+01+
*       5.0000000000E+01               0
GRID*             103512               05.6100000000E+03-5.000000000E+01+
*       5.0000000000E+01               0
GRID*             103513               05.6000000000E+03-5.000000000E+01+
*       5.0000000000E+01               0
GRID*             103514               05.5900000000E+03-5.000000000E+01+
*       5.0000000000E+01               0
GRID*             103515               05.5800000000E+03-5.000000000E+01+
*       5.0000000000E+01               0
GRID*             103516               05.5700000000E+03-5.000000000E+01+
*       5.0000000000E+01               0
GRID*             103517               05.5600000000E+03-5.000000000E+01+
*       5.0000000000E+01               0
GRID*             103518               05.5500000000E+03-5.000000000E+01+
*       5.0000000000E+01               0
GRID*             103519               05.5400000000E+03-5.000000000E+01+
*       5.0000000000E+01               0
GRID*             103520               05.5300000000E+03-5.000000000E+01+
*       5.0000000000E+01               0
GRID*             103521               05.5200000000E+03-5.000000000E+01+
*       5.0000000000E+01               0
GRID*             103522               05.5100000000E+03-5.000000000E+01+
*       5.0000000000E+01               0
GRID*             103523               05.5000000000E+03-5.000000000E+01+
*       5.0000000000E+01               0
GRID*             103524               05.4900000000E+03-5.000000000E+01+
*       5.0000000000E+01               0
GRID*             103525               05.4800000000E+03-5.000000000E+01+
*       5.0000000000E+01               0
GRID*             103526               05.4700000000E+03-5.000000000E+01+
*       5.0000000000E+01               0
GRID*             103527               05.4600000000E+03-5.000000000E+01+
*       5.0000000000E+01               0
GRID*             103528               05.4500000000E+03-5.000000000E+01+
*       5.0000000000E+01               0
GRID*             103529               05.4400000000E+03-5.000000000E+01+
*       5.0000000000E+01               0
GRID*             103530               05.4300000000E+03-5.000000000E+01+
*       5.0000000000E+01               0
GRID*             103531               05.4200000000E+03-5.000000000E+01+
*       5.0000000000E+01               0
GRID*             103532               05.4100000000E+03-5.000000000E+01+
*       5.0000000000E+01               0
GRID*             103533               05.4000000000E+03-5.000000000E+01+
*       5.0000000000E+01               0
GRID*             103534               05.3900000000E+03-5.000000000E+01+
*       5.0000000000E+01               0
GRID*             103535               05.3800000000E+03-5.000000000E+01+
*       5.0000000000E+01               0
GRID*             103536               05.3700000000E+03-5.000000000E+01+
*       5.0000000000E+01               0
GRID*             103537               05.3600000000E+03-5.000000000E+01+
*       5.0000000000E+01               0
GRID*             103538               05.3500000000E+03-5.000000000E+01+
*       5.0000000000E+01               0
GRID*             103539               05.3400000000E+03-5.000000000E+01+
*       5.0000000000E+01               0
GRID*             103540               05.3300000000E+03-5.000000000E+01+
*       5.0000000000E+01               0
GRID*             103541               05.3200000000E+03-5.000000000E+01+
*       5.0000000000E+01               0
GRID*             103542               05.3100000000E+03-5.000000000E+01+
*       5.0000000000E+01               0
GRID*             103543               05.3000000000E+03-5.000000000E+01+
*       5.0000000000E+01               0
GRID*             103544               05.2900000000E+03-5.000000000E+01+
*       5.0000000000E+01               0
GRID*             103545               05.2800000000E+03-5.000000000E+01+
*       5.0000000000E+01               0
GRID*             103546               05.2700000000E+03-5.000000000E+01+
*       5.0000000000E+01               0
GRID*             103547               05.2600000000E+03-5.000000000E+01+
*       5.0000000000E+01               0
GRID*             103548               05.2500000000E+03-5.000000000E+01+
*       5.0000000000E+01               0
GRID*             103549               05.2400000000E+03-5.000000000E+01+
*       5.0000000000E+01               0
GRID*             103550               05.2300000000E+03-5.000000000E+01+
*       5.0000000000E+01               0
GRID*             103551               05.2200000000E+03-5.000000000E+01+
*       5.0000000000E+01               0
GRID*             103552               05.2100000000E+03-5.000000000E+01+
*       5.0000000000E+01               0
GRID*             103553               05.2000000000E+03-5.000000000E+01+
*       5.0000000000E+01               0
GRID*             103554               05.1900000000E+03-5.000000000E+01+
*       5.0000000000E+01               0
GRID*             103555               05.1800000000E+03-5.000000000E+01+
*       5.0000000000E+01               0
GRID*             103556               05.1700000000E+03-5.000000000E+01+
*       5.0000000000E+01               0
GRID*             103557               05.1600000000E+03-5.000000000E+01+
*       5.0000000000E+01               0
GRID*             103558               05.1500000000E+03-5.000000000E+01+
*       5.0000000000E+01               0
GRID*             103559               05.1400000000E+03-5.000000000E+01+
*       5.0000000000E+01               0
GRID*             103560               05.1300000000E+03-5.000000000E+01+
*       5.0000000000E+01               0
GRID*             103561               05.1200000000E+03-5.000000000E+01+
*       5.0000000000E+01               0
GRID*             103562               05.1100000000E+03-5.000000000E+01+
*       5.0000000000E+01               0
GRID*             103563               05.1000000000E+03-5.000000000E+01+
*       5.0000000000E+01               0
GRID*             103564               05.0900000000E+03-5.000000000E+01+
*       5.0000000000E+01               0
GRID*             103565               05.0800000000E+03-5.000000000E+01+
*       5.0000000000E+01               0
GRID*             103566               05.0700000000E+03-5.000000000E+01+
*       5.0000000000E+01               0
GRID*             103567               05.0600000000E+03-5.000000000E+01+
*       5.0000000000E+01               0
GRID*             103568               05.0500000000E+03-5.000000000E+01+
*       5.0000000000E+01               0
GRID*             103569               05.0400000000E+03-5.000000000E+01+
*       5.0000000000E+01               0
GRID*             103570               05.0300000000E+03-5.000000000E+01+
*       5.0000000000E+01               0
GRID*             103571               05.0200000000E+03-5.000000000E+01+
*       5.0000000000E+01               0
GRID*             103572               05.0100000000E+03-5.000000000E+01+
*       5.0000000000E+01               0
GRID*             103573               05.0000000000E+03-5.000000000E+01+
*       5.0000000000E+01               0
GRID*             103574               04.9900000000E+03-5.000000000E+01+
*       5.0000000000E+01               0
GRID*             103575               04.9800000000E+03-5.000000000E+01+
*       5.0000000000E+01               0
GRID*             103576               04.9700000000E+03-5.000000000E+01+
*       5.0000000000E+01               0
GRID*             103577               04.9600000000E+03-5.000000000E+01+
*       5.0000000000E+01               0
GRID*             103578               04.9500000000E+03-5.000000000E+01+
*       5.0000000000E+01               0
GRID*             103579               04.9400000000E+03-5.000000000E+01+
*       5.0000000000E+01               0
GRID*             103580               04.9300000000E+03-5.000000000E+01+
*       5.0000000000E+01               0
GRID*             103581               04.9200000000E+03-5.000000000E+01+
*       5.0000000000E+01               0
GRID*             103582               04.9100000000E+03-5.000000000E+01+
*       5.0000000000E+01               0
GRID*             103583               04.9000000000E+03-5.000000000E+01+
*       5.0000000000E+01               0
GRID*             103584               04.8900000000E+03-5.000000000E+01+
*       5.0000000000E+01               0
GRID*             103585               04.8800000000E+03-5.000000000E+01+
*       5.0000000000E+01               0
GRID*             103586               04.8700000000E+03-5.000000000E+01+
*       5.0000000000E+01               0
GRID*             103587               04.8600000000E+03-5.000000000E+01+
*       5.0000000000E+01               0
GRID*             103588               04.8500000000E+03-5.000000000E+01+
*       5.0000000000E+01               0
GRID*             103589               04.8400000000E+03-5.000000000E+01+
*       5.0000000000E+01               0
GRID*             103590               04.8300000000E+03-5.000000000E+01+
*       5.0000000000E+01               0
GRID*             103591               04.8200000000E+03-5.000000000E+01+
*       5.0000000000E+01               0
GRID*             103592               04.8100000000E+03-5.000000000E+01+
*       5.0000000000E+01               0
GRID*             103593               04.8000000000E+03-5.000000000E+01+
*       5.0000000000E+01               0
GRID*             103594               04.7900000000E+03-5.000000000E+01+
*       5.0000000000E+01               0
GRID*             103595               04.7800000000E+03-5.000000000E+01+
*       5.0000000000E+01               0
GRID*             103596               04.7700000000E+03-5.000000000E+01+
*       5.0000000000E+01               0
GRID*             103597               04.7600000000E+03-5.000000000E+01+
*       5.0000000000E+01               0
GRID*             103598               04.7500000000E+03-5.000000000E+01+
*       5.0000000000E+01               0
GRID*             103599               04.7400000000E+03-5.000000000E+01+
*       5.0000000000E+01               0
GRID*             103600               04.7300000000E+03-5.000000000E+01+
*       5.0000000000E+01               0
GRID*             103601               04.7200000000E+03-5.000000000E+01+
*       5.0000000000E+01               0
GRID*             103602               04.7100000000E+03-5.000000000E+01+
*       5.0000000000E+01               0
GRID*             103603               04.7000000000E+03-5.000000000E+01+
*       5.0000000000E+01               0
GRID*             103604               04.6900000000E+03-5.000000000E+01+
*       5.0000000000E+01               0
GRID*             103605               04.6800000000E+03-5.000000000E+01+
*       5.0000000000E+01               0
GRID*             103606               04.6700000000E+03-5.000000000E+01+
*       5.0000000000E+01               0
GRID*             103607               04.6600000000E+03-5.000000000E+01+
*       5.0000000000E+01               0
GRID*             103608               04.6500000000E+03-5.000000000E+01+
*       5.0000000000E+01               0
GRID*             103609               04.6400000000E+03-5.000000000E+01+
*       5.0000000000E+01               0
GRID*             103610               04.6300000000E+03-5.000000000E+01+
*       5.0000000000E+01               0
GRID*             103611               04.6200000000E+03-5.000000000E+01+
*       5.0000000000E+01               0
GRID*             103612               04.6100000000E+03-5.000000000E+01+
*       5.0000000000E+01               0
GRID*             103613               04.6000000000E+03-5.000000000E+01+
*       5.0000000000E+01               0
GRID*             103614               04.5900000000E+03-5.000000000E+01+
*       5.0000000000E+01               0
GRID*             103615               04.5800000000E+03-5.000000000E+01+
*       5.0000000000E+01               0
GRID*             103616               04.5700000000E+03-5.000000000E+01+
*       5.0000000000E+01               0
GRID*             103617               04.5600000000E+03-5.000000000E+01+
*       5.0000000000E+01               0
GRID*             103618               04.5500000000E+03-5.000000000E+01+
*       5.0000000000E+01               0
GRID*             103619               04.5400000000E+03-5.000000000E+01+
*       5.0000000000E+01               0
GRID*             103620               04.5300000000E+03-5.000000000E+01+
*       5.0000000000E+01               0
GRID*             103621               04.5200000000E+03-5.000000000E+01+
*       5.0000000000E+01               0
GRID*             103622               04.5100000000E+03-5.000000000E+01+
*       5.0000000000E+01               0
GRID*             103623               04.5000000000E+03-5.000000000E+01+
*       5.0000000000E+01               0
GRID*             103624               04.4900000000E+03-5.000000000E+01+
*       5.0000000000E+01               0
GRID*             103625               04.4800000000E+03-5.000000000E+01+
*       5.0000000000E+01               0
GRID*             103626               04.4700000000E+03-5.000000000E+01+
*       5.0000000000E+01               0
GRID*             103627               04.4600000000E+03-5.000000000E+01+
*       5.0000000000E+01               0
GRID*             103628               04.4500000000E+03-5.000000000E+01+
*       5.0000000000E+01               0
GRID*             103629               04.4400000000E+03-5.000000000E+01+
*       5.0000000000E+01               0
GRID*             103630               04.4300000000E+03-5.000000000E+01+
*       5.0000000000E+01               0
GRID*             103631               04.4200000000E+03-5.000000000E+01+
*       5.0000000000E+01               0
GRID*             103632               04.4100000000E+03-5.000000000E+01+
*       5.0000000000E+01               0
GRID*             103633               04.4000000000E+03-5.000000000E+01+
*       5.0000000000E+01               0
GRID*             103634               04.3900000000E+03-5.000000000E+01+
*       5.0000000000E+01               0
GRID*             103635               04.3800000000E+03-5.000000000E+01+
*       5.0000000000E+01               0
GRID*             103636               04.3700000000E+03-5.000000000E+01+
*       5.0000000000E+01               0
GRID*             103637               04.3600000000E+03-5.000000000E+01+
*       5.0000000000E+01               0
GRID*             103638               04.3500000000E+03-5.000000000E+01+
*       5.0000000000E+01               0
GRID*             103639               04.3400000000E+03-5.000000000E+01+
*       5.0000000000E+01               0
GRID*             103640               04.3300000000E+03-5.000000000E+01+
*       5.0000000000E+01               0
GRID*             103641               04.3200000000E+03-5.000000000E+01+
*       5.0000000000E+01               0
GRID*             103642               04.3100000000E+03-5.000000000E+01+
*       5.0000000000E+01               0
GRID*             103643               04.3000000000E+03-5.000000000E+01+
*       5.0000000000E+01               0
GRID*             103644               04.2900000000E+03-5.000000000E+01+
*       5.0000000000E+01               0
GRID*             103645               04.2800000000E+03-5.000000000E+01+
*       5.0000000000E+01               0
GRID*             103646               04.2700000000E+03-5.000000000E+01+
*       5.0000000000E+01               0
GRID*             103647               04.2600000000E+03-5.000000000E+01+
*       5.0000000000E+01               0
GRID*             103648               04.2500000000E+03-5.000000000E+01+
*       5.0000000000E+01               0
GRID*             103649               04.2400000000E+03-5.000000000E+01+
*       5.0000000000E+01               0
GRID*             103650               04.2300000000E+03-5.000000000E+01+
*       5.0000000000E+01               0
GRID*             103651               04.2200000000E+03-5.000000000E+01+
*       5.0000000000E+01               0
GRID*             103652               04.2100000000E+03-5.000000000E+01+
*       5.0000000000E+01               0
GRID*             103653               04.2000000000E+03-5.000000000E+01+
*       5.0000000000E+01               0
GRID*             103654               04.1900000000E+03-5.000000000E+01+
*       5.0000000000E+01               0
GRID*             103655               04.1800000000E+03-5.000000000E+01+
*       5.0000000000E+01               0
GRID*             103656               04.1700000000E+03-5.000000000E+01+
*       5.0000000000E+01               0
GRID*             103657               04.1600000000E+03-5.000000000E+01+
*       5.0000000000E+01               0
GRID*             103658               04.1500000000E+03-5.000000000E+01+
*       5.0000000000E+01               0
GRID*             103659               04.1400000000E+03-5.000000000E+01+
*       5.0000000000E+01               0
GRID*             103660               04.1300000000E+03-5.000000000E+01+
*       5.0000000000E+01               0
GRID*             103661               04.1200000000E+03-5.000000000E+01+
*       5.0000000000E+01               0
GRID*             103662               04.1100000000E+03-5.000000000E+01+
*       5.0000000000E+01               0
GRID*             103663               04.1000000000E+03-5.000000000E+01+
*       5.0000000000E+01               0
GRID*             103664               04.0900000000E+03-5.000000000E+01+
*       5.0000000000E+01               0
GRID*             103665               04.0800000000E+03-5.000000000E+01+
*       5.0000000000E+01               0
GRID*             103666               04.0700000000E+03-5.000000000E+01+
*       5.0000000000E+01               0
GRID*             103667               04.0600000000E+03-5.000000000E+01+
*       5.0000000000E+01               0
GRID*             103668               04.0500000000E+03-5.000000000E+01+
*       5.0000000000E+01               0
GRID*             103669               04.0400000000E+03-5.000000000E+01+
*       5.0000000000E+01               0
GRID*             103670               04.0300000000E+03-5.000000000E+01+
*       5.0000000000E+01               0
GRID*             103671               04.0200000000E+03-5.000000000E+01+
*       5.0000000000E+01               0
GRID*             103672               04.0100000000E+03-5.000000000E+01+
*       5.0000000000E+01               0
GRID*             103673               06.9900000000E+03-5.000000000E+01+
*       -5.000000000E+01               0
GRID*             103674               06.9800000000E+03-5.000000000E+01+
*       -5.000000000E+01               0
GRID*             103675               06.9700000000E+03-5.000000000E+01+
*       -5.000000000E+01               0
GRID*             103676               06.9600000000E+03-5.000000000E+01+
*       -5.000000000E+01               0
GRID*             103677               06.9500000000E+03-5.000000000E+01+
*       -5.000000000E+01               0
GRID*             103678               06.9400000000E+03-5.000000000E+01+
*       -5.000000000E+01               0
GRID*             103679               06.9300000000E+03-5.000000000E+01+
*       -5.000000000E+01               0
GRID*             103680               06.9200000000E+03-5.000000000E+01+
*       -5.000000000E+01               0
GRID*             103681               06.9100000000E+03-5.000000000E+01+
*       -5.000000000E+01               0
GRID*             103682               06.9000000000E+03-5.000000000E+01+
*       -5.000000000E+01               0
GRID*             103683               06.8900000000E+03-5.000000000E+01+
*       -5.000000000E+01               0
GRID*             103684               06.8800000000E+03-5.000000000E+01+
*       -5.000000000E+01               0
GRID*             103685               06.8700000000E+03-5.000000000E+01+
*       -5.000000000E+01               0
GRID*             103686               06.8600000000E+03-5.000000000E+01+
*       -5.000000000E+01               0
GRID*             103687               06.8500000000E+03-5.000000000E+01+
*       -5.000000000E+01               0
GRID*             103688               06.8400000000E+03-5.000000000E+01+
*       -5.000000000E+01               0
GRID*             103689               06.8300000000E+03-5.000000000E+01+
*       -5.000000000E+01               0
GRID*             103690               06.8200000000E+03-5.000000000E+01+
*       -5.000000000E+01               0
GRID*             103691               06.8100000000E+03-5.000000000E+01+
*       -5.000000000E+01               0
GRID*             103692               06.8000000000E+03-5.000000000E+01+
*       -5.000000000E+01               0
GRID*             103693               06.7900000000E+03-5.000000000E+01+
*       -5.000000000E+01               0
GRID*             103694               06.7800000000E+03-5.000000000E+01+
*       -5.000000000E+01               0
GRID*             103695               06.7700000000E+03-5.000000000E+01+
*       -5.000000000E+01               0
GRID*             103696               06.7600000000E+03-5.000000000E+01+
*       -5.000000000E+01               0
GRID*             103697               06.7500000000E+03-5.000000000E+01+
*       -5.000000000E+01               0
GRID*             103698               06.7400000000E+03-5.000000000E+01+
*       -5.000000000E+01               0
GRID*             103699               06.7300000000E+03-5.000000000E+01+
*       -5.000000000E+01               0
GRID*             103700               06.7200000000E+03-5.000000000E+01+
*       -5.000000000E+01               0
GRID*             103701               06.7100000000E+03-5.000000000E+01+
*       -5.000000000E+01               0
GRID*             103702               06.7000000000E+03-5.000000000E+01+
*       -5.000000000E+01               0
GRID*             103703               06.6900000000E+03-5.000000000E+01+
*       -5.000000000E+01               0
GRID*             103704               06.6800000000E+03-5.000000000E+01+
*       -5.000000000E+01               0
GRID*             103705               06.6700000000E+03-5.000000000E+01+
*       -5.000000000E+01               0
GRID*             103706               06.6600000000E+03-5.000000000E+01+
*       -5.000000000E+01               0
GRID*             103707               06.6500000000E+03-5.000000000E+01+
*       -5.000000000E+01               0
GRID*             103708               06.6400000000E+03-5.000000000E+01+
*       -5.000000000E+01               0
GRID*             103709               06.6300000000E+03-5.000000000E+01+
*       -5.000000000E+01               0
GRID*             103710               06.6200000000E+03-5.000000000E+01+
*       -5.000000000E+01               0
GRID*             103711               06.6100000000E+03-5.000000000E+01+
*       -5.000000000E+01               0
GRID*             103712               06.6000000000E+03-5.000000000E+01+
*       -5.000000000E+01               0
GRID*             103713               06.5900000000E+03-5.000000000E+01+
*       -5.000000000E+01               0
GRID*             103714               06.5800000000E+03-5.000000000E+01+
*       -5.000000000E+01               0
GRID*             103715               06.5700000000E+03-5.000000000E+01+
*       -5.000000000E+01               0
GRID*             103716               06.5600000000E+03-5.000000000E+01+
*       -5.000000000E+01               0
GRID*             103717               06.5500000000E+03-5.000000000E+01+
*       -5.000000000E+01               0
GRID*             103718               06.5400000000E+03-5.000000000E+01+
*       -5.000000000E+01               0
GRID*             103719               06.5300000000E+03-5.000000000E+01+
*       -5.000000000E+01               0
GRID*             103720               06.5200000000E+03-5.000000000E+01+
*       -5.000000000E+01               0
GRID*             103721               06.5100000000E+03-5.000000000E+01+
*       -5.000000000E+01               0
GRID*             103722               06.5000000000E+03-5.000000000E+01+
*       -5.000000000E+01               0
GRID*             103723               06.4900000000E+03-5.000000000E+01+
*       -5.000000000E+01               0
GRID*             103724               06.4800000000E+03-5.000000000E+01+
*       -5.000000000E+01               0
GRID*             103725               06.4700000000E+03-5.000000000E+01+
*       -5.000000000E+01               0
GRID*             103726               06.4600000000E+03-5.000000000E+01+
*       -5.000000000E+01               0
GRID*             103727               06.4500000000E+03-5.000000000E+01+
*       -5.000000000E+01               0
GRID*             103728               06.4400000000E+03-5.000000000E+01+
*       -5.000000000E+01               0
GRID*             103729               06.4300000000E+03-5.000000000E+01+
*       -5.000000000E+01               0
GRID*             103730               06.4200000000E+03-5.000000000E+01+
*       -5.000000000E+01               0
GRID*             103731               06.4100000000E+03-5.000000000E+01+
*       -5.000000000E+01               0
GRID*             103732               06.4000000000E+03-5.000000000E+01+
*       -5.000000000E+01               0
GRID*             103733               06.3900000000E+03-5.000000000E+01+
*       -5.000000000E+01               0
GRID*             103734               06.3800000000E+03-5.000000000E+01+
*       -5.000000000E+01               0
GRID*             103735               06.3700000000E+03-5.000000000E+01+
*       -5.000000000E+01               0
GRID*             103736               06.3600000000E+03-5.000000000E+01+
*       -5.000000000E+01               0
GRID*             103737               06.3500000000E+03-5.000000000E+01+
*       -5.000000000E+01               0
GRID*             103738               06.3400000000E+03-5.000000000E+01+
*       -5.000000000E+01               0
GRID*             103739               06.3300000000E+03-5.000000000E+01+
*       -5.000000000E+01               0
GRID*             103740               06.3200000000E+03-5.000000000E+01+
*       -5.000000000E+01               0
GRID*             103741               06.3100000000E+03-5.000000000E+01+
*       -5.000000000E+01               0
GRID*             103742               06.3000000000E+03-5.000000000E+01+
*       -5.000000000E+01               0
GRID*             103743               06.2900000000E+03-5.000000000E+01+
*       -5.000000000E+01               0
GRID*             103744               06.2800000000E+03-5.000000000E+01+
*       -5.000000000E+01               0
GRID*             103745               06.2700000000E+03-5.000000000E+01+
*       -5.000000000E+01               0
GRID*             103746               06.2600000000E+03-5.000000000E+01+
*       -5.000000000E+01               0
GRID*             103747               06.2500000000E+03-5.000000000E+01+
*       -5.000000000E+01               0
GRID*             103748               06.2400000000E+03-5.000000000E+01+
*       -5.000000000E+01               0
GRID*             103749               06.2300000000E+03-5.000000000E+01+
*       -5.000000000E+01               0
GRID*             103750               06.2200000000E+03-5.000000000E+01+
*       -5.000000000E+01               0
GRID*             103751               06.2100000000E+03-5.000000000E+01+
*       -5.000000000E+01               0
GRID*             103752               06.2000000000E+03-5.000000000E+01+
*       -5.000000000E+01               0
GRID*             103753               06.1900000000E+03-5.000000000E+01+
*       -5.000000000E+01               0
GRID*             103754               06.1800000000E+03-5.000000000E+01+
*       -5.000000000E+01               0
GRID*             103755               06.1700000000E+03-5.000000000E+01+
*       -5.000000000E+01               0
GRID*             103756               06.1600000000E+03-5.000000000E+01+
*       -5.000000000E+01               0
GRID*             103757               06.1500000000E+03-5.000000000E+01+
*       -5.000000000E+01               0
GRID*             103758               06.1400000000E+03-5.000000000E+01+
*       -5.000000000E+01               0
GRID*             103759               06.1300000000E+03-5.000000000E+01+
*       -5.000000000E+01               0
GRID*             103760               06.1200000000E+03-5.000000000E+01+
*       -5.000000000E+01               0
GRID*             103761               06.1100000000E+03-5.000000000E+01+
*       -5.000000000E+01               0
GRID*             103762               06.1000000000E+03-5.000000000E+01+
*       -5.000000000E+01               0
GRID*             103763               06.0900000000E+03-5.000000000E+01+
*       -5.000000000E+01               0
GRID*             103764               06.0800000000E+03-5.000000000E+01+
*       -5.000000000E+01               0
GRID*             103765               06.0700000000E+03-5.000000000E+01+
*       -5.000000000E+01               0
GRID*             103766               06.0600000000E+03-5.000000000E+01+
*       -5.000000000E+01               0
GRID*             103767               06.0500000000E+03-5.000000000E+01+
*       -5.000000000E+01               0
GRID*             103768               06.0400000000E+03-5.000000000E+01+
*       -5.000000000E+01               0
GRID*             103769               06.0300000000E+03-5.000000000E+01+
*       -5.000000000E+01               0
GRID*             103770               06.0200000000E+03-5.000000000E+01+
*       -5.000000000E+01               0
GRID*             103771               06.0100000000E+03-5.000000000E+01+
*       -5.000000000E+01               0
GRID*             103772               06.0000000000E+03-5.000000000E+01+
*       -5.000000000E+01               0
GRID*             103773               05.9900000000E+03-5.000000000E+01+
*       -5.000000000E+01               0
GRID*             103774               05.9800000000E+03-5.000000000E+01+
*       -5.000000000E+01               0
GRID*             103775               05.9700000000E+03-5.000000000E+01+
*       -5.000000000E+01               0
GRID*             103776               05.9600000000E+03-5.000000000E+01+
*       -5.000000000E+01               0
GRID*             103777               05.9500000000E+03-5.000000000E+01+
*       -5.000000000E+01               0
GRID*             103778               05.9400000000E+03-5.000000000E+01+
*       -5.000000000E+01               0
GRID*             103779               05.9300000000E+03-5.000000000E+01+
*       -5.000000000E+01               0
GRID*             103780               05.9200000000E+03-5.000000000E+01+
*       -5.000000000E+01               0
GRID*             103781               05.9100000000E+03-5.000000000E+01+
*       -5.000000000E+01               0
GRID*             103782               05.9000000000E+03-5.000000000E+01+
*       -5.000000000E+01               0
GRID*             103783               05.8900000000E+03-5.000000000E+01+
*       -5.000000000E+01               0
GRID*             103784               05.8800000000E+03-5.000000000E+01+
*       -5.000000000E+01               0
GRID*             103785               05.8700000000E+03-5.000000000E+01+
*       -5.000000000E+01               0
GRID*             103786               05.8600000000E+03-5.000000000E+01+
*       -5.000000000E+01               0
GRID*             103787               05.8500000000E+03-5.000000000E+01+
*       -5.000000000E+01               0
GRID*             103788               05.8400000000E+03-5.000000000E+01+
*       -5.000000000E+01               0
GRID*             103789               05.8300000000E+03-5.000000000E+01+
*       -5.000000000E+01               0
GRID*             103790               05.8200000000E+03-5.000000000E+01+
*       -5.000000000E+01               0
GRID*             103791               05.8100000000E+03-5.000000000E+01+
*       -5.000000000E+01               0
GRID*             103792               05.8000000000E+03-5.000000000E+01+
*       -5.000000000E+01               0
GRID*             103793               05.7900000000E+03-5.000000000E+01+
*       -5.000000000E+01               0
GRID*             103794               05.7800000000E+03-5.000000000E+01+
*       -5.000000000E+01               0
GRID*             103795               05.7700000000E+03-5.000000000E+01+
*       -5.000000000E+01               0
GRID*             103796               05.7600000000E+03-5.000000000E+01+
*       -5.000000000E+01               0
GRID*             103797               05.7500000000E+03-5.000000000E+01+
*       -5.000000000E+01               0
GRID*             103798               05.7400000000E+03-5.000000000E+01+
*       -5.000000000E+01               0
GRID*             103799               05.7300000000E+03-5.000000000E+01+
*       -5.000000000E+01               0
GRID*             103800               05.7200000000E+03-5.000000000E+01+
*       -5.000000000E+01               0
GRID*             103801               05.7100000000E+03-5.000000000E+01+
*       -5.000000000E+01               0
GRID*             103802               05.7000000000E+03-5.000000000E+01+
*       -5.000000000E+01               0
GRID*             103803               05.6900000000E+03-5.000000000E+01+
*       -5.000000000E+01               0
GRID*             103804               05.6800000000E+03-5.000000000E+01+
*       -5.000000000E+01               0
GRID*             103805               05.6700000000E+03-5.000000000E+01+
*       -5.000000000E+01               0
GRID*             103806               05.6600000000E+03-5.000000000E+01+
*       -5.000000000E+01               0
GRID*             103807               05.6500000000E+03-5.000000000E+01+
*       -5.000000000E+01               0
GRID*             103808               05.6400000000E+03-5.000000000E+01+
*       -5.000000000E+01               0
GRID*             103809               05.6300000000E+03-5.000000000E+01+
*       -5.000000000E+01               0
GRID*             103810               05.6200000000E+03-5.000000000E+01+
*       -5.000000000E+01               0
GRID*             103811               05.6100000000E+03-5.000000000E+01+
*       -5.000000000E+01               0
GRID*             103812               05.6000000000E+03-5.000000000E+01+
*       -5.000000000E+01               0
GRID*             103813               05.5900000000E+03-5.000000000E+01+
*       -5.000000000E+01               0
GRID*             103814               05.5800000000E+03-5.000000000E+01+
*       -5.000000000E+01               0
GRID*             103815               05.5700000000E+03-5.000000000E+01+
*       -5.000000000E+01               0
GRID*             103816               05.5600000000E+03-5.000000000E+01+
*       -5.000000000E+01               0
GRID*             103817               05.5500000000E+03-5.000000000E+01+
*       -5.000000000E+01               0
GRID*             103818               05.5400000000E+03-5.000000000E+01+
*       -5.000000000E+01               0
GRID*             103819               05.5300000000E+03-5.000000000E+01+
*       -5.000000000E+01               0
GRID*             103820               05.5200000000E+03-5.000000000E+01+
*       -5.000000000E+01               0
GRID*             103821               05.5100000000E+03-5.000000000E+01+
*       -5.000000000E+01               0
GRID*             103822               05.5000000000E+03-5.000000000E+01+
*       -5.000000000E+01               0
GRID*             103823               05.4900000000E+03-5.000000000E+01+
*       -5.000000000E+01               0
GRID*             103824               05.4800000000E+03-5.000000000E+01+
*       -5.000000000E+01               0
GRID*             103825               05.4700000000E+03-5.000000000E+01+
*       -5.000000000E+01               0
GRID*             103826               05.4600000000E+03-5.000000000E+01+
*       -5.000000000E+01               0
GRID*             103827               05.4500000000E+03-5.000000000E+01+
*       -5.000000000E+01               0
GRID*             103828               05.4400000000E+03-5.000000000E+01+
*       -5.000000000E+01               0
GRID*             103829               05.4300000000E+03-5.000000000E+01+
*       -5.000000000E+01               0
GRID*             103830               05.4200000000E+03-5.000000000E+01+
*       -5.000000000E+01               0
GRID*             103831               05.4100000000E+03-5.000000000E+01+
*       -5.000000000E+01               0
GRID*             103832               05.4000000000E+03-5.000000000E+01+
*       -5.000000000E+01               0
GRID*             103833               05.3900000000E+03-5.000000000E+01+
*       -5.000000000E+01               0
GRID*             103834               05.3800000000E+03-5.000000000E+01+
*       -5.000000000E+01               0
GRID*             103835               05.3700000000E+03-5.000000000E+01+
*       -5.000000000E+01               0
GRID*             103836               05.3600000000E+03-5.000000000E+01+
*       -5.000000000E+01               0
GRID*             103837               05.3500000000E+03-5.000000000E+01+
*       -5.000000000E+01               0
GRID*             103838               05.3400000000E+03-5.000000000E+01+
*       -5.000000000E+01               0
GRID*             103839               05.3300000000E+03-5.000000000E+01+
*       -5.000000000E+01               0
GRID*             103840               05.3200000000E+03-5.000000000E+01+
*       -5.000000000E+01               0
GRID*             103841               05.3100000000E+03-5.000000000E+01+
*       -5.000000000E+01               0
GRID*             103842               05.3000000000E+03-5.000000000E+01+
*       -5.000000000E+01               0
GRID*             103843               05.2900000000E+03-5.000000000E+01+
*       -5.000000000E+01               0
GRID*             103844               05.2800000000E+03-5.000000000E+01+
*       -5.000000000E+01               0
GRID*             103845               05.2700000000E+03-5.000000000E+01+
*       -5.000000000E+01               0
GRID*             103846               05.2600000000E+03-5.000000000E+01+
*       -5.000000000E+01               0
GRID*             103847               05.2500000000E+03-5.000000000E+01+
*       -5.000000000E+01               0
GRID*             103848               05.2400000000E+03-5.000000000E+01+
*       -5.000000000E+01               0
GRID*             103849               05.2300000000E+03-5.000000000E+01+
*       -5.000000000E+01               0
GRID*             103850               05.2200000000E+03-5.000000000E+01+
*       -5.000000000E+01               0
GRID*             103851               05.2100000000E+03-5.000000000E+01+
*       -5.000000000E+01               0
GRID*             103852               05.2000000000E+03-5.000000000E+01+
*       -5.000000000E+01               0
GRID*             103853               05.1900000000E+03-5.000000000E+01+
*       -5.000000000E+01               0
GRID*             103854               05.1800000000E+03-5.000000000E+01+
*       -5.000000000E+01               0
GRID*             103855               05.1700000000E+03-5.000000000E+01+
*       -5.000000000E+01               0
GRID*             103856               05.1600000000E+03-5.000000000E+01+
*       -5.000000000E+01               0
GRID*             103857               05.1500000000E+03-5.000000000E+01+
*       -5.000000000E+01               0
GRID*             103858               05.1400000000E+03-5.000000000E+01+
*       -5.000000000E+01               0
GRID*             103859               05.1300000000E+03-5.000000000E+01+
*       -5.000000000E+01               0
GRID*             103860               05.1200000000E+03-5.000000000E+01+
*       -5.000000000E+01               0
GRID*             103861               05.1100000000E+03-5.000000000E+01+
*       -5.000000000E+01               0
GRID*             103862               05.1000000000E+03-5.000000000E+01+
*       -5.000000000E+01               0
GRID*             103863               05.0900000000E+03-5.000000000E+01+
*       -5.000000000E+01               0
GRID*             103864               05.0800000000E+03-5.000000000E+01+
*       -5.000000000E+01               0
GRID*             103865               05.0700000000E+03-5.000000000E+01+
*       -5.000000000E+01               0
GRID*             103866               05.0600000000E+03-5.000000000E+01+
*       -5.000000000E+01               0
GRID*             103867               05.0500000000E+03-5.000000000E+01+
*       -5.000000000E+01               0
GRID*             103868               05.0400000000E+03-5.000000000E+01+
*       -5.000000000E+01               0
GRID*             103869               05.0300000000E+03-5.000000000E+01+
*       -5.000000000E+01               0
GRID*             103870               05.0200000000E+03-5.000000000E+01+
*       -5.000000000E+01               0
GRID*             103871               05.0100000000E+03-5.000000000E+01+
*       -5.000000000E+01               0
GRID*             103872               05.0000000000E+03-5.000000000E+01+
*       -5.000000000E+01               0
GRID*             103873               04.9900000000E+03-5.000000000E+01+
*       -5.000000000E+01               0
GRID*             103874               04.9800000000E+03-5.000000000E+01+
*       -5.000000000E+01               0
GRID*             103875               04.9700000000E+03-5.000000000E+01+
*       -5.000000000E+01               0
GRID*             103876               04.9600000000E+03-5.000000000E+01+
*       -5.000000000E+01               0
GRID*             103877               04.9500000000E+03-5.000000000E+01+
*       -5.000000000E+01               0
GRID*             103878               04.9400000000E+03-5.000000000E+01+
*       -5.000000000E+01               0
GRID*             103879               04.9300000000E+03-5.000000000E+01+
*       -5.000000000E+01               0
GRID*             103880               04.9200000000E+03-5.000000000E+01+
*       -5.000000000E+01               0
GRID*             103881               04.9100000000E+03-5.000000000E+01+
*       -5.000000000E+01               0
GRID*             103882               04.9000000000E+03-5.000000000E+01+
*       -5.000000000E+01               0
GRID*             103883               04.8900000000E+03-5.000000000E+01+
*       -5.000000000E+01               0
GRID*             103884               04.8800000000E+03-5.000000000E+01+
*       -5.000000000E+01               0
GRID*             103885               04.8700000000E+03-5.000000000E+01+
*       -5.000000000E+01               0
GRID*             103886               04.8600000000E+03-5.000000000E+01+
*       -5.000000000E+01               0
GRID*             103887               04.8500000000E+03-5.000000000E+01+
*       -5.000000000E+01               0
GRID*             103888               04.8400000000E+03-5.000000000E+01+
*       -5.000000000E+01               0
GRID*             103889               04.8300000000E+03-5.000000000E+01+
*       -5.000000000E+01               0
GRID*             103890               04.8200000000E+03-5.000000000E+01+
*       -5.000000000E+01               0
GRID*             103891               04.8100000000E+03-5.000000000E+01+
*       -5.000000000E+01               0
GRID*             103892               04.8000000000E+03-5.000000000E+01+
*       -5.000000000E+01               0
GRID*             103893               04.7900000000E+03-5.000000000E+01+
*       -5.000000000E+01               0
GRID*             103894               04.7800000000E+03-5.000000000E+01+
*       -5.000000000E+01               0
GRID*             103895               04.7700000000E+03-5.000000000E+01+
*       -5.000000000E+01               0
GRID*             103896               04.7600000000E+03-5.000000000E+01+
*       -5.000000000E+01               0
GRID*             103897               04.7500000000E+03-5.000000000E+01+
*       -5.000000000E+01               0
GRID*             103898               04.7400000000E+03-5.000000000E+01+
*       -5.000000000E+01               0
GRID*             103899               04.7300000000E+03-5.000000000E+01+
*       -5.000000000E+01               0
GRID*             103900               04.7200000000E+03-5.000000000E+01+
*       -5.000000000E+01               0
GRID*             103901               04.7100000000E+03-5.000000000E+01+
*       -5.000000000E+01               0
GRID*             103902               04.7000000000E+03-5.000000000E+01+
*       -5.000000000E+01               0
GRID*             103903               04.6900000000E+03-5.000000000E+01+
*       -5.000000000E+01               0
GRID*             103904               04.6800000000E+03-5.000000000E+01+
*       -5.000000000E+01               0
GRID*             103905               04.6700000000E+03-5.000000000E+01+
*       -5.000000000E+01               0
GRID*             103906               04.6600000000E+03-5.000000000E+01+
*       -5.000000000E+01               0
GRID*             103907               04.6500000000E+03-5.000000000E+01+
*       -5.000000000E+01               0
GRID*             103908               04.6400000000E+03-5.000000000E+01+
*       -5.000000000E+01               0
GRID*             103909               04.6300000000E+03-5.000000000E+01+
*       -5.000000000E+01               0
GRID*             103910               04.6200000000E+03-5.000000000E+01+
*       -5.000000000E+01               0
GRID*             103911               04.6100000000E+03-5.000000000E+01+
*       -5.000000000E+01               0
GRID*             103912               04.6000000000E+03-5.000000000E+01+
*       -5.000000000E+01               0
GRID*             103913               04.5900000000E+03-5.000000000E+01+
*       -5.000000000E+01               0
GRID*             103914               04.5800000000E+03-5.000000000E+01+
*       -5.000000000E+01               0
GRID*             103915               04.5700000000E+03-5.000000000E+01+
*       -5.000000000E+01               0
GRID*             103916               04.5600000000E+03-5.000000000E+01+
*       -5.000000000E+01               0
GRID*             103917               04.5500000000E+03-5.000000000E+01+
*       -5.000000000E+01               0
GRID*             103918               04.5400000000E+03-5.000000000E+01+
*       -5.000000000E+01               0
GRID*             103919               04.5300000000E+03-5.000000000E+01+
*       -5.000000000E+01               0
GRID*             103920               04.5200000000E+03-5.000000000E+01+
*       -5.000000000E+01               0
GRID*             103921               04.5100000000E+03-5.000000000E+01+
*       -5.000000000E+01               0
GRID*             103922               04.5000000000E+03-5.000000000E+01+
*       -5.000000000E+01               0
GRID*             103923               04.4900000000E+03-5.000000000E+01+
*       -5.000000000E+01               0
GRID*             103924               04.4800000000E+03-5.000000000E+01+
*       -5.000000000E+01               0
GRID*             103925               04.4700000000E+03-5.000000000E+01+
*       -5.000000000E+01               0
GRID*             103926               04.4600000000E+03-5.000000000E+01+
*       -5.000000000E+01               0
GRID*             103927               04.4500000000E+03-5.000000000E+01+
*       -5.000000000E+01               0
GRID*             103928               04.4400000000E+03-5.000000000E+01+
*       -5.000000000E+01               0
GRID*             103929               04.4300000000E+03-5.000000000E+01+
*       -5.000000000E+01               0
GRID*             103930               04.4200000000E+03-5.000000000E+01+
*       -5.000000000E+01               0
GRID*             103931               04.4100000000E+03-5.000000000E+01+
*       -5.000000000E+01               0
GRID*             103932               04.4000000000E+03-5.000000000E+01+
*       -5.000000000E+01               0
GRID*             103933               04.3900000000E+03-5.000000000E+01+
*       -5.000000000E+01               0
GRID*             103934               04.3800000000E+03-5.000000000E+01+
*       -5.000000000E+01               0
GRID*             103935               04.3700000000E+03-5.000000000E+01+
*       -5.000000000E+01               0
GRID*             103936               04.3600000000E+03-5.000000000E+01+
*       -5.000000000E+01               0
GRID*             103937               04.3500000000E+03-5.000000000E+01+
*       -5.000000000E+01               0
GRID*             103938               04.3400000000E+03-5.000000000E+01+
*       -5.000000000E+01               0
GRID*             103939               04.3300000000E+03-5.000000000E+01+
*       -5.000000000E+01               0
GRID*             103940               04.3200000000E+03-5.000000000E+01+
*       -5.000000000E+01               0
GRID*             103941               04.3100000000E+03-5.000000000E+01+
*       -5.000000000E+01               0
GRID*             103942               04.3000000000E+03-5.000000000E+01+
*       -5.000000000E+01               0
GRID*             103943               04.2900000000E+03-5.000000000E+01+
*       -5.000000000E+01               0
GRID*             103944               04.2800000000E+03-5.000000000E+01+
*       -5.000000000E+01               0
GRID*             103945               04.2700000000E+03-5.000000000E+01+
*       -5.000000000E+01               0
GRID*             103946               04.2600000000E+03-5.000000000E+01+
*       -5.000000000E+01               0
GRID*             103947               04.2500000000E+03-5.000000000E+01+
*       -5.000000000E+01               0
GRID*             103948               04.2400000000E+03-5.000000000E+01+
*       -5.000000000E+01               0
GRID*             103949               04.2300000000E+03-5.000000000E+01+
*       -5.000000000E+01               0
GRID*             103950               04.2200000000E+03-5.000000000E+01+
*       -5.000000000E+01               0
GRID*             103951               04.2100000000E+03-5.000000000E+01+
*       -5.000000000E+01               0
GRID*             103952               04.2000000000E+03-5.000000000E+01+
*       -5.000000000E+01               0
GRID*             103953               04.1900000000E+03-5.000000000E+01+
*       -5.000000000E+01               0
GRID*             103954               04.1800000000E+03-5.000000000E+01+
*       -5.000000000E+01               0
GRID*             103955               04.1700000000E+03-5.000000000E+01+
*       -5.000000000E+01               0
GRID*             103956               04.1600000000E+03-5.000000000E+01+
*       -5.000000000E+01               0
GRID*             103957               04.1500000000E+03-5.000000000E+01+
*       -5.000000000E+01               0
GRID*             103958               04.1400000000E+03-5.000000000E+01+
*       -5.000000000E+01               0
GRID*             103959               04.1300000000E+03-5.000000000E+01+
*       -5.000000000E+01               0
GRID*             103960               04.1200000000E+03-5.000000000E+01+
*       -5.000000000E+01               0
GRID*             103961               04.1100000000E+03-5.000000000E+01+
*       -5.000000000E+01               0
GRID*             103962               04.1000000000E+03-5.000000000E+01+
*       -5.000000000E+01               0
GRID*             103963               04.0900000000E+03-5.000000000E+01+
*       -5.000000000E+01               0
GRID*             103964               04.0800000000E+03-5.000000000E+01+
*       -5.000000000E+01               0
GRID*             103965               04.0700000000E+03-5.000000000E+01+
*       -5.000000000E+01               0
GRID*             103966               04.0600000000E+03-5.000000000E+01+
*       -5.000000000E+01               0
GRID*             103967               04.0500000000E+03-5.000000000E+01+
*       -5.000000000E+01               0
GRID*             103968               04.0400000000E+03-5.000000000E+01+
*       -5.000000000E+01               0
GRID*             103969               04.0300000000E+03-5.000000000E+01+
*       -5.000000000E+01               0
GRID*             103970               04.0200000000E+03-5.000000000E+01+
*       -5.000000000E+01               0
GRID*             103971               04.0100000000E+03-5.000000000E+01+
*       -5.000000000E+01               0
GRID*             103972               06.9900000000E+035.0000000000E+01+
*       -5.000000000E+01               0
GRID*             103973               06.9800000000E+035.0000000000E+01+
*       -5.000000000E+01               0
GRID*             103974               06.9700000000E+035.0000000000E+01+
*       -5.000000000E+01               0
GRID*             103975               06.9600000000E+035.0000000000E+01+
*       -5.000000000E+01               0
GRID*             103976               06.9500000000E+035.0000000000E+01+
*       -5.000000000E+01               0
GRID*             103977               06.9400000000E+035.0000000000E+01+
*       -5.000000000E+01               0
GRID*             103978               06.9300000000E+035.0000000000E+01+
*       -5.000000000E+01               0
GRID*             103979               06.9200000000E+035.0000000000E+01+
*       -5.000000000E+01               0
GRID*             103980               06.9100000000E+035.0000000000E+01+
*       -5.000000000E+01               0
GRID*             103981               06.9000000000E+035.0000000000E+01+
*       -5.000000000E+01               0
GRID*             103982               06.8900000000E+035.0000000000E+01+
*       -5.000000000E+01               0
GRID*             103983               06.8800000000E+035.0000000000E+01+
*       -5.000000000E+01               0
GRID*             103984               06.8700000000E+035.0000000000E+01+
*       -5.000000000E+01               0
GRID*             103985               06.8600000000E+035.0000000000E+01+
*       -5.000000000E+01               0
GRID*             103986               06.8500000000E+035.0000000000E+01+
*       -5.000000000E+01               0
GRID*             103987               06.8400000000E+035.0000000000E+01+
*       -5.000000000E+01               0
GRID*             103988               06.8300000000E+035.0000000000E+01+
*       -5.000000000E+01               0
GRID*             103989               06.8200000000E+035.0000000000E+01+
*       -5.000000000E+01               0
GRID*             103990               06.8100000000E+035.0000000000E+01+
*       -5.000000000E+01               0
GRID*             103991               06.8000000000E+035.0000000000E+01+
*       -5.000000000E+01               0
GRID*             103992               06.7900000000E+035.0000000000E+01+
*       -5.000000000E+01               0
GRID*             103993               06.7800000000E+035.0000000000E+01+
*       -5.000000000E+01               0
GRID*             103994               06.7700000000E+035.0000000000E+01+
*       -5.000000000E+01               0
GRID*             103995               06.7600000000E+035.0000000000E+01+
*       -5.000000000E+01               0
GRID*             103996               06.7500000000E+035.0000000000E+01+
*       -5.000000000E+01               0
GRID*             103997               06.7400000000E+035.0000000000E+01+
*       -5.000000000E+01               0
GRID*             103998               06.7300000000E+035.0000000000E+01+
*       -5.000000000E+01               0
GRID*             103999               06.7200000000E+035.0000000000E+01+
*       -5.000000000E+01               0
GRID*             104000               06.7100000000E+035.0000000000E+01+
*       -5.000000000E+01               0
GRID*             104001               06.7000000000E+035.0000000000E+01+
*       -5.000000000E+01               0
GRID*             104002               06.6900000000E+035.0000000000E+01+
*       -5.000000000E+01               0
GRID*             104003               06.6800000000E+035.0000000000E+01+
*       -5.000000000E+01               0
GRID*             104004               06.6700000000E+035.0000000000E+01+
*       -5.000000000E+01               0
GRID*             104005               06.6600000000E+035.0000000000E+01+
*       -5.000000000E+01               0
GRID*             104006               06.6500000000E+035.0000000000E+01+
*       -5.000000000E+01               0
GRID*             104007               06.6400000000E+035.0000000000E+01+
*       -5.000000000E+01               0
GRID*             104008               06.6300000000E+035.0000000000E+01+
*       -5.000000000E+01               0
GRID*             104009               06.6200000000E+035.0000000000E+01+
*       -5.000000000E+01               0
GRID*             104010               06.6100000000E+035.0000000000E+01+
*       -5.000000000E+01               0
GRID*             104011               06.6000000000E+035.0000000000E+01+
*       -5.000000000E+01               0
GRID*             104012               06.5900000000E+035.0000000000E+01+
*       -5.000000000E+01               0
GRID*             104013               06.5800000000E+035.0000000000E+01+
*       -5.000000000E+01               0
GRID*             104014               06.5700000000E+035.0000000000E+01+
*       -5.000000000E+01               0
GRID*             104015               06.5600000000E+035.0000000000E+01+
*       -5.000000000E+01               0
GRID*             104016               06.5500000000E+035.0000000000E+01+
*       -5.000000000E+01               0
GRID*             104017               06.5400000000E+035.0000000000E+01+
*       -5.000000000E+01               0
GRID*             104018               06.5300000000E+035.0000000000E+01+
*       -5.000000000E+01               0
GRID*             104019               06.5200000000E+035.0000000000E+01+
*       -5.000000000E+01               0
GRID*             104020               06.5100000000E+035.0000000000E+01+
*       -5.000000000E+01               0
GRID*             104021               06.5000000000E+035.0000000000E+01+
*       -5.000000000E+01               0
GRID*             104022               06.4900000000E+035.0000000000E+01+
*       -5.000000000E+01               0
GRID*             104023               06.4800000000E+035.0000000000E+01+
*       -5.000000000E+01               0
GRID*             104024               06.4700000000E+035.0000000000E+01+
*       -5.000000000E+01               0
GRID*             104025               06.4600000000E+035.0000000000E+01+
*       -5.000000000E+01               0
GRID*             104026               06.4500000000E+035.0000000000E+01+
*       -5.000000000E+01               0
GRID*             104027               06.4400000000E+035.0000000000E+01+
*       -5.000000000E+01               0
GRID*             104028               06.4300000000E+035.0000000000E+01+
*       -5.000000000E+01               0
GRID*             104029               06.4200000000E+035.0000000000E+01+
*       -5.000000000E+01               0
GRID*             104030               06.4100000000E+035.0000000000E+01+
*       -5.000000000E+01               0
GRID*             104031               06.4000000000E+035.0000000000E+01+
*       -5.000000000E+01               0
GRID*             104032               06.3900000000E+035.0000000000E+01+
*       -5.000000000E+01               0
GRID*             104033               06.3800000000E+035.0000000000E+01+
*       -5.000000000E+01               0
GRID*             104034               06.3700000000E+035.0000000000E+01+
*       -5.000000000E+01               0
GRID*             104035               06.3600000000E+035.0000000000E+01+
*       -5.000000000E+01               0
GRID*             104036               06.3500000000E+035.0000000000E+01+
*       -5.000000000E+01               0
GRID*             104037               06.3400000000E+035.0000000000E+01+
*       -5.000000000E+01               0
GRID*             104038               06.3300000000E+035.0000000000E+01+
*       -5.000000000E+01               0
GRID*             104039               06.3200000000E+035.0000000000E+01+
*       -5.000000000E+01               0
GRID*             104040               06.3100000000E+035.0000000000E+01+
*       -5.000000000E+01               0
GRID*             104041               06.3000000000E+035.0000000000E+01+
*       -5.000000000E+01               0
GRID*             104042               06.2900000000E+035.0000000000E+01+
*       -5.000000000E+01               0
GRID*             104043               06.2800000000E+035.0000000000E+01+
*       -5.000000000E+01               0
GRID*             104044               06.2700000000E+035.0000000000E+01+
*       -5.000000000E+01               0
GRID*             104045               06.2600000000E+035.0000000000E+01+
*       -5.000000000E+01               0
GRID*             104046               06.2500000000E+035.0000000000E+01+
*       -5.000000000E+01               0
GRID*             104047               06.2400000000E+035.0000000000E+01+
*       -5.000000000E+01               0
GRID*             104048               06.2300000000E+035.0000000000E+01+
*       -5.000000000E+01               0
GRID*             104049               06.2200000000E+035.0000000000E+01+
*       -5.000000000E+01               0
GRID*             104050               06.2100000000E+035.0000000000E+01+
*       -5.000000000E+01               0
GRID*             104051               06.2000000000E+035.0000000000E+01+
*       -5.000000000E+01               0
GRID*             104052               06.1900000000E+035.0000000000E+01+
*       -5.000000000E+01               0
GRID*             104053               06.1800000000E+035.0000000000E+01+
*       -5.000000000E+01               0
GRID*             104054               06.1700000000E+035.0000000000E+01+
*       -5.000000000E+01               0
GRID*             104055               06.1600000000E+035.0000000000E+01+
*       -5.000000000E+01               0
GRID*             104056               06.1500000000E+035.0000000000E+01+
*       -5.000000000E+01               0
GRID*             104057               06.1400000000E+035.0000000000E+01+
*       -5.000000000E+01               0
GRID*             104058               06.1300000000E+035.0000000000E+01+
*       -5.000000000E+01               0
GRID*             104059               06.1200000000E+035.0000000000E+01+
*       -5.000000000E+01               0
GRID*             104060               06.1100000000E+035.0000000000E+01+
*       -5.000000000E+01               0
GRID*             104061               06.1000000000E+035.0000000000E+01+
*       -5.000000000E+01               0
GRID*             104062               06.0900000000E+035.0000000000E+01+
*       -5.000000000E+01               0
GRID*             104063               06.0800000000E+035.0000000000E+01+
*       -5.000000000E+01               0
GRID*             104064               06.0700000000E+035.0000000000E+01+
*       -5.000000000E+01               0
GRID*             104065               06.0600000000E+035.0000000000E+01+
*       -5.000000000E+01               0
GRID*             104066               06.0500000000E+035.0000000000E+01+
*       -5.000000000E+01               0
GRID*             104067               06.0400000000E+035.0000000000E+01+
*       -5.000000000E+01               0
GRID*             104068               06.0300000000E+035.0000000000E+01+
*       -5.000000000E+01               0
GRID*             104069               06.0200000000E+035.0000000000E+01+
*       -5.000000000E+01               0
GRID*             104070               06.0100000000E+035.0000000000E+01+
*       -5.000000000E+01               0
GRID*             104071               06.0000000000E+035.0000000000E+01+
*       -5.000000000E+01               0
GRID*             104072               05.9900000000E+035.0000000000E+01+
*       -5.000000000E+01               0
GRID*             104073               05.9800000000E+035.0000000000E+01+
*       -5.000000000E+01               0
GRID*             104074               05.9700000000E+035.0000000000E+01+
*       -5.000000000E+01               0
GRID*             104075               05.9600000000E+035.0000000000E+01+
*       -5.000000000E+01               0
GRID*             104076               05.9500000000E+035.0000000000E+01+
*       -5.000000000E+01               0
GRID*             104077               05.9400000000E+035.0000000000E+01+
*       -5.000000000E+01               0
GRID*             104078               05.9300000000E+035.0000000000E+01+
*       -5.000000000E+01               0
GRID*             104079               05.9200000000E+035.0000000000E+01+
*       -5.000000000E+01               0
GRID*             104080               05.9100000000E+035.0000000000E+01+
*       -5.000000000E+01               0
GRID*             104081               05.9000000000E+035.0000000000E+01+
*       -5.000000000E+01               0
GRID*             104082               05.8900000000E+035.0000000000E+01+
*       -5.000000000E+01               0
GRID*             104083               05.8800000000E+035.0000000000E+01+
*       -5.000000000E+01               0
GRID*             104084               05.8700000000E+035.0000000000E+01+
*       -5.000000000E+01               0
GRID*             104085               05.8600000000E+035.0000000000E+01+
*       -5.000000000E+01               0
GRID*             104086               05.8500000000E+035.0000000000E+01+
*       -5.000000000E+01               0
GRID*             104087               05.8400000000E+035.0000000000E+01+
*       -5.000000000E+01               0
GRID*             104088               05.8300000000E+035.0000000000E+01+
*       -5.000000000E+01               0
GRID*             104089               05.8200000000E+035.0000000000E+01+
*       -5.000000000E+01               0
GRID*             104090               05.8100000000E+035.0000000000E+01+
*       -5.000000000E+01               0
GRID*             104091               05.8000000000E+035.0000000000E+01+
*       -5.000000000E+01               0
GRID*             104092               05.7900000000E+035.0000000000E+01+
*       -5.000000000E+01               0
GRID*             104093               05.7800000000E+035.0000000000E+01+
*       -5.000000000E+01               0
GRID*             104094               05.7700000000E+035.0000000000E+01+
*       -5.000000000E+01               0
GRID*             104095               05.7600000000E+035.0000000000E+01+
*       -5.000000000E+01               0
GRID*             104096               05.7500000000E+035.0000000000E+01+
*       -5.000000000E+01               0
GRID*             104097               05.7400000000E+035.0000000000E+01+
*       -5.000000000E+01               0
GRID*             104098               05.7300000000E+035.0000000000E+01+
*       -5.000000000E+01               0
GRID*             104099               05.7200000000E+035.0000000000E+01+
*       -5.000000000E+01               0
GRID*             104100               05.7100000000E+035.0000000000E+01+
*       -5.000000000E+01               0
GRID*             104101               05.7000000000E+035.0000000000E+01+
*       -5.000000000E+01               0
GRID*             104102               05.6900000000E+035.0000000000E+01+
*       -5.000000000E+01               0
GRID*             104103               05.6800000000E+035.0000000000E+01+
*       -5.000000000E+01               0
GRID*             104104               05.6700000000E+035.0000000000E+01+
*       -5.000000000E+01               0
GRID*             104105               05.6600000000E+035.0000000000E+01+
*       -5.000000000E+01               0
GRID*             104106               05.6500000000E+035.0000000000E+01+
*       -5.000000000E+01               0
GRID*             104107               05.6400000000E+035.0000000000E+01+
*       -5.000000000E+01               0
GRID*             104108               05.6300000000E+035.0000000000E+01+
*       -5.000000000E+01               0
GRID*             104109               05.6200000000E+035.0000000000E+01+
*       -5.000000000E+01               0
GRID*             104110               05.6100000000E+035.0000000000E+01+
*       -5.000000000E+01               0
GRID*             104111               05.6000000000E+035.0000000000E+01+
*       -5.000000000E+01               0
GRID*             104112               05.5900000000E+035.0000000000E+01+
*       -5.000000000E+01               0
GRID*             104113               05.5800000000E+035.0000000000E+01+
*       -5.000000000E+01               0
GRID*             104114               05.5700000000E+035.0000000000E+01+
*       -5.000000000E+01               0
GRID*             104115               05.5600000000E+035.0000000000E+01+
*       -5.000000000E+01               0
GRID*             104116               05.5500000000E+035.0000000000E+01+
*       -5.000000000E+01               0
GRID*             104117               05.5400000000E+035.0000000000E+01+
*       -5.000000000E+01               0
GRID*             104118               05.5300000000E+035.0000000000E+01+
*       -5.000000000E+01               0
GRID*             104119               05.5200000000E+035.0000000000E+01+
*       -5.000000000E+01               0
GRID*             104120               05.5100000000E+035.0000000000E+01+
*       -5.000000000E+01               0
GRID*             104121               05.5000000000E+035.0000000000E+01+
*       -5.000000000E+01               0
GRID*             104122               05.4900000000E+035.0000000000E+01+
*       -5.000000000E+01               0
GRID*             104123               05.4800000000E+035.0000000000E+01+
*       -5.000000000E+01               0
GRID*             104124               05.4700000000E+035.0000000000E+01+
*       -5.000000000E+01               0
GRID*             104125               05.4600000000E+035.0000000000E+01+
*       -5.000000000E+01               0
GRID*             104126               05.4500000000E+035.0000000000E+01+
*       -5.000000000E+01               0
GRID*             104127               05.4400000000E+035.0000000000E+01+
*       -5.000000000E+01               0
GRID*             104128               05.4300000000E+035.0000000000E+01+
*       -5.000000000E+01               0
GRID*             104129               05.4200000000E+035.0000000000E+01+
*       -5.000000000E+01               0
GRID*             104130               05.4100000000E+035.0000000000E+01+
*       -5.000000000E+01               0
GRID*             104131               05.4000000000E+035.0000000000E+01+
*       -5.000000000E+01               0
GRID*             104132               05.3900000000E+035.0000000000E+01+
*       -5.000000000E+01               0
GRID*             104133               05.3800000000E+035.0000000000E+01+
*       -5.000000000E+01               0
GRID*             104134               05.3700000000E+035.0000000000E+01+
*       -5.000000000E+01               0
GRID*             104135               05.3600000000E+035.0000000000E+01+
*       -5.000000000E+01               0
GRID*             104136               05.3500000000E+035.0000000000E+01+
*       -5.000000000E+01               0
GRID*             104137               05.3400000000E+035.0000000000E+01+
*       -5.000000000E+01               0
GRID*             104138               05.3300000000E+035.0000000000E+01+
*       -5.000000000E+01               0
GRID*             104139               05.3200000000E+035.0000000000E+01+
*       -5.000000000E+01               0
GRID*             104140               05.3100000000E+035.0000000000E+01+
*       -5.000000000E+01               0
GRID*             104141               05.3000000000E+035.0000000000E+01+
*       -5.000000000E+01               0
GRID*             104142               05.2900000000E+035.0000000000E+01+
*       -5.000000000E+01               0
GRID*             104143               05.2800000000E+035.0000000000E+01+
*       -5.000000000E+01               0
GRID*             104144               05.2700000000E+035.0000000000E+01+
*       -5.000000000E+01               0
GRID*             104145               05.2600000000E+035.0000000000E+01+
*       -5.000000000E+01               0
GRID*             104146               05.2500000000E+035.0000000000E+01+
*       -5.000000000E+01               0
GRID*             104147               05.2400000000E+035.0000000000E+01+
*       -5.000000000E+01               0
GRID*             104148               05.2300000000E+035.0000000000E+01+
*       -5.000000000E+01               0
GRID*             104149               05.2200000000E+035.0000000000E+01+
*       -5.000000000E+01               0
GRID*             104150               05.2100000000E+035.0000000000E+01+
*       -5.000000000E+01               0
GRID*             104151               05.2000000000E+035.0000000000E+01+
*       -5.000000000E+01               0
GRID*             104152               05.1900000000E+035.0000000000E+01+
*       -5.000000000E+01               0
GRID*             104153               05.1800000000E+035.0000000000E+01+
*       -5.000000000E+01               0
GRID*             104154               05.1700000000E+035.0000000000E+01+
*       -5.000000000E+01               0
GRID*             104155               05.1600000000E+035.0000000000E+01+
*       -5.000000000E+01               0
GRID*             104156               05.1500000000E+035.0000000000E+01+
*       -5.000000000E+01               0
GRID*             104157               05.1400000000E+035.0000000000E+01+
*       -5.000000000E+01               0
GRID*             104158               05.1300000000E+035.0000000000E+01+
*       -5.000000000E+01               0
GRID*             104159               05.1200000000E+035.0000000000E+01+
*       -5.000000000E+01               0
GRID*             104160               05.1100000000E+035.0000000000E+01+
*       -5.000000000E+01               0
GRID*             104161               05.1000000000E+035.0000000000E+01+
*       -5.000000000E+01               0
GRID*             104162               05.0900000000E+035.0000000000E+01+
*       -5.000000000E+01               0
GRID*             104163               05.0800000000E+035.0000000000E+01+
*       -5.000000000E+01               0
GRID*             104164               05.0700000000E+035.0000000000E+01+
*       -5.000000000E+01               0
GRID*             104165               05.0600000000E+035.0000000000E+01+
*       -5.000000000E+01               0
GRID*             104166               05.0500000000E+035.0000000000E+01+
*       -5.000000000E+01               0
GRID*             104167               05.0400000000E+035.0000000000E+01+
*       -5.000000000E+01               0
GRID*             104168               05.0300000000E+035.0000000000E+01+
*       -5.000000000E+01               0
GRID*             104169               05.0200000000E+035.0000000000E+01+
*       -5.000000000E+01               0
GRID*             104170               05.0100000000E+035.0000000000E+01+
*       -5.000000000E+01               0
GRID*             104171               05.0000000000E+035.0000000000E+01+
*       -5.000000000E+01               0
GRID*             104172               04.9900000000E+035.0000000000E+01+
*       -5.000000000E+01               0
GRID*             104173               04.9800000000E+035.0000000000E+01+
*       -5.000000000E+01               0
GRID*             104174               04.9700000000E+035.0000000000E+01+
*       -5.000000000E+01               0
GRID*             104175               04.9600000000E+035.0000000000E+01+
*       -5.000000000E+01               0
GRID*             104176               04.9500000000E+035.0000000000E+01+
*       -5.000000000E+01               0
GRID*             104177               04.9400000000E+035.0000000000E+01+
*       -5.000000000E+01               0
GRID*             104178               04.9300000000E+035.0000000000E+01+
*       -5.000000000E+01               0
GRID*             104179               04.9200000000E+035.0000000000E+01+
*       -5.000000000E+01               0
GRID*             104180               04.9100000000E+035.0000000000E+01+
*       -5.000000000E+01               0
GRID*             104181               04.9000000000E+035.0000000000E+01+
*       -5.000000000E+01               0
GRID*             104182               04.8900000000E+035.0000000000E+01+
*       -5.000000000E+01               0
GRID*             104183               04.8800000000E+035.0000000000E+01+
*       -5.000000000E+01               0
GRID*             104184               04.8700000000E+035.0000000000E+01+
*       -5.000000000E+01               0
GRID*             104185               04.8600000000E+035.0000000000E+01+
*       -5.000000000E+01               0
GRID*             104186               04.8500000000E+035.0000000000E+01+
*       -5.000000000E+01               0
GRID*             104187               04.8400000000E+035.0000000000E+01+
*       -5.000000000E+01               0
GRID*             104188               04.8300000000E+035.0000000000E+01+
*       -5.000000000E+01               0
GRID*             104189               04.8200000000E+035.0000000000E+01+
*       -5.000000000E+01               0
GRID*             104190               04.8100000000E+035.0000000000E+01+
*       -5.000000000E+01               0
GRID*             104191               04.8000000000E+035.0000000000E+01+
*       -5.000000000E+01               0
GRID*             104192               04.7900000000E+035.0000000000E+01+
*       -5.000000000E+01               0
GRID*             104193               04.7800000000E+035.0000000000E+01+
*       -5.000000000E+01               0
GRID*             104194               04.7700000000E+035.0000000000E+01+
*       -5.000000000E+01               0
GRID*             104195               04.7600000000E+035.0000000000E+01+
*       -5.000000000E+01               0
GRID*             104196               04.7500000000E+035.0000000000E+01+
*       -5.000000000E+01               0
GRID*             104197               04.7400000000E+035.0000000000E+01+
*       -5.000000000E+01               0
GRID*             104198               04.7300000000E+035.0000000000E+01+
*       -5.000000000E+01               0
GRID*             104199               04.7200000000E+035.0000000000E+01+
*       -5.000000000E+01               0
GRID*             104200               04.7100000000E+035.0000000000E+01+
*       -5.000000000E+01               0
GRID*             104201               04.7000000000E+035.0000000000E+01+
*       -5.000000000E+01               0
GRID*             104202               04.6900000000E+035.0000000000E+01+
*       -5.000000000E+01               0
GRID*             104203               04.6800000000E+035.0000000000E+01+
*       -5.000000000E+01               0
GRID*             104204               04.6700000000E+035.0000000000E+01+
*       -5.000000000E+01               0
GRID*             104205               04.6600000000E+035.0000000000E+01+
*       -5.000000000E+01               0
GRID*             104206               04.6500000000E+035.0000000000E+01+
*       -5.000000000E+01               0
GRID*             104207               04.6400000000E+035.0000000000E+01+
*       -5.000000000E+01               0
GRID*             104208               04.6300000000E+035.0000000000E+01+
*       -5.000000000E+01               0
GRID*             104209               04.6200000000E+035.0000000000E+01+
*       -5.000000000E+01               0
GRID*             104210               04.6100000000E+035.0000000000E+01+
*       -5.000000000E+01               0
GRID*             104211               04.6000000000E+035.0000000000E+01+
*       -5.000000000E+01               0
GRID*             104212               04.5900000000E+035.0000000000E+01+
*       -5.000000000E+01               0
GRID*             104213               04.5800000000E+035.0000000000E+01+
*       -5.000000000E+01               0
GRID*             104214               04.5700000000E+035.0000000000E+01+
*       -5.000000000E+01               0
GRID*             104215               04.5600000000E+035.0000000000E+01+
*       -5.000000000E+01               0
GRID*             104216               04.5500000000E+035.0000000000E+01+
*       -5.000000000E+01               0
GRID*             104217               04.5400000000E+035.0000000000E+01+
*       -5.000000000E+01               0
GRID*             104218               04.5300000000E+035.0000000000E+01+
*       -5.000000000E+01               0
GRID*             104219               04.5200000000E+035.0000000000E+01+
*       -5.000000000E+01               0
GRID*             104220               04.5100000000E+035.0000000000E+01+
*       -5.000000000E+01               0
GRID*             104221               04.5000000000E+035.0000000000E+01+
*       -5.000000000E+01               0
GRID*             104222               04.4900000000E+035.0000000000E+01+
*       -5.000000000E+01               0
GRID*             104223               04.4800000000E+035.0000000000E+01+
*       -5.000000000E+01               0
GRID*             104224               04.4700000000E+035.0000000000E+01+
*       -5.000000000E+01               0
GRID*             104225               04.4600000000E+035.0000000000E+01+
*       -5.000000000E+01               0
GRID*             104226               04.4500000000E+035.0000000000E+01+
*       -5.000000000E+01               0
GRID*             104227               04.4400000000E+035.0000000000E+01+
*       -5.000000000E+01               0
GRID*             104228               04.4300000000E+035.0000000000E+01+
*       -5.000000000E+01               0
GRID*             104229               04.4200000000E+035.0000000000E+01+
*       -5.000000000E+01               0
GRID*             104230               04.4100000000E+035.0000000000E+01+
*       -5.000000000E+01               0
GRID*             104231               04.4000000000E+035.0000000000E+01+
*       -5.000000000E+01               0
GRID*             104232               04.3900000000E+035.0000000000E+01+
*       -5.000000000E+01               0
GRID*             104233               04.3800000000E+035.0000000000E+01+
*       -5.000000000E+01               0
GRID*             104234               04.3700000000E+035.0000000000E+01+
*       -5.000000000E+01               0
GRID*             104235               04.3600000000E+035.0000000000E+01+
*       -5.000000000E+01               0
GRID*             104236               04.3500000000E+035.0000000000E+01+
*       -5.000000000E+01               0
GRID*             104237               04.3400000000E+035.0000000000E+01+
*       -5.000000000E+01               0
GRID*             104238               04.3300000000E+035.0000000000E+01+
*       -5.000000000E+01               0
GRID*             104239               04.3200000000E+035.0000000000E+01+
*       -5.000000000E+01               0
GRID*             104240               04.3100000000E+035.0000000000E+01+
*       -5.000000000E+01               0
GRID*             104241               04.3000000000E+035.0000000000E+01+
*       -5.000000000E+01               0
GRID*             104242               04.2900000000E+035.0000000000E+01+
*       -5.000000000E+01               0
GRID*             104243               04.2800000000E+035.0000000000E+01+
*       -5.000000000E+01               0
GRID*             104244               04.2700000000E+035.0000000000E+01+
*       -5.000000000E+01               0
GRID*             104245               04.2600000000E+035.0000000000E+01+
*       -5.000000000E+01               0
GRID*             104246               04.2500000000E+035.0000000000E+01+
*       -5.000000000E+01               0
GRID*             104247               04.2400000000E+035.0000000000E+01+
*       -5.000000000E+01               0
GRID*             104248               04.2300000000E+035.0000000000E+01+
*       -5.000000000E+01               0
GRID*             104249               04.2200000000E+035.0000000000E+01+
*       -5.000000000E+01               0
GRID*             104250               04.2100000000E+035.0000000000E+01+
*       -5.000000000E+01               0
GRID*             104251               04.2000000000E+035.0000000000E+01+
*       -5.000000000E+01               0
GRID*             104252               04.1900000000E+035.0000000000E+01+
*       -5.000000000E+01               0
GRID*             104253               04.1800000000E+035.0000000000E+01+
*       -5.000000000E+01               0
GRID*             104254               04.1700000000E+035.0000000000E+01+
*       -5.000000000E+01               0
GRID*             104255               04.1600000000E+035.0000000000E+01+
*       -5.000000000E+01               0
GRID*             104256               04.1500000000E+035.0000000000E+01+
*       -5.000000000E+01               0
GRID*             104257               04.1400000000E+035.0000000000E+01+
*       -5.000000000E+01               0
GRID*             104258               04.1300000000E+035.0000000000E+01+
*       -5.000000000E+01               0
GRID*             104259               04.1200000000E+035.0000000000E+01+
*       -5.000000000E+01               0
GRID*             104260               04.1100000000E+035.0000000000E+01+
*       -5.000000000E+01               0
GRID*             104261               04.1000000000E+035.0000000000E+01+
*       -5.000000000E+01               0
GRID*             104262               04.0900000000E+035.0000000000E+01+
*       -5.000000000E+01               0
GRID*             104263               04.0800000000E+035.0000000000E+01+
*       -5.000000000E+01               0
GRID*             104264               04.0700000000E+035.0000000000E+01+
*       -5.000000000E+01               0
GRID*             104265               04.0600000000E+035.0000000000E+01+
*       -5.000000000E+01               0
GRID*             104266               04.0500000000E+035.0000000000E+01+
*       -5.000000000E+01               0
GRID*             104267               04.0400000000E+035.0000000000E+01+
*       -5.000000000E+01               0
GRID*             104268               04.0300000000E+035.0000000000E+01+
*       -5.000000000E+01               0
GRID*             104269               04.0200000000E+035.0000000000E+01+
*       -5.000000000E+01               0
GRID*             104270               04.0100000000E+035.0000000000E+01+
*       -5.000000000E+01               0
GRID*             104271               06.9900000000E+035.0000000000E+01+
*       5.0000000000E+01               0
GRID*             104272               06.9800000000E+035.0000000000E+01+
*       5.0000000000E+01               0
GRID*             104273               06.9700000000E+035.0000000000E+01+
*       5.0000000000E+01               0
GRID*             104274               06.9600000000E+035.0000000000E+01+
*       5.0000000000E+01               0
GRID*             104275               06.9500000000E+035.0000000000E+01+
*       5.0000000000E+01               0
GRID*             104276               06.9400000000E+035.0000000000E+01+
*       5.0000000000E+01               0
GRID*             104277               06.9300000000E+035.0000000000E+01+
*       5.0000000000E+01               0
GRID*             104278               06.9200000000E+035.0000000000E+01+
*       5.0000000000E+01               0
GRID*             104279               06.9100000000E+035.0000000000E+01+
*       5.0000000000E+01               0
GRID*             104280               06.9000000000E+035.0000000000E+01+
*       5.0000000000E+01               0
GRID*             104281               06.8900000000E+035.0000000000E+01+
*       5.0000000000E+01               0
GRID*             104282               06.8800000000E+035.0000000000E+01+
*       5.0000000000E+01               0
GRID*             104283               06.8700000000E+035.0000000000E+01+
*       5.0000000000E+01               0
GRID*             104284               06.8600000000E+035.0000000000E+01+
*       5.0000000000E+01               0
GRID*             104285               06.8500000000E+035.0000000000E+01+
*       5.0000000000E+01               0
GRID*             104286               06.8400000000E+035.0000000000E+01+
*       5.0000000000E+01               0
GRID*             104287               06.8300000000E+035.0000000000E+01+
*       5.0000000000E+01               0
GRID*             104288               06.8200000000E+035.0000000000E+01+
*       5.0000000000E+01               0
GRID*             104289               06.8100000000E+035.0000000000E+01+
*       5.0000000000E+01               0
GRID*             104290               06.8000000000E+035.0000000000E+01+
*       5.0000000000E+01               0
GRID*             104291               06.7900000000E+035.0000000000E+01+
*       5.0000000000E+01               0
GRID*             104292               06.7800000000E+035.0000000000E+01+
*       5.0000000000E+01               0
GRID*             104293               06.7700000000E+035.0000000000E+01+
*       5.0000000000E+01               0
GRID*             104294               06.7600000000E+035.0000000000E+01+
*       5.0000000000E+01               0
GRID*             104295               06.7500000000E+035.0000000000E+01+
*       5.0000000000E+01               0
GRID*             104296               06.7400000000E+035.0000000000E+01+
*       5.0000000000E+01               0
GRID*             104297               06.7300000000E+035.0000000000E+01+
*       5.0000000000E+01               0
GRID*             104298               06.7200000000E+035.0000000000E+01+
*       5.0000000000E+01               0
GRID*             104299               06.7100000000E+035.0000000000E+01+
*       5.0000000000E+01               0
GRID*             104300               06.7000000000E+035.0000000000E+01+
*       5.0000000000E+01               0
GRID*             104301               06.6900000000E+035.0000000000E+01+
*       5.0000000000E+01               0
GRID*             104302               06.6800000000E+035.0000000000E+01+
*       5.0000000000E+01               0
GRID*             104303               06.6700000000E+035.0000000000E+01+
*       5.0000000000E+01               0
GRID*             104304               06.6600000000E+035.0000000000E+01+
*       5.0000000000E+01               0
GRID*             104305               06.6500000000E+035.0000000000E+01+
*       5.0000000000E+01               0
GRID*             104306               06.6400000000E+035.0000000000E+01+
*       5.0000000000E+01               0
GRID*             104307               06.6300000000E+035.0000000000E+01+
*       5.0000000000E+01               0
GRID*             104308               06.6200000000E+035.0000000000E+01+
*       5.0000000000E+01               0
GRID*             104309               06.6100000000E+035.0000000000E+01+
*       5.0000000000E+01               0
GRID*             104310               06.6000000000E+035.0000000000E+01+
*       5.0000000000E+01               0
GRID*             104311               06.5900000000E+035.0000000000E+01+
*       5.0000000000E+01               0
GRID*             104312               06.5800000000E+035.0000000000E+01+
*       5.0000000000E+01               0
GRID*             104313               06.5700000000E+035.0000000000E+01+
*       5.0000000000E+01               0
GRID*             104314               06.5600000000E+035.0000000000E+01+
*       5.0000000000E+01               0
GRID*             104315               06.5500000000E+035.0000000000E+01+
*       5.0000000000E+01               0
GRID*             104316               06.5400000000E+035.0000000000E+01+
*       5.0000000000E+01               0
GRID*             104317               06.5300000000E+035.0000000000E+01+
*       5.0000000000E+01               0
GRID*             104318               06.5200000000E+035.0000000000E+01+
*       5.0000000000E+01               0
GRID*             104319               06.5100000000E+035.0000000000E+01+
*       5.0000000000E+01               0
GRID*             104320               06.5000000000E+035.0000000000E+01+
*       5.0000000000E+01               0
GRID*             104321               06.4900000000E+035.0000000000E+01+
*       5.0000000000E+01               0
GRID*             104322               06.4800000000E+035.0000000000E+01+
*       5.0000000000E+01               0
GRID*             104323               06.4700000000E+035.0000000000E+01+
*       5.0000000000E+01               0
GRID*             104324               06.4600000000E+035.0000000000E+01+
*       5.0000000000E+01               0
GRID*             104325               06.4500000000E+035.0000000000E+01+
*       5.0000000000E+01               0
GRID*             104326               06.4400000000E+035.0000000000E+01+
*       5.0000000000E+01               0
GRID*             104327               06.4300000000E+035.0000000000E+01+
*       5.0000000000E+01               0
GRID*             104328               06.4200000000E+035.0000000000E+01+
*       5.0000000000E+01               0
GRID*             104329               06.4100000000E+035.0000000000E+01+
*       5.0000000000E+01               0
GRID*             104330               06.4000000000E+035.0000000000E+01+
*       5.0000000000E+01               0
GRID*             104331               06.3900000000E+035.0000000000E+01+
*       5.0000000000E+01               0
GRID*             104332               06.3800000000E+035.0000000000E+01+
*       5.0000000000E+01               0
GRID*             104333               06.3700000000E+035.0000000000E+01+
*       5.0000000000E+01               0
GRID*             104334               06.3600000000E+035.0000000000E+01+
*       5.0000000000E+01               0
GRID*             104335               06.3500000000E+035.0000000000E+01+
*       5.0000000000E+01               0
GRID*             104336               06.3400000000E+035.0000000000E+01+
*       5.0000000000E+01               0
GRID*             104337               06.3300000000E+035.0000000000E+01+
*       5.0000000000E+01               0
GRID*             104338               06.3200000000E+035.0000000000E+01+
*       5.0000000000E+01               0
GRID*             104339               06.3100000000E+035.0000000000E+01+
*       5.0000000000E+01               0
GRID*             104340               06.3000000000E+035.0000000000E+01+
*       5.0000000000E+01               0
GRID*             104341               06.2900000000E+035.0000000000E+01+
*       5.0000000000E+01               0
GRID*             104342               06.2800000000E+035.0000000000E+01+
*       5.0000000000E+01               0
GRID*             104343               06.2700000000E+035.0000000000E+01+
*       5.0000000000E+01               0
GRID*             104344               06.2600000000E+035.0000000000E+01+
*       5.0000000000E+01               0
GRID*             104345               06.2500000000E+035.0000000000E+01+
*       5.0000000000E+01               0
GRID*             104346               06.2400000000E+035.0000000000E+01+
*       5.0000000000E+01               0
GRID*             104347               06.2300000000E+035.0000000000E+01+
*       5.0000000000E+01               0
GRID*             104348               06.2200000000E+035.0000000000E+01+
*       5.0000000000E+01               0
GRID*             104349               06.2100000000E+035.0000000000E+01+
*       5.0000000000E+01               0
GRID*             104350               06.2000000000E+035.0000000000E+01+
*       5.0000000000E+01               0
GRID*             104351               06.1900000000E+035.0000000000E+01+
*       5.0000000000E+01               0
GRID*             104352               06.1800000000E+035.0000000000E+01+
*       5.0000000000E+01               0
GRID*             104353               06.1700000000E+035.0000000000E+01+
*       5.0000000000E+01               0
GRID*             104354               06.1600000000E+035.0000000000E+01+
*       5.0000000000E+01               0
GRID*             104355               06.1500000000E+035.0000000000E+01+
*       5.0000000000E+01               0
GRID*             104356               06.1400000000E+035.0000000000E+01+
*       5.0000000000E+01               0
GRID*             104357               06.1300000000E+035.0000000000E+01+
*       5.0000000000E+01               0
GRID*             104358               06.1200000000E+035.0000000000E+01+
*       5.0000000000E+01               0
GRID*             104359               06.1100000000E+035.0000000000E+01+
*       5.0000000000E+01               0
GRID*             104360               06.1000000000E+035.0000000000E+01+
*       5.0000000000E+01               0
GRID*             104361               06.0900000000E+035.0000000000E+01+
*       5.0000000000E+01               0
GRID*             104362               06.0800000000E+035.0000000000E+01+
*       5.0000000000E+01               0
GRID*             104363               06.0700000000E+035.0000000000E+01+
*       5.0000000000E+01               0
GRID*             104364               06.0600000000E+035.0000000000E+01+
*       5.0000000000E+01               0
GRID*             104365               06.0500000000E+035.0000000000E+01+
*       5.0000000000E+01               0
GRID*             104366               06.0400000000E+035.0000000000E+01+
*       5.0000000000E+01               0
GRID*             104367               06.0300000000E+035.0000000000E+01+
*       5.0000000000E+01               0
GRID*             104368               06.0200000000E+035.0000000000E+01+
*       5.0000000000E+01               0
GRID*             104369               06.0100000000E+035.0000000000E+01+
*       5.0000000000E+01               0
GRID*             104370               06.0000000000E+035.0000000000E+01+
*       5.0000000000E+01               0
GRID*             104371               05.9900000000E+035.0000000000E+01+
*       5.0000000000E+01               0
GRID*             104372               05.9800000000E+035.0000000000E+01+
*       5.0000000000E+01               0
GRID*             104373               05.9700000000E+035.0000000000E+01+
*       5.0000000000E+01               0
GRID*             104374               05.9600000000E+035.0000000000E+01+
*       5.0000000000E+01               0
GRID*             104375               05.9500000000E+035.0000000000E+01+
*       5.0000000000E+01               0
GRID*             104376               05.9400000000E+035.0000000000E+01+
*       5.0000000000E+01               0
GRID*             104377               05.9300000000E+035.0000000000E+01+
*       5.0000000000E+01               0
GRID*             104378               05.9200000000E+035.0000000000E+01+
*       5.0000000000E+01               0
GRID*             104379               05.9100000000E+035.0000000000E+01+
*       5.0000000000E+01               0
GRID*             104380               05.9000000000E+035.0000000000E+01+
*       5.0000000000E+01               0
GRID*             104381               05.8900000000E+035.0000000000E+01+
*       5.0000000000E+01               0
GRID*             104382               05.8800000000E+035.0000000000E+01+
*       5.0000000000E+01               0
GRID*             104383               05.8700000000E+035.0000000000E+01+
*       5.0000000000E+01               0
GRID*             104384               05.8600000000E+035.0000000000E+01+
*       5.0000000000E+01               0
GRID*             104385               05.8500000000E+035.0000000000E+01+
*       5.0000000000E+01               0
GRID*             104386               05.8400000000E+035.0000000000E+01+
*       5.0000000000E+01               0
GRID*             104387               05.8300000000E+035.0000000000E+01+
*       5.0000000000E+01               0
GRID*             104388               05.8200000000E+035.0000000000E+01+
*       5.0000000000E+01               0
GRID*             104389               05.8100000000E+035.0000000000E+01+
*       5.0000000000E+01               0
GRID*             104390               05.8000000000E+035.0000000000E+01+
*       5.0000000000E+01               0
GRID*             104391               05.7900000000E+035.0000000000E+01+
*       5.0000000000E+01               0
GRID*             104392               05.7800000000E+035.0000000000E+01+
*       5.0000000000E+01               0
GRID*             104393               05.7700000000E+035.0000000000E+01+
*       5.0000000000E+01               0
GRID*             104394               05.7600000000E+035.0000000000E+01+
*       5.0000000000E+01               0
GRID*             104395               05.7500000000E+035.0000000000E+01+
*       5.0000000000E+01               0
GRID*             104396               05.7400000000E+035.0000000000E+01+
*       5.0000000000E+01               0
GRID*             104397               05.7300000000E+035.0000000000E+01+
*       5.0000000000E+01               0
GRID*             104398               05.7200000000E+035.0000000000E+01+
*       5.0000000000E+01               0
GRID*             104399               05.7100000000E+035.0000000000E+01+
*       5.0000000000E+01               0
GRID*             104400               05.7000000000E+035.0000000000E+01+
*       5.0000000000E+01               0
GRID*             104401               05.6900000000E+035.0000000000E+01+
*       5.0000000000E+01               0
GRID*             104402               05.6800000000E+035.0000000000E+01+
*       5.0000000000E+01               0
GRID*             104403               05.6700000000E+035.0000000000E+01+
*       5.0000000000E+01               0
GRID*             104404               05.6600000000E+035.0000000000E+01+
*       5.0000000000E+01               0
GRID*             104405               05.6500000000E+035.0000000000E+01+
*       5.0000000000E+01               0
GRID*             104406               05.6400000000E+035.0000000000E+01+
*       5.0000000000E+01               0
GRID*             104407               05.6300000000E+035.0000000000E+01+
*       5.0000000000E+01               0
GRID*             104408               05.6200000000E+035.0000000000E+01+
*       5.0000000000E+01               0
GRID*             104409               05.6100000000E+035.0000000000E+01+
*       5.0000000000E+01               0
GRID*             104410               05.6000000000E+035.0000000000E+01+
*       5.0000000000E+01               0
GRID*             104411               05.5900000000E+035.0000000000E+01+
*       5.0000000000E+01               0
GRID*             104412               05.5800000000E+035.0000000000E+01+
*       5.0000000000E+01               0
GRID*             104413               05.5700000000E+035.0000000000E+01+
*       5.0000000000E+01               0
GRID*             104414               05.5600000000E+035.0000000000E+01+
*       5.0000000000E+01               0
GRID*             104415               05.5500000000E+035.0000000000E+01+
*       5.0000000000E+01               0
GRID*             104416               05.5400000000E+035.0000000000E+01+
*       5.0000000000E+01               0
GRID*             104417               05.5300000000E+035.0000000000E+01+
*       5.0000000000E+01               0
GRID*             104418               05.5200000000E+035.0000000000E+01+
*       5.0000000000E+01               0
GRID*             104419               05.5100000000E+035.0000000000E+01+
*       5.0000000000E+01               0
GRID*             104420               05.5000000000E+035.0000000000E+01+
*       5.0000000000E+01               0
GRID*             104421               05.4900000000E+035.0000000000E+01+
*       5.0000000000E+01               0
GRID*             104422               05.4800000000E+035.0000000000E+01+
*       5.0000000000E+01               0
GRID*             104423               05.4700000000E+035.0000000000E+01+
*       5.0000000000E+01               0
GRID*             104424               05.4600000000E+035.0000000000E+01+
*       5.0000000000E+01               0
GRID*             104425               05.4500000000E+035.0000000000E+01+
*       5.0000000000E+01               0
GRID*             104426               05.4400000000E+035.0000000000E+01+
*       5.0000000000E+01               0
GRID*             104427               05.4300000000E+035.0000000000E+01+
*       5.0000000000E+01               0
GRID*             104428               05.4200000000E+035.0000000000E+01+
*       5.0000000000E+01               0
GRID*             104429               05.4100000000E+035.0000000000E+01+
*       5.0000000000E+01               0
GRID*             104430               05.4000000000E+035.0000000000E+01+
*       5.0000000000E+01               0
GRID*             104431               05.3900000000E+035.0000000000E+01+
*       5.0000000000E+01               0
GRID*             104432               05.3800000000E+035.0000000000E+01+
*       5.0000000000E+01               0
GRID*             104433               05.3700000000E+035.0000000000E+01+
*       5.0000000000E+01               0
GRID*             104434               05.3600000000E+035.0000000000E+01+
*       5.0000000000E+01               0
GRID*             104435               05.3500000000E+035.0000000000E+01+
*       5.0000000000E+01               0
GRID*             104436               05.3400000000E+035.0000000000E+01+
*       5.0000000000E+01               0
GRID*             104437               05.3300000000E+035.0000000000E+01+
*       5.0000000000E+01               0
GRID*             104438               05.3200000000E+035.0000000000E+01+
*       5.0000000000E+01               0
GRID*             104439               05.3100000000E+035.0000000000E+01+
*       5.0000000000E+01               0
GRID*             104440               05.3000000000E+035.0000000000E+01+
*       5.0000000000E+01               0
GRID*             104441               05.2900000000E+035.0000000000E+01+
*       5.0000000000E+01               0
GRID*             104442               05.2800000000E+035.0000000000E+01+
*       5.0000000000E+01               0
GRID*             104443               05.2700000000E+035.0000000000E+01+
*       5.0000000000E+01               0
GRID*             104444               05.2600000000E+035.0000000000E+01+
*       5.0000000000E+01               0
GRID*             104445               05.2500000000E+035.0000000000E+01+
*       5.0000000000E+01               0
GRID*             104446               05.2400000000E+035.0000000000E+01+
*       5.0000000000E+01               0
GRID*             104447               05.2300000000E+035.0000000000E+01+
*       5.0000000000E+01               0
GRID*             104448               05.2200000000E+035.0000000000E+01+
*       5.0000000000E+01               0
GRID*             104449               05.2100000000E+035.0000000000E+01+
*       5.0000000000E+01               0
GRID*             104450               05.2000000000E+035.0000000000E+01+
*       5.0000000000E+01               0
GRID*             104451               05.1900000000E+035.0000000000E+01+
*       5.0000000000E+01               0
GRID*             104452               05.1800000000E+035.0000000000E+01+
*       5.0000000000E+01               0
GRID*             104453               05.1700000000E+035.0000000000E+01+
*       5.0000000000E+01               0
GRID*             104454               05.1600000000E+035.0000000000E+01+
*       5.0000000000E+01               0
GRID*             104455               05.1500000000E+035.0000000000E+01+
*       5.0000000000E+01               0
GRID*             104456               05.1400000000E+035.0000000000E+01+
*       5.0000000000E+01               0
GRID*             104457               05.1300000000E+035.0000000000E+01+
*       5.0000000000E+01               0
GRID*             104458               05.1200000000E+035.0000000000E+01+
*       5.0000000000E+01               0
GRID*             104459               05.1100000000E+035.0000000000E+01+
*       5.0000000000E+01               0
GRID*             104460               05.1000000000E+035.0000000000E+01+
*       5.0000000000E+01               0
GRID*             104461               05.0900000000E+035.0000000000E+01+
*       5.0000000000E+01               0
GRID*             104462               05.0800000000E+035.0000000000E+01+
*       5.0000000000E+01               0
GRID*             104463               05.0700000000E+035.0000000000E+01+
*       5.0000000000E+01               0
GRID*             104464               05.0600000000E+035.0000000000E+01+
*       5.0000000000E+01               0
GRID*             104465               05.0500000000E+035.0000000000E+01+
*       5.0000000000E+01               0
GRID*             104466               05.0400000000E+035.0000000000E+01+
*       5.0000000000E+01               0
GRID*             104467               05.0300000000E+035.0000000000E+01+
*       5.0000000000E+01               0
GRID*             104468               05.0200000000E+035.0000000000E+01+
*       5.0000000000E+01               0
GRID*             104469               05.0100000000E+035.0000000000E+01+
*       5.0000000000E+01               0
GRID*             104470               05.0000000000E+035.0000000000E+01+
*       5.0000000000E+01               0
GRID*             104471               04.9900000000E+035.0000000000E+01+
*       5.0000000000E+01               0
GRID*             104472               04.9800000000E+035.0000000000E+01+
*       5.0000000000E+01               0
GRID*             104473               04.9700000000E+035.0000000000E+01+
*       5.0000000000E+01               0
GRID*             104474               04.9600000000E+035.0000000000E+01+
*       5.0000000000E+01               0
GRID*             104475               04.9500000000E+035.0000000000E+01+
*       5.0000000000E+01               0
GRID*             104476               04.9400000000E+035.0000000000E+01+
*       5.0000000000E+01               0
GRID*             104477               04.9300000000E+035.0000000000E+01+
*       5.0000000000E+01               0
GRID*             104478               04.9200000000E+035.0000000000E+01+
*       5.0000000000E+01               0
GRID*             104479               04.9100000000E+035.0000000000E+01+
*       5.0000000000E+01               0
GRID*             104480               04.9000000000E+035.0000000000E+01+
*       5.0000000000E+01               0
GRID*             104481               04.8900000000E+035.0000000000E+01+
*       5.0000000000E+01               0
GRID*             104482               04.8800000000E+035.0000000000E+01+
*       5.0000000000E+01               0
GRID*             104483               04.8700000000E+035.0000000000E+01+
*       5.0000000000E+01               0
GRID*             104484               04.8600000000E+035.0000000000E+01+
*       5.0000000000E+01               0
GRID*             104485               04.8500000000E+035.0000000000E+01+
*       5.0000000000E+01               0
GRID*             104486               04.8400000000E+035.0000000000E+01+
*       5.0000000000E+01               0
GRID*             104487               04.8300000000E+035.0000000000E+01+
*       5.0000000000E+01               0
GRID*             104488               04.8200000000E+035.0000000000E+01+
*       5.0000000000E+01               0
GRID*             104489               04.8100000000E+035.0000000000E+01+
*       5.0000000000E+01               0
GRID*             104490               04.8000000000E+035.0000000000E+01+
*       5.0000000000E+01               0
GRID*             104491               04.7900000000E+035.0000000000E+01+
*       5.0000000000E+01               0
GRID*             104492               04.7800000000E+035.0000000000E+01+
*       5.0000000000E+01               0
GRID*             104493               04.7700000000E+035.0000000000E+01+
*       5.0000000000E+01               0
GRID*             104494               04.7600000000E+035.0000000000E+01+
*       5.0000000000E+01               0
GRID*             104495               04.7500000000E+035.0000000000E+01+
*       5.0000000000E+01               0
GRID*             104496               04.7400000000E+035.0000000000E+01+
*       5.0000000000E+01               0
GRID*             104497               04.7300000000E+035.0000000000E+01+
*       5.0000000000E+01               0
GRID*             104498               04.7200000000E+035.0000000000E+01+
*       5.0000000000E+01               0
GRID*             104499               04.7100000000E+035.0000000000E+01+
*       5.0000000000E+01               0
GRID*             104500               04.7000000000E+035.0000000000E+01+
*       5.0000000000E+01               0
GRID*             104501               04.6900000000E+035.0000000000E+01+
*       5.0000000000E+01               0
GRID*             104502               04.6800000000E+035.0000000000E+01+
*       5.0000000000E+01               0
GRID*             104503               04.6700000000E+035.0000000000E+01+
*       5.0000000000E+01               0
GRID*             104504               04.6600000000E+035.0000000000E+01+
*       5.0000000000E+01               0
GRID*             104505               04.6500000000E+035.0000000000E+01+
*       5.0000000000E+01               0
GRID*             104506               04.6400000000E+035.0000000000E+01+
*       5.0000000000E+01               0
GRID*             104507               04.6300000000E+035.0000000000E+01+
*       5.0000000000E+01               0
GRID*             104508               04.6200000000E+035.0000000000E+01+
*       5.0000000000E+01               0
GRID*             104509               04.6100000000E+035.0000000000E+01+
*       5.0000000000E+01               0
GRID*             104510               04.6000000000E+035.0000000000E+01+
*       5.0000000000E+01               0
GRID*             104511               04.5900000000E+035.0000000000E+01+
*       5.0000000000E+01               0
GRID*             104512               04.5800000000E+035.0000000000E+01+
*       5.0000000000E+01               0
GRID*             104513               04.5700000000E+035.0000000000E+01+
*       5.0000000000E+01               0
GRID*             104514               04.5600000000E+035.0000000000E+01+
*       5.0000000000E+01               0
GRID*             104515               04.5500000000E+035.0000000000E+01+
*       5.0000000000E+01               0
GRID*             104516               04.5400000000E+035.0000000000E+01+
*       5.0000000000E+01               0
GRID*             104517               04.5300000000E+035.0000000000E+01+
*       5.0000000000E+01               0
GRID*             104518               04.5200000000E+035.0000000000E+01+
*       5.0000000000E+01               0
GRID*             104519               04.5100000000E+035.0000000000E+01+
*       5.0000000000E+01               0
GRID*             104520               04.5000000000E+035.0000000000E+01+
*       5.0000000000E+01               0
GRID*             104521               04.4900000000E+035.0000000000E+01+
*       5.0000000000E+01               0
GRID*             104522               04.4800000000E+035.0000000000E+01+
*       5.0000000000E+01               0
GRID*             104523               04.4700000000E+035.0000000000E+01+
*       5.0000000000E+01               0
GRID*             104524               04.4600000000E+035.0000000000E+01+
*       5.0000000000E+01               0
GRID*             104525               04.4500000000E+035.0000000000E+01+
*       5.0000000000E+01               0
GRID*             104526               04.4400000000E+035.0000000000E+01+
*       5.0000000000E+01               0
GRID*             104527               04.4300000000E+035.0000000000E+01+
*       5.0000000000E+01               0
GRID*             104528               04.4200000000E+035.0000000000E+01+
*       5.0000000000E+01               0
GRID*             104529               04.4100000000E+035.0000000000E+01+
*       5.0000000000E+01               0
GRID*             104530               04.4000000000E+035.0000000000E+01+
*       5.0000000000E+01               0
GRID*             104531               04.3900000000E+035.0000000000E+01+
*       5.0000000000E+01               0
GRID*             104532               04.3800000000E+035.0000000000E+01+
*       5.0000000000E+01               0
GRID*             104533               04.3700000000E+035.0000000000E+01+
*       5.0000000000E+01               0
GRID*             104534               04.3600000000E+035.0000000000E+01+
*       5.0000000000E+01               0
GRID*             104535               04.3500000000E+035.0000000000E+01+
*       5.0000000000E+01               0
GRID*             104536               04.3400000000E+035.0000000000E+01+
*       5.0000000000E+01               0
GRID*             104537               04.3300000000E+035.0000000000E+01+
*       5.0000000000E+01               0
GRID*             104538               04.3200000000E+035.0000000000E+01+
*       5.0000000000E+01               0
GRID*             104539               04.3100000000E+035.0000000000E+01+
*       5.0000000000E+01               0
GRID*             104540               04.3000000000E+035.0000000000E+01+
*       5.0000000000E+01               0
GRID*             104541               04.2900000000E+035.0000000000E+01+
*       5.0000000000E+01               0
GRID*             104542               04.2800000000E+035.0000000000E+01+
*       5.0000000000E+01               0
GRID*             104543               04.2700000000E+035.0000000000E+01+
*       5.0000000000E+01               0
GRID*             104544               04.2600000000E+035.0000000000E+01+
*       5.0000000000E+01               0
GRID*             104545               04.2500000000E+035.0000000000E+01+
*       5.0000000000E+01               0
GRID*             104546               04.2400000000E+035.0000000000E+01+
*       5.0000000000E+01               0
GRID*             104547               04.2300000000E+035.0000000000E+01+
*       5.0000000000E+01               0
GRID*             104548               04.2200000000E+035.0000000000E+01+
*       5.0000000000E+01               0
GRID*             104549               04.2100000000E+035.0000000000E+01+
*       5.0000000000E+01               0
GRID*             104550               04.2000000000E+035.0000000000E+01+
*       5.0000000000E+01               0
GRID*             104551               04.1900000000E+035.0000000000E+01+
*       5.0000000000E+01               0
GRID*             104552               04.1800000000E+035.0000000000E+01+
*       5.0000000000E+01               0
GRID*             104553               04.1700000000E+035.0000000000E+01+
*       5.0000000000E+01               0
GRID*             104554               04.1600000000E+035.0000000000E+01+
*       5.0000000000E+01               0
GRID*             104555               04.1500000000E+035.0000000000E+01+
*       5.0000000000E+01               0
GRID*             104556               04.1400000000E+035.0000000000E+01+
*       5.0000000000E+01               0
GRID*             104557               04.1300000000E+035.0000000000E+01+
*       5.0000000000E+01               0
GRID*             104558               04.1200000000E+035.0000000000E+01+
*       5.0000000000E+01               0
GRID*             104559               04.1100000000E+035.0000000000E+01+
*       5.0000000000E+01               0
GRID*             104560               04.1000000000E+035.0000000000E+01+
*       5.0000000000E+01               0
GRID*             104561               04.0900000000E+035.0000000000E+01+
*       5.0000000000E+01               0
GRID*             104562               04.0800000000E+035.0000000000E+01+
*       5.0000000000E+01               0
GRID*             104563               04.0700000000E+035.0000000000E+01+
*       5.0000000000E+01               0
GRID*             104564               04.0600000000E+035.0000000000E+01+
*       5.0000000000E+01               0
GRID*             104565               04.0500000000E+035.0000000000E+01+
*       5.0000000000E+01               0
GRID*             104566               04.0400000000E+035.0000000000E+01+
*       5.0000000000E+01               0
GRID*             104567               04.0300000000E+035.0000000000E+01+
*       5.0000000000E+01               0
GRID*             104568               04.0200000000E+035.0000000000E+01+
*       5.0000000000E+01               0
GRID*             104569               04.0100000000E+035.0000000000E+01+
*       5.0000000000E+01               0
GRID*             104570               04.0100000000E+03-5.000000000E+01+
*       -1.666666667E+01               0
GRID*             104571               04.0100000000E+03-5.000000000E+01+
*       1.6666666667E+01               0
GRID*             104572               04.0200000000E+03-5.000000000E+01+
*       -1.666666667E+01               0
GRID*             104573               04.0200000000E+03-5.000000000E+01+
*       1.6666666667E+01               0
GRID*             104574               04.0300000000E+03-5.000000000E+01+
*       -1.666666667E+01               0
GRID*             104575               04.0300000000E+03-5.000000000E+01+
*       1.6666666667E+01               0
GRID*             104576               04.0400000000E+03-5.000000000E+01+
*       -1.666666667E+01               0
GRID*             104577               04.0400000000E+03-5.000000000E+01+
*       1.6666666667E+01               0
GRID*             104578               04.0500000000E+03-5.000000000E+01+
*       -1.666666667E+01               0
GRID*             104579               04.0500000000E+03-5.000000000E+01+
*       1.6666666667E+01               0
GRID*             104580               04.0600000000E+03-5.000000000E+01+
*       -1.666666667E+01               0
GRID*             104581               04.0600000000E+03-5.000000000E+01+
*       1.6666666667E+01               0
GRID*             104582               04.0700000000E+03-5.000000000E+01+
*       -1.666666667E+01               0
GRID*             104583               04.0700000000E+03-5.000000000E+01+
*       1.6666666667E+01               0
GRID*             104584               04.0800000000E+03-5.000000000E+01+
*       -1.666666667E+01               0
GRID*             104585               04.0800000000E+03-5.000000000E+01+
*       1.6666666667E+01               0
GRID*             104586               04.0900000000E+03-5.000000000E+01+
*       -1.666666667E+01               0
GRID*             104587               04.0900000000E+03-5.000000000E+01+
*       1.6666666667E+01               0
GRID*             104588               04.1000000000E+03-5.000000000E+01+
*       -1.666666667E+01               0
GRID*             104589               04.1000000000E+03-5.000000000E+01+
*       1.6666666667E+01               0
GRID*             104590               04.1100000000E+03-5.000000000E+01+
*       -1.666666667E+01               0
GRID*             104591               04.1100000000E+03-5.000000000E+01+
*       1.6666666667E+01               0
GRID*             104592               04.1200000000E+03-5.000000000E+01+
*       -1.666666667E+01               0
GRID*             104593               04.1200000000E+03-5.000000000E+01+
*       1.6666666667E+01               0
GRID*             104594               04.1300000000E+03-5.000000000E+01+
*       -1.666666667E+01               0
GRID*             104595               04.1300000000E+03-5.000000000E+01+
*       1.6666666667E+01               0
GRID*             104596               04.1400000000E+03-5.000000000E+01+
*       -1.666666667E+01               0
GRID*             104597               04.1400000000E+03-5.000000000E+01+
*       1.6666666667E+01               0
GRID*             104598               04.1500000000E+03-5.000000000E+01+
*       -1.666666667E+01               0
GRID*             104599               04.1500000000E+03-5.000000000E+01+
*       1.6666666667E+01               0
GRID*             104600               04.1600000000E+03-5.000000000E+01+
*       -1.666666667E+01               0
GRID*             104601               04.1600000000E+03-5.000000000E+01+
*       1.6666666667E+01               0
GRID*             104602               04.1700000000E+03-5.000000000E+01+
*       -1.666666667E+01               0
GRID*             104603               04.1700000000E+03-5.000000000E+01+
*       1.6666666667E+01               0
GRID*             104604               04.1800000000E+03-5.000000000E+01+
*       -1.666666667E+01               0
GRID*             104605               04.1800000000E+03-5.000000000E+01+
*       1.6666666667E+01               0
GRID*             104606               04.1900000000E+03-5.000000000E+01+
*       -1.666666667E+01               0
GRID*             104607               04.1900000000E+03-5.000000000E+01+
*       1.6666666667E+01               0
GRID*             104608               04.2000000000E+03-5.000000000E+01+
*       -1.666666667E+01               0
GRID*             104609               04.2000000000E+03-5.000000000E+01+
*       1.6666666667E+01               0
GRID*             104610               04.2100000000E+03-5.000000000E+01+
*       -1.666666667E+01               0
GRID*             104611               04.2100000000E+03-5.000000000E+01+
*       1.6666666667E+01               0
GRID*             104612               04.2200000000E+03-5.000000000E+01+
*       -1.666666667E+01               0
GRID*             104613               04.2200000000E+03-5.000000000E+01+
*       1.6666666667E+01               0
GRID*             104614               04.2300000000E+03-5.000000000E+01+
*       -1.666666667E+01               0
GRID*             104615               04.2300000000E+03-5.000000000E+01+
*       1.6666666667E+01               0
GRID*             104616               04.2400000000E+03-5.000000000E+01+
*       -1.666666667E+01               0
GRID*             104617               04.2400000000E+03-5.000000000E+01+
*       1.6666666667E+01               0
GRID*             104618               04.2500000000E+03-5.000000000E+01+
*       -1.666666667E+01               0
GRID*             104619               04.2500000000E+03-5.000000000E+01+
*       1.6666666667E+01               0
GRID*             104620               04.2600000000E+03-5.000000000E+01+
*       -1.666666667E+01               0
GRID*             104621               04.2600000000E+03-5.000000000E+01+
*       1.6666666667E+01               0
GRID*             104622               04.2700000000E+03-5.000000000E+01+
*       -1.666666667E+01               0
GRID*             104623               04.2700000000E+03-5.000000000E+01+
*       1.6666666667E+01               0
GRID*             104624               04.2800000000E+03-5.000000000E+01+
*       -1.666666667E+01               0
GRID*             104625               04.2800000000E+03-5.000000000E+01+
*       1.6666666667E+01               0
GRID*             104626               04.2900000000E+03-5.000000000E+01+
*       -1.666666667E+01               0
GRID*             104627               04.2900000000E+03-5.000000000E+01+
*       1.6666666667E+01               0
GRID*             104628               04.3000000000E+03-5.000000000E+01+
*       -1.666666667E+01               0
GRID*             104629               04.3000000000E+03-5.000000000E+01+
*       1.6666666667E+01               0
GRID*             104630               04.3100000000E+03-5.000000000E+01+
*       -1.666666667E+01               0
GRID*             104631               04.3100000000E+03-5.000000000E+01+
*       1.6666666667E+01               0
GRID*             104632               04.3200000000E+03-5.000000000E+01+
*       -1.666666667E+01               0
GRID*             104633               04.3200000000E+03-5.000000000E+01+
*       1.6666666667E+01               0
GRID*             104634               04.3300000000E+03-5.000000000E+01+
*       -1.666666667E+01               0
GRID*             104635               04.3300000000E+03-5.000000000E+01+
*       1.6666666667E+01               0
GRID*             104636               04.3400000000E+03-5.000000000E+01+
*       -1.666666667E+01               0
GRID*             104637               04.3400000000E+03-5.000000000E+01+
*       1.6666666667E+01               0
GRID*             104638               04.3500000000E+03-5.000000000E+01+
*       -1.666666667E+01               0
GRID*             104639               04.3500000000E+03-5.000000000E+01+
*       1.6666666667E+01               0
GRID*             104640               04.3600000000E+03-5.000000000E+01+
*       -1.666666667E+01               0
GRID*             104641               04.3600000000E+03-5.000000000E+01+
*       1.6666666667E+01               0
GRID*             104642               04.3700000000E+03-5.000000000E+01+
*       -1.666666667E+01               0
GRID*             104643               04.3700000000E+03-5.000000000E+01+
*       1.6666666667E+01               0
GRID*             104644               04.3800000000E+03-5.000000000E+01+
*       -1.666666667E+01               0
GRID*             104645               04.3800000000E+03-5.000000000E+01+
*       1.6666666667E+01               0
GRID*             104646               04.3900000000E+03-5.000000000E+01+
*       -1.666666667E+01               0
GRID*             104647               04.3900000000E+03-5.000000000E+01+
*       1.6666666667E+01               0
GRID*             104648               04.4000000000E+03-5.000000000E+01+
*       -1.666666667E+01               0
GRID*             104649               04.4000000000E+03-5.000000000E+01+
*       1.6666666667E+01               0
GRID*             104650               04.4100000000E+03-5.000000000E+01+
*       -1.666666667E+01               0
GRID*             104651               04.4100000000E+03-5.000000000E+01+
*       1.6666666667E+01               0
GRID*             104652               04.4200000000E+03-5.000000000E+01+
*       -1.666666667E+01               0
GRID*             104653               04.4200000000E+03-5.000000000E+01+
*       1.6666666667E+01               0
GRID*             104654               04.4300000000E+03-5.000000000E+01+
*       -1.666666667E+01               0
GRID*             104655               04.4300000000E+03-5.000000000E+01+
*       1.6666666667E+01               0
GRID*             104656               04.4400000000E+03-5.000000000E+01+
*       -1.666666667E+01               0
GRID*             104657               04.4400000000E+03-5.000000000E+01+
*       1.6666666667E+01               0
GRID*             104658               04.4500000000E+03-5.000000000E+01+
*       -1.666666667E+01               0
GRID*             104659               04.4500000000E+03-5.000000000E+01+
*       1.6666666667E+01               0
GRID*             104660               04.4600000000E+03-5.000000000E+01+
*       -1.666666667E+01               0
GRID*             104661               04.4600000000E+03-5.000000000E+01+
*       1.6666666667E+01               0
GRID*             104662               04.4700000000E+03-5.000000000E+01+
*       -1.666666667E+01               0
GRID*             104663               04.4700000000E+03-5.000000000E+01+
*       1.6666666667E+01               0
GRID*             104664               04.4800000000E+03-5.000000000E+01+
*       -1.666666667E+01               0
GRID*             104665               04.4800000000E+03-5.000000000E+01+
*       1.6666666667E+01               0
GRID*             104666               04.4900000000E+03-5.000000000E+01+
*       -1.666666667E+01               0
GRID*             104667               04.4900000000E+03-5.000000000E+01+
*       1.6666666667E+01               0
GRID*             104668               04.5000000000E+03-5.000000000E+01+
*       -1.666666667E+01               0
GRID*             104669               04.5000000000E+03-5.000000000E+01+
*       1.6666666667E+01               0
GRID*             104670               04.5100000000E+03-5.000000000E+01+
*       -1.666666667E+01               0
GRID*             104671               04.5100000000E+03-5.000000000E+01+
*       1.6666666667E+01               0
GRID*             104672               04.5200000000E+03-5.000000000E+01+
*       -1.666666667E+01               0
GRID*             104673               04.5200000000E+03-5.000000000E+01+
*       1.6666666667E+01               0
GRID*             104674               04.5300000000E+03-5.000000000E+01+
*       -1.666666667E+01               0
GRID*             104675               04.5300000000E+03-5.000000000E+01+
*       1.6666666667E+01               0
GRID*             104676               04.5400000000E+03-5.000000000E+01+
*       -1.666666667E+01               0
GRID*             104677               04.5400000000E+03-5.000000000E+01+
*       1.6666666667E+01               0
GRID*             104678               04.5500000000E+03-5.000000000E+01+
*       -1.666666667E+01               0
GRID*             104679               04.5500000000E+03-5.000000000E+01+
*       1.6666666667E+01               0
GRID*             104680               04.5600000000E+03-5.000000000E+01+
*       -1.666666667E+01               0
GRID*             104681               04.5600000000E+03-5.000000000E+01+
*       1.6666666667E+01               0
GRID*             104682               04.5700000000E+03-5.000000000E+01+
*       -1.666666667E+01               0
GRID*             104683               04.5700000000E+03-5.000000000E+01+
*       1.6666666667E+01               0
GRID*             104684               04.5800000000E+03-5.000000000E+01+
*       -1.666666667E+01               0
GRID*             104685               04.5800000000E+03-5.000000000E+01+
*       1.6666666667E+01               0
GRID*             104686               04.5900000000E+03-5.000000000E+01+
*       -1.666666667E+01               0
GRID*             104687               04.5900000000E+03-5.000000000E+01+
*       1.6666666667E+01               0
GRID*             104688               04.6000000000E+03-5.000000000E+01+
*       -1.666666667E+01               0
GRID*             104689               04.6000000000E+03-5.000000000E+01+
*       1.6666666667E+01               0
GRID*             104690               04.6100000000E+03-5.000000000E+01+
*       -1.666666667E+01               0
GRID*             104691               04.6100000000E+03-5.000000000E+01+
*       1.6666666667E+01               0
GRID*             104692               04.6200000000E+03-5.000000000E+01+
*       -1.666666667E+01               0
GRID*             104693               04.6200000000E+03-5.000000000E+01+
*       1.6666666667E+01               0
GRID*             104694               04.6300000000E+03-5.000000000E+01+
*       -1.666666667E+01               0
GRID*             104695               04.6300000000E+03-5.000000000E+01+
*       1.6666666667E+01               0
GRID*             104696               04.6400000000E+03-5.000000000E+01+
*       -1.666666667E+01               0
GRID*             104697               04.6400000000E+03-5.000000000E+01+
*       1.6666666667E+01               0
GRID*             104698               04.6500000000E+03-5.000000000E+01+
*       -1.666666667E+01               0
GRID*             104699               04.6500000000E+03-5.000000000E+01+
*       1.6666666667E+01               0
GRID*             104700               04.6600000000E+03-5.000000000E+01+
*       -1.666666667E+01               0
GRID*             104701               04.6600000000E+03-5.000000000E+01+
*       1.6666666667E+01               0
GRID*             104702               04.6700000000E+03-5.000000000E+01+
*       -1.666666667E+01               0
GRID*             104703               04.6700000000E+03-5.000000000E+01+
*       1.6666666667E+01               0
GRID*             104704               04.6800000000E+03-5.000000000E+01+
*       -1.666666667E+01               0
GRID*             104705               04.6800000000E+03-5.000000000E+01+
*       1.6666666667E+01               0
GRID*             104706               04.6900000000E+03-5.000000000E+01+
*       -1.666666667E+01               0
GRID*             104707               04.6900000000E+03-5.000000000E+01+
*       1.6666666667E+01               0
GRID*             104708               04.7000000000E+03-5.000000000E+01+
*       -1.666666667E+01               0
GRID*             104709               04.7000000000E+03-5.000000000E+01+
*       1.6666666667E+01               0
GRID*             104710               04.7100000000E+03-5.000000000E+01+
*       -1.666666667E+01               0
GRID*             104711               04.7100000000E+03-5.000000000E+01+
*       1.6666666667E+01               0
GRID*             104712               04.7200000000E+03-5.000000000E+01+
*       -1.666666667E+01               0
GRID*             104713               04.7200000000E+03-5.000000000E+01+
*       1.6666666667E+01               0
GRID*             104714               04.7300000000E+03-5.000000000E+01+
*       -1.666666667E+01               0
GRID*             104715               04.7300000000E+03-5.000000000E+01+
*       1.6666666667E+01               0
GRID*             104716               04.7400000000E+03-5.000000000E+01+
*       -1.666666667E+01               0
GRID*             104717               04.7400000000E+03-5.000000000E+01+
*       1.6666666667E+01               0
GRID*             104718               04.7500000000E+03-5.000000000E+01+
*       -1.666666667E+01               0
GRID*             104719               04.7500000000E+03-5.000000000E+01+
*       1.6666666667E+01               0
GRID*             104720               04.7600000000E+03-5.000000000E+01+
*       -1.666666667E+01               0
GRID*             104721               04.7600000000E+03-5.000000000E+01+
*       1.6666666667E+01               0
GRID*             104722               04.7700000000E+03-5.000000000E+01+
*       -1.666666667E+01               0
GRID*             104723               04.7700000000E+03-5.000000000E+01+
*       1.6666666667E+01               0
GRID*             104724               04.7800000000E+03-5.000000000E+01+
*       -1.666666667E+01               0
GRID*             104725               04.7800000000E+03-5.000000000E+01+
*       1.6666666667E+01               0
GRID*             104726               04.7900000000E+03-5.000000000E+01+
*       -1.666666667E+01               0
GRID*             104727               04.7900000000E+03-5.000000000E+01+
*       1.6666666667E+01               0
GRID*             104728               04.8000000000E+03-5.000000000E+01+
*       -1.666666667E+01               0
GRID*             104729               04.8000000000E+03-5.000000000E+01+
*       1.6666666667E+01               0
GRID*             104730               04.8100000000E+03-5.000000000E+01+
*       -1.666666667E+01               0
GRID*             104731               04.8100000000E+03-5.000000000E+01+
*       1.6666666667E+01               0
GRID*             104732               04.8200000000E+03-5.000000000E+01+
*       -1.666666667E+01               0
GRID*             104733               04.8200000000E+03-5.000000000E+01+
*       1.6666666667E+01               0
GRID*             104734               04.8300000000E+03-5.000000000E+01+
*       -1.666666667E+01               0
GRID*             104735               04.8300000000E+03-5.000000000E+01+
*       1.6666666667E+01               0
GRID*             104736               04.8400000000E+03-5.000000000E+01+
*       -1.666666667E+01               0
GRID*             104737               04.8400000000E+03-5.000000000E+01+
*       1.6666666667E+01               0
GRID*             104738               04.8500000000E+03-5.000000000E+01+
*       -1.666666667E+01               0
GRID*             104739               04.8500000000E+03-5.000000000E+01+
*       1.6666666667E+01               0
GRID*             104740               04.8600000000E+03-5.000000000E+01+
*       -1.666666667E+01               0
GRID*             104741               04.8600000000E+03-5.000000000E+01+
*       1.6666666667E+01               0
GRID*             104742               04.8700000000E+03-5.000000000E+01+
*       -1.666666667E+01               0
GRID*             104743               04.8700000000E+03-5.000000000E+01+
*       1.6666666667E+01               0
GRID*             104744               04.8800000000E+03-5.000000000E+01+
*       -1.666666667E+01               0
GRID*             104745               04.8800000000E+03-5.000000000E+01+
*       1.6666666667E+01               0
GRID*             104746               04.8900000000E+03-5.000000000E+01+
*       -1.666666667E+01               0
GRID*             104747               04.8900000000E+03-5.000000000E+01+
*       1.6666666667E+01               0
GRID*             104748               04.9000000000E+03-5.000000000E+01+
*       -1.666666667E+01               0
GRID*             104749               04.9000000000E+03-5.000000000E+01+
*       1.6666666667E+01               0
GRID*             104750               04.9100000000E+03-5.000000000E+01+
*       -1.666666667E+01               0
GRID*             104751               04.9100000000E+03-5.000000000E+01+
*       1.6666666667E+01               0
GRID*             104752               04.9200000000E+03-5.000000000E+01+
*       -1.666666667E+01               0
GRID*             104753               04.9200000000E+03-5.000000000E+01+
*       1.6666666667E+01               0
GRID*             104754               04.9300000000E+03-5.000000000E+01+
*       -1.666666667E+01               0
GRID*             104755               04.9300000000E+03-5.000000000E+01+
*       1.6666666667E+01               0
GRID*             104756               04.9400000000E+03-5.000000000E+01+
*       -1.666666667E+01               0
GRID*             104757               04.9400000000E+03-5.000000000E+01+
*       1.6666666667E+01               0
GRID*             104758               04.9500000000E+03-5.000000000E+01+
*       -1.666666667E+01               0
GRID*             104759               04.9500000000E+03-5.000000000E+01+
*       1.6666666667E+01               0
GRID*             104760               04.9600000000E+03-5.000000000E+01+
*       -1.666666667E+01               0
GRID*             104761               04.9600000000E+03-5.000000000E+01+
*       1.6666666667E+01               0
GRID*             104762               04.9700000000E+03-5.000000000E+01+
*       -1.666666667E+01               0
GRID*             104763               04.9700000000E+03-5.000000000E+01+
*       1.6666666667E+01               0
GRID*             104764               04.9800000000E+03-5.000000000E+01+
*       -1.666666667E+01               0
GRID*             104765               04.9800000000E+03-5.000000000E+01+
*       1.6666666667E+01               0
GRID*             104766               04.9900000000E+03-5.000000000E+01+
*       -1.666666667E+01               0
GRID*             104767               04.9900000000E+03-5.000000000E+01+
*       1.6666666667E+01               0
GRID*             104768               05.0000000000E+03-5.000000000E+01+
*       -1.666666667E+01               0
GRID*             104769               05.0000000000E+03-5.000000000E+01+
*       1.6666666667E+01               0
GRID*             104770               05.0100000000E+03-5.000000000E+01+
*       -1.666666667E+01               0
GRID*             104771               05.0100000000E+03-5.000000000E+01+
*       1.6666666667E+01               0
GRID*             104772               05.0200000000E+03-5.000000000E+01+
*       -1.666666667E+01               0
GRID*             104773               05.0200000000E+03-5.000000000E+01+
*       1.6666666667E+01               0
GRID*             104774               05.0300000000E+03-5.000000000E+01+
*       -1.666666667E+01               0
GRID*             104775               05.0300000000E+03-5.000000000E+01+
*       1.6666666667E+01               0
GRID*             104776               05.0400000000E+03-5.000000000E+01+
*       -1.666666667E+01               0
GRID*             104777               05.0400000000E+03-5.000000000E+01+
*       1.6666666667E+01               0
GRID*             104778               05.0500000000E+03-5.000000000E+01+
*       -1.666666667E+01               0
GRID*             104779               05.0500000000E+03-5.000000000E+01+
*       1.6666666667E+01               0
GRID*             104780               05.0600000000E+03-5.000000000E+01+
*       -1.666666667E+01               0
GRID*             104781               05.0600000000E+03-5.000000000E+01+
*       1.6666666667E+01               0
GRID*             104782               05.0700000000E+03-5.000000000E+01+
*       -1.666666667E+01               0
GRID*             104783               05.0700000000E+03-5.000000000E+01+
*       1.6666666667E+01               0
GRID*             104784               05.0800000000E+03-5.000000000E+01+
*       -1.666666667E+01               0
GRID*             104785               05.0800000000E+03-5.000000000E+01+
*       1.6666666667E+01               0
GRID*             104786               05.0900000000E+03-5.000000000E+01+
*       -1.666666667E+01               0
GRID*             104787               05.0900000000E+03-5.000000000E+01+
*       1.6666666667E+01               0
GRID*             104788               05.1000000000E+03-5.000000000E+01+
*       -1.666666667E+01               0
GRID*             104789               05.1000000000E+03-5.000000000E+01+
*       1.6666666667E+01               0
GRID*             104790               05.1100000000E+03-5.000000000E+01+
*       -1.666666667E+01               0
GRID*             104791               05.1100000000E+03-5.000000000E+01+
*       1.6666666667E+01               0
GRID*             104792               05.1200000000E+03-5.000000000E+01+
*       -1.666666667E+01               0
GRID*             104793               05.1200000000E+03-5.000000000E+01+
*       1.6666666667E+01               0
GRID*             104794               05.1300000000E+03-5.000000000E+01+
*       -1.666666667E+01               0
GRID*             104795               05.1300000000E+03-5.000000000E+01+
*       1.6666666667E+01               0
GRID*             104796               05.1400000000E+03-5.000000000E+01+
*       -1.666666667E+01               0
GRID*             104797               05.1400000000E+03-5.000000000E+01+
*       1.6666666667E+01               0
GRID*             104798               05.1500000000E+03-5.000000000E+01+
*       -1.666666667E+01               0
GRID*             104799               05.1500000000E+03-5.000000000E+01+
*       1.6666666667E+01               0
GRID*             104800               05.1600000000E+03-5.000000000E+01+
*       -1.666666667E+01               0
GRID*             104801               05.1600000000E+03-5.000000000E+01+
*       1.6666666667E+01               0
GRID*             104802               05.1700000000E+03-5.000000000E+01+
*       -1.666666667E+01               0
GRID*             104803               05.1700000000E+03-5.000000000E+01+
*       1.6666666667E+01               0
GRID*             104804               05.1800000000E+03-5.000000000E+01+
*       -1.666666667E+01               0
GRID*             104805               05.1800000000E+03-5.000000000E+01+
*       1.6666666667E+01               0
GRID*             104806               05.1900000000E+03-5.000000000E+01+
*       -1.666666667E+01               0
GRID*             104807               05.1900000000E+03-5.000000000E+01+
*       1.6666666667E+01               0
GRID*             104808               05.2000000000E+03-5.000000000E+01+
*       -1.666666667E+01               0
GRID*             104809               05.2000000000E+03-5.000000000E+01+
*       1.6666666667E+01               0
GRID*             104810               05.2100000000E+03-5.000000000E+01+
*       -1.666666667E+01               0
GRID*             104811               05.2100000000E+03-5.000000000E+01+
*       1.6666666667E+01               0
GRID*             104812               05.2200000000E+03-5.000000000E+01+
*       -1.666666667E+01               0
GRID*             104813               05.2200000000E+03-5.000000000E+01+
*       1.6666666667E+01               0
GRID*             104814               05.2300000000E+03-5.000000000E+01+
*       -1.666666667E+01               0
GRID*             104815               05.2300000000E+03-5.000000000E+01+
*       1.6666666667E+01               0
GRID*             104816               05.2400000000E+03-5.000000000E+01+
*       -1.666666667E+01               0
GRID*             104817               05.2400000000E+03-5.000000000E+01+
*       1.6666666667E+01               0
GRID*             104818               05.2500000000E+03-5.000000000E+01+
*       -1.666666667E+01               0
GRID*             104819               05.2500000000E+03-5.000000000E+01+
*       1.6666666667E+01               0
GRID*             104820               05.2600000000E+03-5.000000000E+01+
*       -1.666666667E+01               0
GRID*             104821               05.2600000000E+03-5.000000000E+01+
*       1.6666666667E+01               0
GRID*             104822               05.2700000000E+03-5.000000000E+01+
*       -1.666666667E+01               0
GRID*             104823               05.2700000000E+03-5.000000000E+01+
*       1.6666666667E+01               0
GRID*             104824               05.2800000000E+03-5.000000000E+01+
*       -1.666666667E+01               0
GRID*             104825               05.2800000000E+03-5.000000000E+01+
*       1.6666666667E+01               0
GRID*             104826               05.2900000000E+03-5.000000000E+01+
*       -1.666666667E+01               0
GRID*             104827               05.2900000000E+03-5.000000000E+01+
*       1.6666666667E+01               0
GRID*             104828               05.3000000000E+03-5.000000000E+01+
*       -1.666666667E+01               0
GRID*             104829               05.3000000000E+03-5.000000000E+01+
*       1.6666666667E+01               0
GRID*             104830               05.3100000000E+03-5.000000000E+01+
*       -1.666666667E+01               0
GRID*             104831               05.3100000000E+03-5.000000000E+01+
*       1.6666666667E+01               0
GRID*             104832               05.3200000000E+03-5.000000000E+01+
*       -1.666666667E+01               0
GRID*             104833               05.3200000000E+03-5.000000000E+01+
*       1.6666666667E+01               0
GRID*             104834               05.3300000000E+03-5.000000000E+01+
*       -1.666666667E+01               0
GRID*             104835               05.3300000000E+03-5.000000000E+01+
*       1.6666666667E+01               0
GRID*             104836               05.3400000000E+03-5.000000000E+01+
*       -1.666666667E+01               0
GRID*             104837               05.3400000000E+03-5.000000000E+01+
*       1.6666666667E+01               0
GRID*             104838               05.3500000000E+03-5.000000000E+01+
*       -1.666666667E+01               0
GRID*             104839               05.3500000000E+03-5.000000000E+01+
*       1.6666666667E+01               0
GRID*             104840               05.3600000000E+03-5.000000000E+01+
*       -1.666666667E+01               0
GRID*             104841               05.3600000000E+03-5.000000000E+01+
*       1.6666666667E+01               0
GRID*             104842               05.3700000000E+03-5.000000000E+01+
*       -1.666666667E+01               0
GRID*             104843               05.3700000000E+03-5.000000000E+01+
*       1.6666666667E+01               0
GRID*             104844               05.3800000000E+03-5.000000000E+01+
*       -1.666666667E+01               0
GRID*             104845               05.3800000000E+03-5.000000000E+01+
*       1.6666666667E+01               0
GRID*             104846               05.3900000000E+03-5.000000000E+01+
*       -1.666666667E+01               0
GRID*             104847               05.3900000000E+03-5.000000000E+01+
*       1.6666666667E+01               0
GRID*             104848               05.4000000000E+03-5.000000000E+01+
*       -1.666666667E+01               0
GRID*             104849               05.4000000000E+03-5.000000000E+01+
*       1.6666666667E+01               0
GRID*             104850               05.4100000000E+03-5.000000000E+01+
*       -1.666666667E+01               0
GRID*             104851               05.4100000000E+03-5.000000000E+01+
*       1.6666666667E+01               0
GRID*             104852               05.4200000000E+03-5.000000000E+01+
*       -1.666666667E+01               0
GRID*             104853               05.4200000000E+03-5.000000000E+01+
*       1.6666666667E+01               0
GRID*             104854               05.4300000000E+03-5.000000000E+01+
*       -1.666666667E+01               0
GRID*             104855               05.4300000000E+03-5.000000000E+01+
*       1.6666666667E+01               0
GRID*             104856               05.4400000000E+03-5.000000000E+01+
*       -1.666666667E+01               0
GRID*             104857               05.4400000000E+03-5.000000000E+01+
*       1.6666666667E+01               0
GRID*             104858               05.4500000000E+03-5.000000000E+01+
*       -1.666666667E+01               0
GRID*             104859               05.4500000000E+03-5.000000000E+01+
*       1.6666666667E+01               0
GRID*             104860               05.4600000000E+03-5.000000000E+01+
*       -1.666666667E+01               0
GRID*             104861               05.4600000000E+03-5.000000000E+01+
*       1.6666666667E+01               0
GRID*             104862               05.4700000000E+03-5.000000000E+01+
*       -1.666666667E+01               0
GRID*             104863               05.4700000000E+03-5.000000000E+01+
*       1.6666666667E+01               0
GRID*             104864               05.4800000000E+03-5.000000000E+01+
*       -1.666666667E+01               0
GRID*             104865               05.4800000000E+03-5.000000000E+01+
*       1.6666666667E+01               0
GRID*             104866               05.4900000000E+03-5.000000000E+01+
*       -1.666666667E+01               0
GRID*             104867               05.4900000000E+03-5.000000000E+01+
*       1.6666666667E+01               0
GRID*             104868               05.5000000000E+03-5.000000000E+01+
*       -1.666666667E+01               0
GRID*             104869               05.5000000000E+03-5.000000000E+01+
*       1.6666666667E+01               0
GRID*             104870               05.5100000000E+03-5.000000000E+01+
*       -1.666666667E+01               0
GRID*             104871               05.5100000000E+03-5.000000000E+01+
*       1.6666666667E+01               0
GRID*             104872               05.5200000000E+03-5.000000000E+01+
*       -1.666666667E+01               0
GRID*             104873               05.5200000000E+03-5.000000000E+01+
*       1.6666666667E+01               0
GRID*             104874               05.5300000000E+03-5.000000000E+01+
*       -1.666666667E+01               0
GRID*             104875               05.5300000000E+03-5.000000000E+01+
*       1.6666666667E+01               0
GRID*             104876               05.5400000000E+03-5.000000000E+01+
*       -1.666666667E+01               0
GRID*             104877               05.5400000000E+03-5.000000000E+01+
*       1.6666666667E+01               0
GRID*             104878               05.5500000000E+03-5.000000000E+01+
*       -1.666666667E+01               0
GRID*             104879               05.5500000000E+03-5.000000000E+01+
*       1.6666666667E+01               0
GRID*             104880               05.5600000000E+03-5.000000000E+01+
*       -1.666666667E+01               0
GRID*             104881               05.5600000000E+03-5.000000000E+01+
*       1.6666666667E+01               0
GRID*             104882               05.5700000000E+03-5.000000000E+01+
*       -1.666666667E+01               0
GRID*             104883               05.5700000000E+03-5.000000000E+01+
*       1.6666666667E+01               0
GRID*             104884               05.5800000000E+03-5.000000000E+01+
*       -1.666666667E+01               0
GRID*             104885               05.5800000000E+03-5.000000000E+01+
*       1.6666666667E+01               0
GRID*             104886               05.5900000000E+03-5.000000000E+01+
*       -1.666666667E+01               0
GRID*             104887               05.5900000000E+03-5.000000000E+01+
*       1.6666666667E+01               0
GRID*             104888               05.6000000000E+03-5.000000000E+01+
*       -1.666666667E+01               0
GRID*             104889               05.6000000000E+03-5.000000000E+01+
*       1.6666666667E+01               0
GRID*             104890               05.6100000000E+03-5.000000000E+01+
*       -1.666666667E+01               0
GRID*             104891               05.6100000000E+03-5.000000000E+01+
*       1.6666666667E+01               0
GRID*             104892               05.6200000000E+03-5.000000000E+01+
*       -1.666666667E+01               0
GRID*             104893               05.6200000000E+03-5.000000000E+01+
*       1.6666666667E+01               0
GRID*             104894               05.6300000000E+03-5.000000000E+01+
*       -1.666666667E+01               0
GRID*             104895               05.6300000000E+03-5.000000000E+01+
*       1.6666666667E+01               0
GRID*             104896               05.6400000000E+03-5.000000000E+01+
*       -1.666666667E+01               0
GRID*             104897               05.6400000000E+03-5.000000000E+01+
*       1.6666666667E+01               0
GRID*             104898               05.6500000000E+03-5.000000000E+01+
*       -1.666666667E+01               0
GRID*             104899               05.6500000000E+03-5.000000000E+01+
*       1.6666666667E+01               0
GRID*             104900               05.6600000000E+03-5.000000000E+01+
*       -1.666666667E+01               0
GRID*             104901               05.6600000000E+03-5.000000000E+01+
*       1.6666666667E+01               0
GRID*             104902               05.6700000000E+03-5.000000000E+01+
*       -1.666666667E+01               0
GRID*             104903               05.6700000000E+03-5.000000000E+01+
*       1.6666666667E+01               0
GRID*             104904               05.6800000000E+03-5.000000000E+01+
*       -1.666666667E+01               0
GRID*             104905               05.6800000000E+03-5.000000000E+01+
*       1.6666666667E+01               0
GRID*             104906               05.6900000000E+03-5.000000000E+01+
*       -1.666666667E+01               0
GRID*             104907               05.6900000000E+03-5.000000000E+01+
*       1.6666666667E+01               0
GRID*             104908               05.7000000000E+03-5.000000000E+01+
*       -1.666666667E+01               0
GRID*             104909               05.7000000000E+03-5.000000000E+01+
*       1.6666666667E+01               0
GRID*             104910               05.7100000000E+03-5.000000000E+01+
*       -1.666666667E+01               0
GRID*             104911               05.7100000000E+03-5.000000000E+01+
*       1.6666666667E+01               0
GRID*             104912               05.7200000000E+03-5.000000000E+01+
*       -1.666666667E+01               0
GRID*             104913               05.7200000000E+03-5.000000000E+01+
*       1.6666666667E+01               0
GRID*             104914               05.7300000000E+03-5.000000000E+01+
*       -1.666666667E+01               0
GRID*             104915               05.7300000000E+03-5.000000000E+01+
*       1.6666666667E+01               0
GRID*             104916               05.7400000000E+03-5.000000000E+01+
*       -1.666666667E+01               0
GRID*             104917               05.7400000000E+03-5.000000000E+01+
*       1.6666666667E+01               0
GRID*             104918               05.7500000000E+03-5.000000000E+01+
*       -1.666666667E+01               0
GRID*             104919               05.7500000000E+03-5.000000000E+01+
*       1.6666666667E+01               0
GRID*             104920               05.7600000000E+03-5.000000000E+01+
*       -1.666666667E+01               0
GRID*             104921               05.7600000000E+03-5.000000000E+01+
*       1.6666666667E+01               0
GRID*             104922               05.7700000000E+03-5.000000000E+01+
*       -1.666666667E+01               0
GRID*             104923               05.7700000000E+03-5.000000000E+01+
*       1.6666666667E+01               0
GRID*             104924               05.7800000000E+03-5.000000000E+01+
*       -1.666666667E+01               0
GRID*             104925               05.7800000000E+03-5.000000000E+01+
*       1.6666666667E+01               0
GRID*             104926               05.7900000000E+03-5.000000000E+01+
*       -1.666666667E+01               0
GRID*             104927               05.7900000000E+03-5.000000000E+01+
*       1.6666666667E+01               0
GRID*             104928               05.8000000000E+03-5.000000000E+01+
*       -1.666666667E+01               0
GRID*             104929               05.8000000000E+03-5.000000000E+01+
*       1.6666666667E+01               0
GRID*             104930               05.8100000000E+03-5.000000000E+01+
*       -1.666666667E+01               0
GRID*             104931               05.8100000000E+03-5.000000000E+01+
*       1.6666666667E+01               0
GRID*             104932               05.8200000000E+03-5.000000000E+01+
*       -1.666666667E+01               0
GRID*             104933               05.8200000000E+03-5.000000000E+01+
*       1.6666666667E+01               0
GRID*             104934               05.8300000000E+03-5.000000000E+01+
*       -1.666666667E+01               0
GRID*             104935               05.8300000000E+03-5.000000000E+01+
*       1.6666666667E+01               0
GRID*             104936               05.8400000000E+03-5.000000000E+01+
*       -1.666666667E+01               0
GRID*             104937               05.8400000000E+03-5.000000000E+01+
*       1.6666666667E+01               0
GRID*             104938               05.8500000000E+03-5.000000000E+01+
*       -1.666666667E+01               0
GRID*             104939               05.8500000000E+03-5.000000000E+01+
*       1.6666666667E+01               0
GRID*             104940               05.8600000000E+03-5.000000000E+01+
*       -1.666666667E+01               0
GRID*             104941               05.8600000000E+03-5.000000000E+01+
*       1.6666666667E+01               0
GRID*             104942               05.8700000000E+03-5.000000000E+01+
*       -1.666666667E+01               0
GRID*             104943               05.8700000000E+03-5.000000000E+01+
*       1.6666666667E+01               0
GRID*             104944               05.8800000000E+03-5.000000000E+01+
*       -1.666666667E+01               0
GRID*             104945               05.8800000000E+03-5.000000000E+01+
*       1.6666666667E+01               0
GRID*             104946               05.8900000000E+03-5.000000000E+01+
*       -1.666666667E+01               0
GRID*             104947               05.8900000000E+03-5.000000000E+01+
*       1.6666666667E+01               0
GRID*             104948               05.9000000000E+03-5.000000000E+01+
*       -1.666666667E+01               0
GRID*             104949               05.9000000000E+03-5.000000000E+01+
*       1.6666666667E+01               0
GRID*             104950               05.9100000000E+03-5.000000000E+01+
*       -1.666666667E+01               0
GRID*             104951               05.9100000000E+03-5.000000000E+01+
*       1.6666666667E+01               0
GRID*             104952               05.9200000000E+03-5.000000000E+01+
*       -1.666666667E+01               0
GRID*             104953               05.9200000000E+03-5.000000000E+01+
*       1.6666666667E+01               0
GRID*             104954               05.9300000000E+03-5.000000000E+01+
*       -1.666666667E+01               0
GRID*             104955               05.9300000000E+03-5.000000000E+01+
*       1.6666666667E+01               0
GRID*             104956               05.9400000000E+03-5.000000000E+01+
*       -1.666666667E+01               0
GRID*             104957               05.9400000000E+03-5.000000000E+01+
*       1.6666666667E+01               0
GRID*             104958               05.9500000000E+03-5.000000000E+01+
*       -1.666666667E+01               0
GRID*             104959               05.9500000000E+03-5.000000000E+01+
*       1.6666666667E+01               0
GRID*             104960               05.9600000000E+03-5.000000000E+01+
*       -1.666666667E+01               0
GRID*             104961               05.9600000000E+03-5.000000000E+01+
*       1.6666666667E+01               0
GRID*             104962               05.9700000000E+03-5.000000000E+01+
*       -1.666666667E+01               0
GRID*             104963               05.9700000000E+03-5.000000000E+01+
*       1.6666666667E+01               0
GRID*             104964               05.9800000000E+03-5.000000000E+01+
*       -1.666666667E+01               0
GRID*             104965               05.9800000000E+03-5.000000000E+01+
*       1.6666666667E+01               0
GRID*             104966               05.9900000000E+03-5.000000000E+01+
*       -1.666666667E+01               0
GRID*             104967               05.9900000000E+03-5.000000000E+01+
*       1.6666666667E+01               0
GRID*             104968               06.0000000000E+03-5.000000000E+01+
*       -1.666666667E+01               0
GRID*             104969               06.0000000000E+03-5.000000000E+01+
*       1.6666666667E+01               0
GRID*             104970               06.0100000000E+03-5.000000000E+01+
*       -1.666666667E+01               0
GRID*             104971               06.0100000000E+03-5.000000000E+01+
*       1.6666666667E+01               0
GRID*             104972               06.0200000000E+03-5.000000000E+01+
*       -1.666666667E+01               0
GRID*             104973               06.0200000000E+03-5.000000000E+01+
*       1.6666666667E+01               0
GRID*             104974               06.0300000000E+03-5.000000000E+01+
*       -1.666666667E+01               0
GRID*             104975               06.0300000000E+03-5.000000000E+01+
*       1.6666666667E+01               0
GRID*             104976               06.0400000000E+03-5.000000000E+01+
*       -1.666666667E+01               0
GRID*             104977               06.0400000000E+03-5.000000000E+01+
*       1.6666666667E+01               0
GRID*             104978               06.0500000000E+03-5.000000000E+01+
*       -1.666666667E+01               0
GRID*             104979               06.0500000000E+03-5.000000000E+01+
*       1.6666666667E+01               0
GRID*             104980               06.0600000000E+03-5.000000000E+01+
*       -1.666666667E+01               0
GRID*             104981               06.0600000000E+03-5.000000000E+01+
*       1.6666666667E+01               0
GRID*             104982               06.0700000000E+03-5.000000000E+01+
*       -1.666666667E+01               0
GRID*             104983               06.0700000000E+03-5.000000000E+01+
*       1.6666666667E+01               0
GRID*             104984               06.0800000000E+03-5.000000000E+01+
*       -1.666666667E+01               0
GRID*             104985               06.0800000000E+03-5.000000000E+01+
*       1.6666666667E+01               0
GRID*             104986               06.0900000000E+03-5.000000000E+01+
*       -1.666666667E+01               0
GRID*             104987               06.0900000000E+03-5.000000000E+01+
*       1.6666666667E+01               0
GRID*             104988               06.1000000000E+03-5.000000000E+01+
*       -1.666666667E+01               0
GRID*             104989               06.1000000000E+03-5.000000000E+01+
*       1.6666666667E+01               0
GRID*             104990               06.1100000000E+03-5.000000000E+01+
*       -1.666666667E+01               0
GRID*             104991               06.1100000000E+03-5.000000000E+01+
*       1.6666666667E+01               0
GRID*             104992               06.1200000000E+03-5.000000000E+01+
*       -1.666666667E+01               0
GRID*             104993               06.1200000000E+03-5.000000000E+01+
*       1.6666666667E+01               0
GRID*             104994               06.1300000000E+03-5.000000000E+01+
*       -1.666666667E+01               0
GRID*             104995               06.1300000000E+03-5.000000000E+01+
*       1.6666666667E+01               0
GRID*             104996               06.1400000000E+03-5.000000000E+01+
*       -1.666666667E+01               0
GRID*             104997               06.1400000000E+03-5.000000000E+01+
*       1.6666666667E+01               0
GRID*             104998               06.1500000000E+03-5.000000000E+01+
*       -1.666666667E+01               0
GRID*             104999               06.1500000000E+03-5.000000000E+01+
*       1.6666666667E+01               0
GRID*             105000               06.1600000000E+03-5.000000000E+01+
*       -1.666666667E+01               0
GRID*             105001               06.1600000000E+03-5.000000000E+01+
*       1.6666666667E+01               0
GRID*             105002               06.1700000000E+03-5.000000000E+01+
*       -1.666666667E+01               0
GRID*             105003               06.1700000000E+03-5.000000000E+01+
*       1.6666666667E+01               0
GRID*             105004               06.1800000000E+03-5.000000000E+01+
*       -1.666666667E+01               0
GRID*             105005               06.1800000000E+03-5.000000000E+01+
*       1.6666666667E+01               0
GRID*             105006               06.1900000000E+03-5.000000000E+01+
*       -1.666666667E+01               0
GRID*             105007               06.1900000000E+03-5.000000000E+01+
*       1.6666666667E+01               0
GRID*             105008               06.2000000000E+03-5.000000000E+01+
*       -1.666666667E+01               0
GRID*             105009               06.2000000000E+03-5.000000000E+01+
*       1.6666666667E+01               0
GRID*             105010               06.2100000000E+03-5.000000000E+01+
*       -1.666666667E+01               0
GRID*             105011               06.2100000000E+03-5.000000000E+01+
*       1.6666666667E+01               0
GRID*             105012               06.2200000000E+03-5.000000000E+01+
*       -1.666666667E+01               0
GRID*             105013               06.2200000000E+03-5.000000000E+01+
*       1.6666666667E+01               0
GRID*             105014               06.2300000000E+03-5.000000000E+01+
*       -1.666666667E+01               0
GRID*             105015               06.2300000000E+03-5.000000000E+01+
*       1.6666666667E+01               0
GRID*             105016               06.2400000000E+03-5.000000000E+01+
*       -1.666666667E+01               0
GRID*             105017               06.2400000000E+03-5.000000000E+01+
*       1.6666666667E+01               0
GRID*             105018               06.2500000000E+03-5.000000000E+01+
*       -1.666666667E+01               0
GRID*             105019               06.2500000000E+03-5.000000000E+01+
*       1.6666666667E+01               0
GRID*             105020               06.2600000000E+03-5.000000000E+01+
*       -1.666666667E+01               0
GRID*             105021               06.2600000000E+03-5.000000000E+01+
*       1.6666666667E+01               0
GRID*             105022               06.2700000000E+03-5.000000000E+01+
*       -1.666666667E+01               0
GRID*             105023               06.2700000000E+03-5.000000000E+01+
*       1.6666666667E+01               0
GRID*             105024               06.2800000000E+03-5.000000000E+01+
*       -1.666666667E+01               0
GRID*             105025               06.2800000000E+03-5.000000000E+01+
*       1.6666666667E+01               0
GRID*             105026               06.2900000000E+03-5.000000000E+01+
*       -1.666666667E+01               0
GRID*             105027               06.2900000000E+03-5.000000000E+01+
*       1.6666666667E+01               0
GRID*             105028               06.3000000000E+03-5.000000000E+01+
*       -1.666666667E+01               0
GRID*             105029               06.3000000000E+03-5.000000000E+01+
*       1.6666666667E+01               0
GRID*             105030               06.3100000000E+03-5.000000000E+01+
*       -1.666666667E+01               0
GRID*             105031               06.3100000000E+03-5.000000000E+01+
*       1.6666666667E+01               0
GRID*             105032               06.3200000000E+03-5.000000000E+01+
*       -1.666666667E+01               0
GRID*             105033               06.3200000000E+03-5.000000000E+01+
*       1.6666666667E+01               0
GRID*             105034               06.3300000000E+03-5.000000000E+01+
*       -1.666666667E+01               0
GRID*             105035               06.3300000000E+03-5.000000000E+01+
*       1.6666666667E+01               0
GRID*             105036               06.3400000000E+03-5.000000000E+01+
*       -1.666666667E+01               0
GRID*             105037               06.3400000000E+03-5.000000000E+01+
*       1.6666666667E+01               0
GRID*             105038               06.3500000000E+03-5.000000000E+01+
*       -1.666666667E+01               0
GRID*             105039               06.3500000000E+03-5.000000000E+01+
*       1.6666666667E+01               0
GRID*             105040               06.3600000000E+03-5.000000000E+01+
*       -1.666666667E+01               0
GRID*             105041               06.3600000000E+03-5.000000000E+01+
*       1.6666666667E+01               0
GRID*             105042               06.3700000000E+03-5.000000000E+01+
*       -1.666666667E+01               0
GRID*             105043               06.3700000000E+03-5.000000000E+01+
*       1.6666666667E+01               0
GRID*             105044               06.3800000000E+03-5.000000000E+01+
*       -1.666666667E+01               0
GRID*             105045               06.3800000000E+03-5.000000000E+01+
*       1.6666666667E+01               0
GRID*             105046               06.3900000000E+03-5.000000000E+01+
*       -1.666666667E+01               0
GRID*             105047               06.3900000000E+03-5.000000000E+01+
*       1.6666666667E+01               0
GRID*             105048               06.4000000000E+03-5.000000000E+01+
*       -1.666666667E+01               0
GRID*             105049               06.4000000000E+03-5.000000000E+01+
*       1.6666666667E+01               0
GRID*             105050               06.4100000000E+03-5.000000000E+01+
*       -1.666666667E+01               0
GRID*             105051               06.4100000000E+03-5.000000000E+01+
*       1.6666666667E+01               0
GRID*             105052               06.4200000000E+03-5.000000000E+01+
*       -1.666666667E+01               0
GRID*             105053               06.4200000000E+03-5.000000000E+01+
*       1.6666666667E+01               0
GRID*             105054               06.4300000000E+03-5.000000000E+01+
*       -1.666666667E+01               0
GRID*             105055               06.4300000000E+03-5.000000000E+01+
*       1.6666666667E+01               0
GRID*             105056               06.4400000000E+03-5.000000000E+01+
*       -1.666666667E+01               0
GRID*             105057               06.4400000000E+03-5.000000000E+01+
*       1.6666666667E+01               0
GRID*             105058               06.4500000000E+03-5.000000000E+01+
*       -1.666666667E+01               0
GRID*             105059               06.4500000000E+03-5.000000000E+01+
*       1.6666666667E+01               0
GRID*             105060               06.4600000000E+03-5.000000000E+01+
*       -1.666666667E+01               0
GRID*             105061               06.4600000000E+03-5.000000000E+01+
*       1.6666666667E+01               0
GRID*             105062               06.4700000000E+03-5.000000000E+01+
*       -1.666666667E+01               0
GRID*             105063               06.4700000000E+03-5.000000000E+01+
*       1.6666666667E+01               0
GRID*             105064               06.4800000000E+03-5.000000000E+01+
*       -1.666666667E+01               0
GRID*             105065               06.4800000000E+03-5.000000000E+01+
*       1.6666666667E+01               0
GRID*             105066               06.4900000000E+03-5.000000000E+01+
*       -1.666666667E+01               0
GRID*             105067               06.4900000000E+03-5.000000000E+01+
*       1.6666666667E+01               0
GRID*             105068               06.5000000000E+03-5.000000000E+01+
*       -1.666666667E+01               0
GRID*             105069               06.5000000000E+03-5.000000000E+01+
*       1.6666666667E+01               0
GRID*             105070               06.5100000000E+03-5.000000000E+01+
*       -1.666666667E+01               0
GRID*             105071               06.5100000000E+03-5.000000000E+01+
*       1.6666666667E+01               0
GRID*             105072               06.5200000000E+03-5.000000000E+01+
*       -1.666666667E+01               0
GRID*             105073               06.5200000000E+03-5.000000000E+01+
*       1.6666666667E+01               0
GRID*             105074               06.5300000000E+03-5.000000000E+01+
*       -1.666666667E+01               0
GRID*             105075               06.5300000000E+03-5.000000000E+01+
*       1.6666666667E+01               0
GRID*             105076               06.5400000000E+03-5.000000000E+01+
*       -1.666666667E+01               0
GRID*             105077               06.5400000000E+03-5.000000000E+01+
*       1.6666666667E+01               0
GRID*             105078               06.5500000000E+03-5.000000000E+01+
*       -1.666666667E+01               0
GRID*             105079               06.5500000000E+03-5.000000000E+01+
*       1.6666666667E+01               0
GRID*             105080               06.5600000000E+03-5.000000000E+01+
*       -1.666666667E+01               0
GRID*             105081               06.5600000000E+03-5.000000000E+01+
*       1.6666666667E+01               0
GRID*             105082               06.5700000000E+03-5.000000000E+01+
*       -1.666666667E+01               0
GRID*             105083               06.5700000000E+03-5.000000000E+01+
*       1.6666666667E+01               0
GRID*             105084               06.5800000000E+03-5.000000000E+01+
*       -1.666666667E+01               0
GRID*             105085               06.5800000000E+03-5.000000000E+01+
*       1.6666666667E+01               0
GRID*             105086               06.5900000000E+03-5.000000000E+01+
*       -1.666666667E+01               0
GRID*             105087               06.5900000000E+03-5.000000000E+01+
*       1.6666666667E+01               0
GRID*             105088               06.6000000000E+03-5.000000000E+01+
*       -1.666666667E+01               0
GRID*             105089               06.6000000000E+03-5.000000000E+01+
*       1.6666666667E+01               0
GRID*             105090               06.6100000000E+03-5.000000000E+01+
*       -1.666666667E+01               0
GRID*             105091               06.6100000000E+03-5.000000000E+01+
*       1.6666666667E+01               0
GRID*             105092               06.6200000000E+03-5.000000000E+01+
*       -1.666666667E+01               0
GRID*             105093               06.6200000000E+03-5.000000000E+01+
*       1.6666666667E+01               0
GRID*             105094               06.6300000000E+03-5.000000000E+01+
*       -1.666666667E+01               0
GRID*             105095               06.6300000000E+03-5.000000000E+01+
*       1.6666666667E+01               0
GRID*             105096               06.6400000000E+03-5.000000000E+01+
*       -1.666666667E+01               0
GRID*             105097               06.6400000000E+03-5.000000000E+01+
*       1.6666666667E+01               0
GRID*             105098               06.6500000000E+03-5.000000000E+01+
*       -1.666666667E+01               0
GRID*             105099               06.6500000000E+03-5.000000000E+01+
*       1.6666666667E+01               0
GRID*             105100               06.6600000000E+03-5.000000000E+01+
*       -1.666666667E+01               0
GRID*             105101               06.6600000000E+03-5.000000000E+01+
*       1.6666666667E+01               0
GRID*             105102               06.6700000000E+03-5.000000000E+01+
*       -1.666666667E+01               0
GRID*             105103               06.6700000000E+03-5.000000000E+01+
*       1.6666666667E+01               0
GRID*             105104               06.6800000000E+03-5.000000000E+01+
*       -1.666666667E+01               0
GRID*             105105               06.6800000000E+03-5.000000000E+01+
*       1.6666666667E+01               0
GRID*             105106               06.6900000000E+03-5.000000000E+01+
*       -1.666666667E+01               0
GRID*             105107               06.6900000000E+03-5.000000000E+01+
*       1.6666666667E+01               0
GRID*             105108               06.7000000000E+03-5.000000000E+01+
*       -1.666666667E+01               0
GRID*             105109               06.7000000000E+03-5.000000000E+01+
*       1.6666666667E+01               0
GRID*             105110               06.7100000000E+03-5.000000000E+01+
*       -1.666666667E+01               0
GRID*             105111               06.7100000000E+03-5.000000000E+01+
*       1.6666666667E+01               0
GRID*             105112               06.7200000000E+03-5.000000000E+01+
*       -1.666666667E+01               0
GRID*             105113               06.7200000000E+03-5.000000000E+01+
*       1.6666666667E+01               0
GRID*             105114               06.7300000000E+03-5.000000000E+01+
*       -1.666666667E+01               0
GRID*             105115               06.7300000000E+03-5.000000000E+01+
*       1.6666666667E+01               0
GRID*             105116               06.7400000000E+03-5.000000000E+01+
*       -1.666666667E+01               0
GRID*             105117               06.7400000000E+03-5.000000000E+01+
*       1.6666666667E+01               0
GRID*             105118               06.7500000000E+03-5.000000000E+01+
*       -1.666666667E+01               0
GRID*             105119               06.7500000000E+03-5.000000000E+01+
*       1.6666666667E+01               0
GRID*             105120               06.7600000000E+03-5.000000000E+01+
*       -1.666666667E+01               0
GRID*             105121               06.7600000000E+03-5.000000000E+01+
*       1.6666666667E+01               0
GRID*             105122               06.7700000000E+03-5.000000000E+01+
*       -1.666666667E+01               0
GRID*             105123               06.7700000000E+03-5.000000000E+01+
*       1.6666666667E+01               0
GRID*             105124               06.7800000000E+03-5.000000000E+01+
*       -1.666666667E+01               0
GRID*             105125               06.7800000000E+03-5.000000000E+01+
*       1.6666666667E+01               0
GRID*             105126               06.7900000000E+03-5.000000000E+01+
*       -1.666666667E+01               0
GRID*             105127               06.7900000000E+03-5.000000000E+01+
*       1.6666666667E+01               0
GRID*             105128               06.8000000000E+03-5.000000000E+01+
*       -1.666666667E+01               0
GRID*             105129               06.8000000000E+03-5.000000000E+01+
*       1.6666666667E+01               0
GRID*             105130               06.8100000000E+03-5.000000000E+01+
*       -1.666666667E+01               0
GRID*             105131               06.8100000000E+03-5.000000000E+01+
*       1.6666666667E+01               0
GRID*             105132               06.8200000000E+03-5.000000000E+01+
*       -1.666666667E+01               0
GRID*             105133               06.8200000000E+03-5.000000000E+01+
*       1.6666666667E+01               0
GRID*             105134               06.8300000000E+03-5.000000000E+01+
*       -1.666666667E+01               0
GRID*             105135               06.8300000000E+03-5.000000000E+01+
*       1.6666666667E+01               0
GRID*             105136               06.8400000000E+03-5.000000000E+01+
*       -1.666666667E+01               0
GRID*             105137               06.8400000000E+03-5.000000000E+01+
*       1.6666666667E+01               0
GRID*             105138               06.8500000000E+03-5.000000000E+01+
*       -1.666666667E+01               0
GRID*             105139               06.8500000000E+03-5.000000000E+01+
*       1.6666666667E+01               0
GRID*             105140               06.8600000000E+03-5.000000000E+01+
*       -1.666666667E+01               0
GRID*             105141               06.8600000000E+03-5.000000000E+01+
*       1.6666666667E+01               0
GRID*             105142               06.8700000000E+03-5.000000000E+01+
*       -1.666666667E+01               0
GRID*             105143               06.8700000000E+03-5.000000000E+01+
*       1.6666666667E+01               0
GRID*             105144               06.8800000000E+03-5.000000000E+01+
*       -1.666666667E+01               0
GRID*             105145               06.8800000000E+03-5.000000000E+01+
*       1.6666666667E+01               0
GRID*             105146               06.8900000000E+03-5.000000000E+01+
*       -1.666666667E+01               0
GRID*             105147               06.8900000000E+03-5.000000000E+01+
*       1.6666666667E+01               0
GRID*             105148               06.9000000000E+03-5.000000000E+01+
*       -1.666666667E+01               0
GRID*             105149               06.9000000000E+03-5.000000000E+01+
*       1.6666666667E+01               0
GRID*             105150               06.9100000000E+03-5.000000000E+01+
*       -1.666666667E+01               0
GRID*             105151               06.9100000000E+03-5.000000000E+01+
*       1.6666666667E+01               0
GRID*             105152               06.9200000000E+03-5.000000000E+01+
*       -1.666666667E+01               0
GRID*             105153               06.9200000000E+03-5.000000000E+01+
*       1.6666666667E+01               0
GRID*             105154               06.9300000000E+03-5.000000000E+01+
*       -1.666666667E+01               0
GRID*             105155               06.9300000000E+03-5.000000000E+01+
*       1.6666666667E+01               0
GRID*             105156               06.9400000000E+03-5.000000000E+01+
*       -1.666666667E+01               0
GRID*             105157               06.9400000000E+03-5.000000000E+01+
*       1.6666666667E+01               0
GRID*             105158               06.9500000000E+03-5.000000000E+01+
*       -1.666666667E+01               0
GRID*             105159               06.9500000000E+03-5.000000000E+01+
*       1.6666666667E+01               0
GRID*             105160               06.9600000000E+03-5.000000000E+01+
*       -1.666666667E+01               0
GRID*             105161               06.9600000000E+03-5.000000000E+01+
*       1.6666666667E+01               0
GRID*             105162               06.9700000000E+03-5.000000000E+01+
*       -1.666666667E+01               0
GRID*             105163               06.9700000000E+03-5.000000000E+01+
*       1.6666666667E+01               0
GRID*             105164               06.9800000000E+03-5.000000000E+01+
*       -1.666666667E+01               0
GRID*             105165               06.9800000000E+03-5.000000000E+01+
*       1.6666666667E+01               0
GRID*             105166               06.9900000000E+03-5.000000000E+01+
*       -1.666666667E+01               0
GRID*             105167               06.9900000000E+03-5.000000000E+01+
*       1.6666666667E+01               0
GRID*             105168               04.0100000000E+031.6666666667E+01+
*       -5.000000000E+01               0
GRID*             105169               04.0100000000E+03-1.666666667E+01+
*       -5.000000000E+01               0
GRID*             105170               04.0200000000E+031.6666666667E+01+
*       -5.000000000E+01               0
GRID*             105171               04.0200000000E+03-1.666666667E+01+
*       -5.000000000E+01               0
GRID*             105172               04.0300000000E+031.6666666667E+01+
*       -5.000000000E+01               0
GRID*             105173               04.0300000000E+03-1.666666667E+01+
*       -5.000000000E+01               0
GRID*             105174               04.0400000000E+031.6666666667E+01+
*       -5.000000000E+01               0
GRID*             105175               04.0400000000E+03-1.666666667E+01+
*       -5.000000000E+01               0
GRID*             105176               04.0500000000E+031.6666666667E+01+
*       -5.000000000E+01               0
GRID*             105177               04.0500000000E+03-1.666666667E+01+
*       -5.000000000E+01               0
GRID*             105178               04.0600000000E+031.6666666667E+01+
*       -5.000000000E+01               0
GRID*             105179               04.0600000000E+03-1.666666667E+01+
*       -5.000000000E+01               0
GRID*             105180               04.0700000000E+031.6666666667E+01+
*       -5.000000000E+01               0
GRID*             105181               04.0700000000E+03-1.666666667E+01+
*       -5.000000000E+01               0
GRID*             105182               04.0800000000E+031.6666666667E+01+
*       -5.000000000E+01               0
GRID*             105183               04.0800000000E+03-1.666666667E+01+
*       -5.000000000E+01               0
GRID*             105184               04.0900000000E+031.6666666667E+01+
*       -5.000000000E+01               0
GRID*             105185               04.0900000000E+03-1.666666667E+01+
*       -5.000000000E+01               0
GRID*             105186               04.1000000000E+031.6666666667E+01+
*       -5.000000000E+01               0
GRID*             105187               04.1000000000E+03-1.666666667E+01+
*       -5.000000000E+01               0
GRID*             105188               04.1100000000E+031.6666666667E+01+
*       -5.000000000E+01               0
GRID*             105189               04.1100000000E+03-1.666666667E+01+
*       -5.000000000E+01               0
GRID*             105190               04.1200000000E+031.6666666667E+01+
*       -5.000000000E+01               0
GRID*             105191               04.1200000000E+03-1.666666667E+01+
*       -5.000000000E+01               0
GRID*             105192               04.1300000000E+031.6666666667E+01+
*       -5.000000000E+01               0
GRID*             105193               04.1300000000E+03-1.666666667E+01+
*       -5.000000000E+01               0
GRID*             105194               04.1400000000E+031.6666666667E+01+
*       -5.000000000E+01               0
GRID*             105195               04.1400000000E+03-1.666666667E+01+
*       -5.000000000E+01               0
GRID*             105196               04.1500000000E+031.6666666667E+01+
*       -5.000000000E+01               0
GRID*             105197               04.1500000000E+03-1.666666667E+01+
*       -5.000000000E+01               0
GRID*             105198               04.1600000000E+031.6666666667E+01+
*       -5.000000000E+01               0
GRID*             105199               04.1600000000E+03-1.666666667E+01+
*       -5.000000000E+01               0
GRID*             105200               04.1700000000E+031.6666666667E+01+
*       -5.000000000E+01               0
GRID*             105201               04.1700000000E+03-1.666666667E+01+
*       -5.000000000E+01               0
GRID*             105202               04.1800000000E+031.6666666667E+01+
*       -5.000000000E+01               0
GRID*             105203               04.1800000000E+03-1.666666667E+01+
*       -5.000000000E+01               0
GRID*             105204               04.1900000000E+031.6666666667E+01+
*       -5.000000000E+01               0
GRID*             105205               04.1900000000E+03-1.666666667E+01+
*       -5.000000000E+01               0
GRID*             105206               04.2000000000E+031.6666666667E+01+
*       -5.000000000E+01               0
GRID*             105207               04.2000000000E+03-1.666666667E+01+
*       -5.000000000E+01               0
GRID*             105208               04.2100000000E+031.6666666667E+01+
*       -5.000000000E+01               0
GRID*             105209               04.2100000000E+03-1.666666667E+01+
*       -5.000000000E+01               0
GRID*             105210               04.2200000000E+031.6666666667E+01+
*       -5.000000000E+01               0
GRID*             105211               04.2200000000E+03-1.666666667E+01+
*       -5.000000000E+01               0
GRID*             105212               04.2300000000E+031.6666666667E+01+
*       -5.000000000E+01               0
GRID*             105213               04.2300000000E+03-1.666666667E+01+
*       -5.000000000E+01               0
GRID*             105214               04.2400000000E+031.6666666667E+01+
*       -5.000000000E+01               0
GRID*             105215               04.2400000000E+03-1.666666667E+01+
*       -5.000000000E+01               0
GRID*             105216               04.2500000000E+031.6666666667E+01+
*       -5.000000000E+01               0
GRID*             105217               04.2500000000E+03-1.666666667E+01+
*       -5.000000000E+01               0
GRID*             105218               04.2600000000E+031.6666666667E+01+
*       -5.000000000E+01               0
GRID*             105219               04.2600000000E+03-1.666666667E+01+
*       -5.000000000E+01               0
GRID*             105220               04.2700000000E+031.6666666667E+01+
*       -5.000000000E+01               0
GRID*             105221               04.2700000000E+03-1.666666667E+01+
*       -5.000000000E+01               0
GRID*             105222               04.2800000000E+031.6666666667E+01+
*       -5.000000000E+01               0
GRID*             105223               04.2800000000E+03-1.666666667E+01+
*       -5.000000000E+01               0
GRID*             105224               04.2900000000E+031.6666666667E+01+
*       -5.000000000E+01               0
GRID*             105225               04.2900000000E+03-1.666666667E+01+
*       -5.000000000E+01               0
GRID*             105226               04.3000000000E+031.6666666667E+01+
*       -5.000000000E+01               0
GRID*             105227               04.3000000000E+03-1.666666667E+01+
*       -5.000000000E+01               0
GRID*             105228               04.3100000000E+031.6666666667E+01+
*       -5.000000000E+01               0
GRID*             105229               04.3100000000E+03-1.666666667E+01+
*       -5.000000000E+01               0
GRID*             105230               04.3200000000E+031.6666666667E+01+
*       -5.000000000E+01               0
GRID*             105231               04.3200000000E+03-1.666666667E+01+
*       -5.000000000E+01               0
GRID*             105232               04.3300000000E+031.6666666667E+01+
*       -5.000000000E+01               0
GRID*             105233               04.3300000000E+03-1.666666667E+01+
*       -5.000000000E+01               0
GRID*             105234               04.3400000000E+031.6666666667E+01+
*       -5.000000000E+01               0
GRID*             105235               04.3400000000E+03-1.666666667E+01+
*       -5.000000000E+01               0
GRID*             105236               04.3500000000E+031.6666666667E+01+
*       -5.000000000E+01               0
GRID*             105237               04.3500000000E+03-1.666666667E+01+
*       -5.000000000E+01               0
GRID*             105238               04.3600000000E+031.6666666667E+01+
*       -5.000000000E+01               0
GRID*             105239               04.3600000000E+03-1.666666667E+01+
*       -5.000000000E+01               0
GRID*             105240               04.3700000000E+031.6666666667E+01+
*       -5.000000000E+01               0
GRID*             105241               04.3700000000E+03-1.666666667E+01+
*       -5.000000000E+01               0
GRID*             105242               04.3800000000E+031.6666666667E+01+
*       -5.000000000E+01               0
GRID*             105243               04.3800000000E+03-1.666666667E+01+
*       -5.000000000E+01               0
GRID*             105244               04.3900000000E+031.6666666667E+01+
*       -5.000000000E+01               0
GRID*             105245               04.3900000000E+03-1.666666667E+01+
*       -5.000000000E+01               0
GRID*             105246               04.4000000000E+031.6666666667E+01+
*       -5.000000000E+01               0
GRID*             105247               04.4000000000E+03-1.666666667E+01+
*       -5.000000000E+01               0
GRID*             105248               04.4100000000E+031.6666666667E+01+
*       -5.000000000E+01               0
GRID*             105249               04.4100000000E+03-1.666666667E+01+
*       -5.000000000E+01               0
GRID*             105250               04.4200000000E+031.6666666667E+01+
*       -5.000000000E+01               0
GRID*             105251               04.4200000000E+03-1.666666667E+01+
*       -5.000000000E+01               0
GRID*             105252               04.4300000000E+031.6666666667E+01+
*       -5.000000000E+01               0
GRID*             105253               04.4300000000E+03-1.666666667E+01+
*       -5.000000000E+01               0
GRID*             105254               04.4400000000E+031.6666666667E+01+
*       -5.000000000E+01               0
GRID*             105255               04.4400000000E+03-1.666666667E+01+
*       -5.000000000E+01               0
GRID*             105256               04.4500000000E+031.6666666667E+01+
*       -5.000000000E+01               0
GRID*             105257               04.4500000000E+03-1.666666667E+01+
*       -5.000000000E+01               0
GRID*             105258               04.4600000000E+031.6666666667E+01+
*       -5.000000000E+01               0
GRID*             105259               04.4600000000E+03-1.666666667E+01+
*       -5.000000000E+01               0
GRID*             105260               04.4700000000E+031.6666666667E+01+
*       -5.000000000E+01               0
GRID*             105261               04.4700000000E+03-1.666666667E+01+
*       -5.000000000E+01               0
GRID*             105262               04.4800000000E+031.6666666667E+01+
*       -5.000000000E+01               0
GRID*             105263               04.4800000000E+03-1.666666667E+01+
*       -5.000000000E+01               0
GRID*             105264               04.4900000000E+031.6666666667E+01+
*       -5.000000000E+01               0
GRID*             105265               04.4900000000E+03-1.666666667E+01+
*       -5.000000000E+01               0
GRID*             105266               04.5000000000E+031.6666666667E+01+
*       -5.000000000E+01               0
GRID*             105267               04.5000000000E+03-1.666666667E+01+
*       -5.000000000E+01               0
GRID*             105268               04.5100000000E+031.6666666667E+01+
*       -5.000000000E+01               0
GRID*             105269               04.5100000000E+03-1.666666667E+01+
*       -5.000000000E+01               0
GRID*             105270               04.5200000000E+031.6666666667E+01+
*       -5.000000000E+01               0
GRID*             105271               04.5200000000E+03-1.666666667E+01+
*       -5.000000000E+01               0
GRID*             105272               04.5300000000E+031.6666666667E+01+
*       -5.000000000E+01               0
GRID*             105273               04.5300000000E+03-1.666666667E+01+
*       -5.000000000E+01               0
GRID*             105274               04.5400000000E+031.6666666667E+01+
*       -5.000000000E+01               0
GRID*             105275               04.5400000000E+03-1.666666667E+01+
*       -5.000000000E+01               0
GRID*             105276               04.5500000000E+031.6666666667E+01+
*       -5.000000000E+01               0
GRID*             105277               04.5500000000E+03-1.666666667E+01+
*       -5.000000000E+01               0
GRID*             105278               04.5600000000E+031.6666666667E+01+
*       -5.000000000E+01               0
GRID*             105279               04.5600000000E+03-1.666666667E+01+
*       -5.000000000E+01               0
GRID*             105280               04.5700000000E+031.6666666667E+01+
*       -5.000000000E+01               0
GRID*             105281               04.5700000000E+03-1.666666667E+01+
*       -5.000000000E+01               0
GRID*             105282               04.5800000000E+031.6666666667E+01+
*       -5.000000000E+01               0
GRID*             105283               04.5800000000E+03-1.666666667E+01+
*       -5.000000000E+01               0
GRID*             105284               04.5900000000E+031.6666666667E+01+
*       -5.000000000E+01               0
GRID*             105285               04.5900000000E+03-1.666666667E+01+
*       -5.000000000E+01               0
GRID*             105286               04.6000000000E+031.6666666667E+01+
*       -5.000000000E+01               0
GRID*             105287               04.6000000000E+03-1.666666667E+01+
*       -5.000000000E+01               0
GRID*             105288               04.6100000000E+031.6666666667E+01+
*       -5.000000000E+01               0
GRID*             105289               04.6100000000E+03-1.666666667E+01+
*       -5.000000000E+01               0
GRID*             105290               04.6200000000E+031.6666666667E+01+
*       -5.000000000E+01               0
GRID*             105291               04.6200000000E+03-1.666666667E+01+
*       -5.000000000E+01               0
GRID*             105292               04.6300000000E+031.6666666667E+01+
*       -5.000000000E+01               0
GRID*             105293               04.6300000000E+03-1.666666667E+01+
*       -5.000000000E+01               0
GRID*             105294               04.6400000000E+031.6666666667E+01+
*       -5.000000000E+01               0
GRID*             105295               04.6400000000E+03-1.666666667E+01+
*       -5.000000000E+01               0
GRID*             105296               04.6500000000E+031.6666666667E+01+
*       -5.000000000E+01               0
GRID*             105297               04.6500000000E+03-1.666666667E+01+
*       -5.000000000E+01               0
GRID*             105298               04.6600000000E+031.6666666667E+01+
*       -5.000000000E+01               0
GRID*             105299               04.6600000000E+03-1.666666667E+01+
*       -5.000000000E+01               0
GRID*             105300               04.6700000000E+031.6666666667E+01+
*       -5.000000000E+01               0
GRID*             105301               04.6700000000E+03-1.666666667E+01+
*       -5.000000000E+01               0
GRID*             105302               04.6800000000E+031.6666666667E+01+
*       -5.000000000E+01               0
GRID*             105303               04.6800000000E+03-1.666666667E+01+
*       -5.000000000E+01               0
GRID*             105304               04.6900000000E+031.6666666667E+01+
*       -5.000000000E+01               0
GRID*             105305               04.6900000000E+03-1.666666667E+01+
*       -5.000000000E+01               0
GRID*             105306               04.7000000000E+031.6666666667E+01+
*       -5.000000000E+01               0
GRID*             105307               04.7000000000E+03-1.666666667E+01+
*       -5.000000000E+01               0
GRID*             105308               04.7100000000E+031.6666666667E+01+
*       -5.000000000E+01               0
GRID*             105309               04.7100000000E+03-1.666666667E+01+
*       -5.000000000E+01               0
GRID*             105310               04.7200000000E+031.6666666667E+01+
*       -5.000000000E+01               0
GRID*             105311               04.7200000000E+03-1.666666667E+01+
*       -5.000000000E+01               0
GRID*             105312               04.7300000000E+031.6666666667E+01+
*       -5.000000000E+01               0
GRID*             105313               04.7300000000E+03-1.666666667E+01+
*       -5.000000000E+01               0
GRID*             105314               04.7400000000E+031.6666666667E+01+
*       -5.000000000E+01               0
GRID*             105315               04.7400000000E+03-1.666666667E+01+
*       -5.000000000E+01               0
GRID*             105316               04.7500000000E+031.6666666667E+01+
*       -5.000000000E+01               0
GRID*             105317               04.7500000000E+03-1.666666667E+01+
*       -5.000000000E+01               0
GRID*             105318               04.7600000000E+031.6666666667E+01+
*       -5.000000000E+01               0
GRID*             105319               04.7600000000E+03-1.666666667E+01+
*       -5.000000000E+01               0
GRID*             105320               04.7700000000E+031.6666666667E+01+
*       -5.000000000E+01               0
GRID*             105321               04.7700000000E+03-1.666666667E+01+
*       -5.000000000E+01               0
GRID*             105322               04.7800000000E+031.6666666667E+01+
*       -5.000000000E+01               0
GRID*             105323               04.7800000000E+03-1.666666667E+01+
*       -5.000000000E+01               0
GRID*             105324               04.7900000000E+031.6666666667E+01+
*       -5.000000000E+01               0
GRID*             105325               04.7900000000E+03-1.666666667E+01+
*       -5.000000000E+01               0
GRID*             105326               04.8000000000E+031.6666666667E+01+
*       -5.000000000E+01               0
GRID*             105327               04.8000000000E+03-1.666666667E+01+
*       -5.000000000E+01               0
GRID*             105328               04.8100000000E+031.6666666667E+01+
*       -5.000000000E+01               0
GRID*             105329               04.8100000000E+03-1.666666667E+01+
*       -5.000000000E+01               0
GRID*             105330               04.8200000000E+031.6666666667E+01+
*       -5.000000000E+01               0
GRID*             105331               04.8200000000E+03-1.666666667E+01+
*       -5.000000000E+01               0
GRID*             105332               04.8300000000E+031.6666666667E+01+
*       -5.000000000E+01               0
GRID*             105333               04.8300000000E+03-1.666666667E+01+
*       -5.000000000E+01               0
GRID*             105334               04.8400000000E+031.6666666667E+01+
*       -5.000000000E+01               0
GRID*             105335               04.8400000000E+03-1.666666667E+01+
*       -5.000000000E+01               0
GRID*             105336               04.8500000000E+031.6666666667E+01+
*       -5.000000000E+01               0
GRID*             105337               04.8500000000E+03-1.666666667E+01+
*       -5.000000000E+01               0
GRID*             105338               04.8600000000E+031.6666666667E+01+
*       -5.000000000E+01               0
GRID*             105339               04.8600000000E+03-1.666666667E+01+
*       -5.000000000E+01               0
GRID*             105340               04.8700000000E+031.6666666667E+01+
*       -5.000000000E+01               0
GRID*             105341               04.8700000000E+03-1.666666667E+01+
*       -5.000000000E+01               0
GRID*             105342               04.8800000000E+031.6666666667E+01+
*       -5.000000000E+01               0
GRID*             105343               04.8800000000E+03-1.666666667E+01+
*       -5.000000000E+01               0
GRID*             105344               04.8900000000E+031.6666666667E+01+
*       -5.000000000E+01               0
GRID*             105345               04.8900000000E+03-1.666666667E+01+
*       -5.000000000E+01               0
GRID*             105346               04.9000000000E+031.6666666667E+01+
*       -5.000000000E+01               0
GRID*             105347               04.9000000000E+03-1.666666667E+01+
*       -5.000000000E+01               0
GRID*             105348               04.9100000000E+031.6666666667E+01+
*       -5.000000000E+01               0
GRID*             105349               04.9100000000E+03-1.666666667E+01+
*       -5.000000000E+01               0
GRID*             105350               04.9200000000E+031.6666666667E+01+
*       -5.000000000E+01               0
GRID*             105351               04.9200000000E+03-1.666666667E+01+
*       -5.000000000E+01               0
GRID*             105352               04.9300000000E+031.6666666667E+01+
*       -5.000000000E+01               0
GRID*             105353               04.9300000000E+03-1.666666667E+01+
*       -5.000000000E+01               0
GRID*             105354               04.9400000000E+031.6666666667E+01+
*       -5.000000000E+01               0
GRID*             105355               04.9400000000E+03-1.666666667E+01+
*       -5.000000000E+01               0
GRID*             105356               04.9500000000E+031.6666666667E+01+
*       -5.000000000E+01               0
GRID*             105357               04.9500000000E+03-1.666666667E+01+
*       -5.000000000E+01               0
GRID*             105358               04.9600000000E+031.6666666667E+01+
*       -5.000000000E+01               0
GRID*             105359               04.9600000000E+03-1.666666667E+01+
*       -5.000000000E+01               0
GRID*             105360               04.9700000000E+031.6666666667E+01+
*       -5.000000000E+01               0
GRID*             105361               04.9700000000E+03-1.666666667E+01+
*       -5.000000000E+01               0
GRID*             105362               04.9800000000E+031.6666666667E+01+
*       -5.000000000E+01               0
GRID*             105363               04.9800000000E+03-1.666666667E+01+
*       -5.000000000E+01               0
GRID*             105364               04.9900000000E+031.6666666667E+01+
*       -5.000000000E+01               0
GRID*             105365               04.9900000000E+03-1.666666667E+01+
*       -5.000000000E+01               0
GRID*             105366               05.0000000000E+031.6666666667E+01+
*       -5.000000000E+01               0
GRID*             105367               05.0000000000E+03-1.666666667E+01+
*       -5.000000000E+01               0
GRID*             105368               05.0100000000E+031.6666666667E+01+
*       -5.000000000E+01               0
GRID*             105369               05.0100000000E+03-1.666666667E+01+
*       -5.000000000E+01               0
GRID*             105370               05.0200000000E+031.6666666667E+01+
*       -5.000000000E+01               0
GRID*             105371               05.0200000000E+03-1.666666667E+01+
*       -5.000000000E+01               0
GRID*             105372               05.0300000000E+031.6666666667E+01+
*       -5.000000000E+01               0
GRID*             105373               05.0300000000E+03-1.666666667E+01+
*       -5.000000000E+01               0
GRID*             105374               05.0400000000E+031.6666666667E+01+
*       -5.000000000E+01               0
GRID*             105375               05.0400000000E+03-1.666666667E+01+
*       -5.000000000E+01               0
GRID*             105376               05.0500000000E+031.6666666667E+01+
*       -5.000000000E+01               0
GRID*             105377               05.0500000000E+03-1.666666667E+01+
*       -5.000000000E+01               0
GRID*             105378               05.0600000000E+031.6666666667E+01+
*       -5.000000000E+01               0
GRID*             105379               05.0600000000E+03-1.666666667E+01+
*       -5.000000000E+01               0
GRID*             105380               05.0700000000E+031.6666666667E+01+
*       -5.000000000E+01               0
GRID*             105381               05.0700000000E+03-1.666666667E+01+
*       -5.000000000E+01               0
GRID*             105382               05.0800000000E+031.6666666667E+01+
*       -5.000000000E+01               0
GRID*             105383               05.0800000000E+03-1.666666667E+01+
*       -5.000000000E+01               0
GRID*             105384               05.0900000000E+031.6666666667E+01+
*       -5.000000000E+01               0
GRID*             105385               05.0900000000E+03-1.666666667E+01+
*       -5.000000000E+01               0
GRID*             105386               05.1000000000E+031.6666666667E+01+
*       -5.000000000E+01               0
GRID*             105387               05.1000000000E+03-1.666666667E+01+
*       -5.000000000E+01               0
GRID*             105388               05.1100000000E+031.6666666667E+01+
*       -5.000000000E+01               0
GRID*             105389               05.1100000000E+03-1.666666667E+01+
*       -5.000000000E+01               0
GRID*             105390               05.1200000000E+031.6666666667E+01+
*       -5.000000000E+01               0
GRID*             105391               05.1200000000E+03-1.666666667E+01+
*       -5.000000000E+01               0
GRID*             105392               05.1300000000E+031.6666666667E+01+
*       -5.000000000E+01               0
GRID*             105393               05.1300000000E+03-1.666666667E+01+
*       -5.000000000E+01               0
GRID*             105394               05.1400000000E+031.6666666667E+01+
*       -5.000000000E+01               0
GRID*             105395               05.1400000000E+03-1.666666667E+01+
*       -5.000000000E+01               0
GRID*             105396               05.1500000000E+031.6666666667E+01+
*       -5.000000000E+01               0
GRID*             105397               05.1500000000E+03-1.666666667E+01+
*       -5.000000000E+01               0
GRID*             105398               05.1600000000E+031.6666666667E+01+
*       -5.000000000E+01               0
GRID*             105399               05.1600000000E+03-1.666666667E+01+
*       -5.000000000E+01               0
GRID*             105400               05.1700000000E+031.6666666667E+01+
*       -5.000000000E+01               0
GRID*             105401               05.1700000000E+03-1.666666667E+01+
*       -5.000000000E+01               0
GRID*             105402               05.1800000000E+031.6666666667E+01+
*       -5.000000000E+01               0
GRID*             105403               05.1800000000E+03-1.666666667E+01+
*       -5.000000000E+01               0
GRID*             105404               05.1900000000E+031.6666666667E+01+
*       -5.000000000E+01               0
GRID*             105405               05.1900000000E+03-1.666666667E+01+
*       -5.000000000E+01               0
GRID*             105406               05.2000000000E+031.6666666667E+01+
*       -5.000000000E+01               0
GRID*             105407               05.2000000000E+03-1.666666667E+01+
*       -5.000000000E+01               0
GRID*             105408               05.2100000000E+031.6666666667E+01+
*       -5.000000000E+01               0
GRID*             105409               05.2100000000E+03-1.666666667E+01+
*       -5.000000000E+01               0
GRID*             105410               05.2200000000E+031.6666666667E+01+
*       -5.000000000E+01               0
GRID*             105411               05.2200000000E+03-1.666666667E+01+
*       -5.000000000E+01               0
GRID*             105412               05.2300000000E+031.6666666667E+01+
*       -5.000000000E+01               0
GRID*             105413               05.2300000000E+03-1.666666667E+01+
*       -5.000000000E+01               0
GRID*             105414               05.2400000000E+031.6666666667E+01+
*       -5.000000000E+01               0
GRID*             105415               05.2400000000E+03-1.666666667E+01+
*       -5.000000000E+01               0
GRID*             105416               05.2500000000E+031.6666666667E+01+
*       -5.000000000E+01               0
GRID*             105417               05.2500000000E+03-1.666666667E+01+
*       -5.000000000E+01               0
GRID*             105418               05.2600000000E+031.6666666667E+01+
*       -5.000000000E+01               0
GRID*             105419               05.2600000000E+03-1.666666667E+01+
*       -5.000000000E+01               0
GRID*             105420               05.2700000000E+031.6666666667E+01+
*       -5.000000000E+01               0
GRID*             105421               05.2700000000E+03-1.666666667E+01+
*       -5.000000000E+01               0
GRID*             105422               05.2800000000E+031.6666666667E+01+
*       -5.000000000E+01               0
GRID*             105423               05.2800000000E+03-1.666666667E+01+
*       -5.000000000E+01               0
GRID*             105424               05.2900000000E+031.6666666667E+01+
*       -5.000000000E+01               0
GRID*             105425               05.2900000000E+03-1.666666667E+01+
*       -5.000000000E+01               0
GRID*             105426               05.3000000000E+031.6666666667E+01+
*       -5.000000000E+01               0
GRID*             105427               05.3000000000E+03-1.666666667E+01+
*       -5.000000000E+01               0
GRID*             105428               05.3100000000E+031.6666666667E+01+
*       -5.000000000E+01               0
GRID*             105429               05.3100000000E+03-1.666666667E+01+
*       -5.000000000E+01               0
GRID*             105430               05.3200000000E+031.6666666667E+01+
*       -5.000000000E+01               0
GRID*             105431               05.3200000000E+03-1.666666667E+01+
*       -5.000000000E+01               0
GRID*             105432               05.3300000000E+031.6666666667E+01+
*       -5.000000000E+01               0
GRID*             105433               05.3300000000E+03-1.666666667E+01+
*       -5.000000000E+01               0
GRID*             105434               05.3400000000E+031.6666666667E+01+
*       -5.000000000E+01               0
GRID*             105435               05.3400000000E+03-1.666666667E+01+
*       -5.000000000E+01               0
GRID*             105436               05.3500000000E+031.6666666667E+01+
*       -5.000000000E+01               0
GRID*             105437               05.3500000000E+03-1.666666667E+01+
*       -5.000000000E+01               0
GRID*             105438               05.3600000000E+031.6666666667E+01+
*       -5.000000000E+01               0
GRID*             105439               05.3600000000E+03-1.666666667E+01+
*       -5.000000000E+01               0
GRID*             105440               05.3700000000E+031.6666666667E+01+
*       -5.000000000E+01               0
GRID*             105441               05.3700000000E+03-1.666666667E+01+
*       -5.000000000E+01               0
GRID*             105442               05.3800000000E+031.6666666667E+01+
*       -5.000000000E+01               0
GRID*             105443               05.3800000000E+03-1.666666667E+01+
*       -5.000000000E+01               0
GRID*             105444               05.3900000000E+031.6666666667E+01+
*       -5.000000000E+01               0
GRID*             105445               05.3900000000E+03-1.666666667E+01+
*       -5.000000000E+01               0
GRID*             105446               05.4000000000E+031.6666666667E+01+
*       -5.000000000E+01               0
GRID*             105447               05.4000000000E+03-1.666666667E+01+
*       -5.000000000E+01               0
GRID*             105448               05.4100000000E+031.6666666667E+01+
*       -5.000000000E+01               0
GRID*             105449               05.4100000000E+03-1.666666667E+01+
*       -5.000000000E+01               0
GRID*             105450               05.4200000000E+031.6666666667E+01+
*       -5.000000000E+01               0
GRID*             105451               05.4200000000E+03-1.666666667E+01+
*       -5.000000000E+01               0
GRID*             105452               05.4300000000E+031.6666666667E+01+
*       -5.000000000E+01               0
GRID*             105453               05.4300000000E+03-1.666666667E+01+
*       -5.000000000E+01               0
GRID*             105454               05.4400000000E+031.6666666667E+01+
*       -5.000000000E+01               0
GRID*             105455               05.4400000000E+03-1.666666667E+01+
*       -5.000000000E+01               0
GRID*             105456               05.4500000000E+031.6666666667E+01+
*       -5.000000000E+01               0
GRID*             105457               05.4500000000E+03-1.666666667E+01+
*       -5.000000000E+01               0
GRID*             105458               05.4600000000E+031.6666666667E+01+
*       -5.000000000E+01               0
GRID*             105459               05.4600000000E+03-1.666666667E+01+
*       -5.000000000E+01               0
GRID*             105460               05.4700000000E+031.6666666667E+01+
*       -5.000000000E+01               0
GRID*             105461               05.4700000000E+03-1.666666667E+01+
*       -5.000000000E+01               0
GRID*             105462               05.4800000000E+031.6666666667E+01+
*       -5.000000000E+01               0
GRID*             105463               05.4800000000E+03-1.666666667E+01+
*       -5.000000000E+01               0
GRID*             105464               05.4900000000E+031.6666666667E+01+
*       -5.000000000E+01               0
GRID*             105465               05.4900000000E+03-1.666666667E+01+
*       -5.000000000E+01               0
GRID*             105466               05.5000000000E+031.6666666667E+01+
*       -5.000000000E+01               0
GRID*             105467               05.5000000000E+03-1.666666667E+01+
*       -5.000000000E+01               0
GRID*             105468               05.5100000000E+031.6666666667E+01+
*       -5.000000000E+01               0
GRID*             105469               05.5100000000E+03-1.666666667E+01+
*       -5.000000000E+01               0
GRID*             105470               05.5200000000E+031.6666666667E+01+
*       -5.000000000E+01               0
GRID*             105471               05.5200000000E+03-1.666666667E+01+
*       -5.000000000E+01               0
GRID*             105472               05.5300000000E+031.6666666667E+01+
*       -5.000000000E+01               0
GRID*             105473               05.5300000000E+03-1.666666667E+01+
*       -5.000000000E+01               0
GRID*             105474               05.5400000000E+031.6666666667E+01+
*       -5.000000000E+01               0
GRID*             105475               05.5400000000E+03-1.666666667E+01+
*       -5.000000000E+01               0
GRID*             105476               05.5500000000E+031.6666666667E+01+
*       -5.000000000E+01               0
GRID*             105477               05.5500000000E+03-1.666666667E+01+
*       -5.000000000E+01               0
GRID*             105478               05.5600000000E+031.6666666667E+01+
*       -5.000000000E+01               0
GRID*             105479               05.5600000000E+03-1.666666667E+01+
*       -5.000000000E+01               0
GRID*             105480               05.5700000000E+031.6666666667E+01+
*       -5.000000000E+01               0
GRID*             105481               05.5700000000E+03-1.666666667E+01+
*       -5.000000000E+01               0
GRID*             105482               05.5800000000E+031.6666666667E+01+
*       -5.000000000E+01               0
GRID*             105483               05.5800000000E+03-1.666666667E+01+
*       -5.000000000E+01               0
GRID*             105484               05.5900000000E+031.6666666667E+01+
*       -5.000000000E+01               0
GRID*             105485               05.5900000000E+03-1.666666667E+01+
*       -5.000000000E+01               0
GRID*             105486               05.6000000000E+031.6666666667E+01+
*       -5.000000000E+01               0
GRID*             105487               05.6000000000E+03-1.666666667E+01+
*       -5.000000000E+01               0
GRID*             105488               05.6100000000E+031.6666666667E+01+
*       -5.000000000E+01               0
GRID*             105489               05.6100000000E+03-1.666666667E+01+
*       -5.000000000E+01               0
GRID*             105490               05.6200000000E+031.6666666667E+01+
*       -5.000000000E+01               0
GRID*             105491               05.6200000000E+03-1.666666667E+01+
*       -5.000000000E+01               0
GRID*             105492               05.6300000000E+031.6666666667E+01+
*       -5.000000000E+01               0
GRID*             105493               05.6300000000E+03-1.666666667E+01+
*       -5.000000000E+01               0
GRID*             105494               05.6400000000E+031.6666666667E+01+
*       -5.000000000E+01               0
GRID*             105495               05.6400000000E+03-1.666666667E+01+
*       -5.000000000E+01               0
GRID*             105496               05.6500000000E+031.6666666667E+01+
*       -5.000000000E+01               0
GRID*             105497               05.6500000000E+03-1.666666667E+01+
*       -5.000000000E+01               0
GRID*             105498               05.6600000000E+031.6666666667E+01+
*       -5.000000000E+01               0
GRID*             105499               05.6600000000E+03-1.666666667E+01+
*       -5.000000000E+01               0
GRID*             105500               05.6700000000E+031.6666666667E+01+
*       -5.000000000E+01               0
GRID*             105501               05.6700000000E+03-1.666666667E+01+
*       -5.000000000E+01               0
GRID*             105502               05.6800000000E+031.6666666667E+01+
*       -5.000000000E+01               0
GRID*             105503               05.6800000000E+03-1.666666667E+01+
*       -5.000000000E+01               0
GRID*             105504               05.6900000000E+031.6666666667E+01+
*       -5.000000000E+01               0
GRID*             105505               05.6900000000E+03-1.666666667E+01+
*       -5.000000000E+01               0
GRID*             105506               05.7000000000E+031.6666666667E+01+
*       -5.000000000E+01               0
GRID*             105507               05.7000000000E+03-1.666666667E+01+
*       -5.000000000E+01               0
GRID*             105508               05.7100000000E+031.6666666667E+01+
*       -5.000000000E+01               0
GRID*             105509               05.7100000000E+03-1.666666667E+01+
*       -5.000000000E+01               0
GRID*             105510               05.7200000000E+031.6666666667E+01+
*       -5.000000000E+01               0
GRID*             105511               05.7200000000E+03-1.666666667E+01+
*       -5.000000000E+01               0
GRID*             105512               05.7300000000E+031.6666666667E+01+
*       -5.000000000E+01               0
GRID*             105513               05.7300000000E+03-1.666666667E+01+
*       -5.000000000E+01               0
GRID*             105514               05.7400000000E+031.6666666667E+01+
*       -5.000000000E+01               0
GRID*             105515               05.7400000000E+03-1.666666667E+01+
*       -5.000000000E+01               0
GRID*             105516               05.7500000000E+031.6666666667E+01+
*       -5.000000000E+01               0
GRID*             105517               05.7500000000E+03-1.666666667E+01+
*       -5.000000000E+01               0
GRID*             105518               05.7600000000E+031.6666666667E+01+
*       -5.000000000E+01               0
GRID*             105519               05.7600000000E+03-1.666666667E+01+
*       -5.000000000E+01               0
GRID*             105520               05.7700000000E+031.6666666667E+01+
*       -5.000000000E+01               0
GRID*             105521               05.7700000000E+03-1.666666667E+01+
*       -5.000000000E+01               0
GRID*             105522               05.7800000000E+031.6666666667E+01+
*       -5.000000000E+01               0
GRID*             105523               05.7800000000E+03-1.666666667E+01+
*       -5.000000000E+01               0
GRID*             105524               05.7900000000E+031.6666666667E+01+
*       -5.000000000E+01               0
GRID*             105525               05.7900000000E+03-1.666666667E+01+
*       -5.000000000E+01               0
GRID*             105526               05.8000000000E+031.6666666667E+01+
*       -5.000000000E+01               0
GRID*             105527               05.8000000000E+03-1.666666667E+01+
*       -5.000000000E+01               0
GRID*             105528               05.8100000000E+031.6666666667E+01+
*       -5.000000000E+01               0
GRID*             105529               05.8100000000E+03-1.666666667E+01+
*       -5.000000000E+01               0
GRID*             105530               05.8200000000E+031.6666666667E+01+
*       -5.000000000E+01               0
GRID*             105531               05.8200000000E+03-1.666666667E+01+
*       -5.000000000E+01               0
GRID*             105532               05.8300000000E+031.6666666667E+01+
*       -5.000000000E+01               0
GRID*             105533               05.8300000000E+03-1.666666667E+01+
*       -5.000000000E+01               0
GRID*             105534               05.8400000000E+031.6666666667E+01+
*       -5.000000000E+01               0
GRID*             105535               05.8400000000E+03-1.666666667E+01+
*       -5.000000000E+01               0
GRID*             105536               05.8500000000E+031.6666666667E+01+
*       -5.000000000E+01               0
GRID*             105537               05.8500000000E+03-1.666666667E+01+
*       -5.000000000E+01               0
GRID*             105538               05.8600000000E+031.6666666667E+01+
*       -5.000000000E+01               0
GRID*             105539               05.8600000000E+03-1.666666667E+01+
*       -5.000000000E+01               0
GRID*             105540               05.8700000000E+031.6666666667E+01+
*       -5.000000000E+01               0
GRID*             105541               05.8700000000E+03-1.666666667E+01+
*       -5.000000000E+01               0
GRID*             105542               05.8800000000E+031.6666666667E+01+
*       -5.000000000E+01               0
GRID*             105543               05.8800000000E+03-1.666666667E+01+
*       -5.000000000E+01               0
GRID*             105544               05.8900000000E+031.6666666667E+01+
*       -5.000000000E+01               0
GRID*             105545               05.8900000000E+03-1.666666667E+01+
*       -5.000000000E+01               0
GRID*             105546               05.9000000000E+031.6666666667E+01+
*       -5.000000000E+01               0
GRID*             105547               05.9000000000E+03-1.666666667E+01+
*       -5.000000000E+01               0
GRID*             105548               05.9100000000E+031.6666666667E+01+
*       -5.000000000E+01               0
GRID*             105549               05.9100000000E+03-1.666666667E+01+
*       -5.000000000E+01               0
GRID*             105550               05.9200000000E+031.6666666667E+01+
*       -5.000000000E+01               0
GRID*             105551               05.9200000000E+03-1.666666667E+01+
*       -5.000000000E+01               0
GRID*             105552               05.9300000000E+031.6666666667E+01+
*       -5.000000000E+01               0
GRID*             105553               05.9300000000E+03-1.666666667E+01+
*       -5.000000000E+01               0
GRID*             105554               05.9400000000E+031.6666666667E+01+
*       -5.000000000E+01               0
GRID*             105555               05.9400000000E+03-1.666666667E+01+
*       -5.000000000E+01               0
GRID*             105556               05.9500000000E+031.6666666667E+01+
*       -5.000000000E+01               0
GRID*             105557               05.9500000000E+03-1.666666667E+01+
*       -5.000000000E+01               0
GRID*             105558               05.9600000000E+031.6666666667E+01+
*       -5.000000000E+01               0
GRID*             105559               05.9600000000E+03-1.666666667E+01+
*       -5.000000000E+01               0
GRID*             105560               05.9700000000E+031.6666666667E+01+
*       -5.000000000E+01               0
GRID*             105561               05.9700000000E+03-1.666666667E+01+
*       -5.000000000E+01               0
GRID*             105562               05.9800000000E+031.6666666667E+01+
*       -5.000000000E+01               0
GRID*             105563               05.9800000000E+03-1.666666667E+01+
*       -5.000000000E+01               0
GRID*             105564               05.9900000000E+031.6666666667E+01+
*       -5.000000000E+01               0
GRID*             105565               05.9900000000E+03-1.666666667E+01+
*       -5.000000000E+01               0
GRID*             105566               06.0000000000E+031.6666666667E+01+
*       -5.000000000E+01               0
GRID*             105567               06.0000000000E+03-1.666666667E+01+
*       -5.000000000E+01               0
GRID*             105568               06.0100000000E+031.6666666667E+01+
*       -5.000000000E+01               0
GRID*             105569               06.0100000000E+03-1.666666667E+01+
*       -5.000000000E+01               0
GRID*             105570               06.0200000000E+031.6666666667E+01+
*       -5.000000000E+01               0
GRID*             105571               06.0200000000E+03-1.666666667E+01+
*       -5.000000000E+01               0
GRID*             105572               06.0300000000E+031.6666666667E+01+
*       -5.000000000E+01               0
GRID*             105573               06.0300000000E+03-1.666666667E+01+
*       -5.000000000E+01               0
GRID*             105574               06.0400000000E+031.6666666667E+01+
*       -5.000000000E+01               0
GRID*             105575               06.0400000000E+03-1.666666667E+01+
*       -5.000000000E+01               0
GRID*             105576               06.0500000000E+031.6666666667E+01+
*       -5.000000000E+01               0
GRID*             105577               06.0500000000E+03-1.666666667E+01+
*       -5.000000000E+01               0
GRID*             105578               06.0600000000E+031.6666666667E+01+
*       -5.000000000E+01               0
GRID*             105579               06.0600000000E+03-1.666666667E+01+
*       -5.000000000E+01               0
GRID*             105580               06.0700000000E+031.6666666667E+01+
*       -5.000000000E+01               0
GRID*             105581               06.0700000000E+03-1.666666667E+01+
*       -5.000000000E+01               0
GRID*             105582               06.0800000000E+031.6666666667E+01+
*       -5.000000000E+01               0
GRID*             105583               06.0800000000E+03-1.666666667E+01+
*       -5.000000000E+01               0
GRID*             105584               06.0900000000E+031.6666666667E+01+
*       -5.000000000E+01               0
GRID*             105585               06.0900000000E+03-1.666666667E+01+
*       -5.000000000E+01               0
GRID*             105586               06.1000000000E+031.6666666667E+01+
*       -5.000000000E+01               0
GRID*             105587               06.1000000000E+03-1.666666667E+01+
*       -5.000000000E+01               0
GRID*             105588               06.1100000000E+031.6666666667E+01+
*       -5.000000000E+01               0
GRID*             105589               06.1100000000E+03-1.666666667E+01+
*       -5.000000000E+01               0
GRID*             105590               06.1200000000E+031.6666666667E+01+
*       -5.000000000E+01               0
GRID*             105591               06.1200000000E+03-1.666666667E+01+
*       -5.000000000E+01               0
GRID*             105592               06.1300000000E+031.6666666667E+01+
*       -5.000000000E+01               0
GRID*             105593               06.1300000000E+03-1.666666667E+01+
*       -5.000000000E+01               0
GRID*             105594               06.1400000000E+031.6666666667E+01+
*       -5.000000000E+01               0
GRID*             105595               06.1400000000E+03-1.666666667E+01+
*       -5.000000000E+01               0
GRID*             105596               06.1500000000E+031.6666666667E+01+
*       -5.000000000E+01               0
GRID*             105597               06.1500000000E+03-1.666666667E+01+
*       -5.000000000E+01               0
GRID*             105598               06.1600000000E+031.6666666667E+01+
*       -5.000000000E+01               0
GRID*             105599               06.1600000000E+03-1.666666667E+01+
*       -5.000000000E+01               0
GRID*             105600               06.1700000000E+031.6666666667E+01+
*       -5.000000000E+01               0
GRID*             105601               06.1700000000E+03-1.666666667E+01+
*       -5.000000000E+01               0
GRID*             105602               06.1800000000E+031.6666666667E+01+
*       -5.000000000E+01               0
GRID*             105603               06.1800000000E+03-1.666666667E+01+
*       -5.000000000E+01               0
GRID*             105604               06.1900000000E+031.6666666667E+01+
*       -5.000000000E+01               0
GRID*             105605               06.1900000000E+03-1.666666667E+01+
*       -5.000000000E+01               0
GRID*             105606               06.2000000000E+031.6666666667E+01+
*       -5.000000000E+01               0
GRID*             105607               06.2000000000E+03-1.666666667E+01+
*       -5.000000000E+01               0
GRID*             105608               06.2100000000E+031.6666666667E+01+
*       -5.000000000E+01               0
GRID*             105609               06.2100000000E+03-1.666666667E+01+
*       -5.000000000E+01               0
GRID*             105610               06.2200000000E+031.6666666667E+01+
*       -5.000000000E+01               0
GRID*             105611               06.2200000000E+03-1.666666667E+01+
*       -5.000000000E+01               0
GRID*             105612               06.2300000000E+031.6666666667E+01+
*       -5.000000000E+01               0
GRID*             105613               06.2300000000E+03-1.666666667E+01+
*       -5.000000000E+01               0
GRID*             105614               06.2400000000E+031.6666666667E+01+
*       -5.000000000E+01               0
GRID*             105615               06.2400000000E+03-1.666666667E+01+
*       -5.000000000E+01               0
GRID*             105616               06.2500000000E+031.6666666667E+01+
*       -5.000000000E+01               0
GRID*             105617               06.2500000000E+03-1.666666667E+01+
*       -5.000000000E+01               0
GRID*             105618               06.2600000000E+031.6666666667E+01+
*       -5.000000000E+01               0
GRID*             105619               06.2600000000E+03-1.666666667E+01+
*       -5.000000000E+01               0
GRID*             105620               06.2700000000E+031.6666666667E+01+
*       -5.000000000E+01               0
GRID*             105621               06.2700000000E+03-1.666666667E+01+
*       -5.000000000E+01               0
GRID*             105622               06.2800000000E+031.6666666667E+01+
*       -5.000000000E+01               0
GRID*             105623               06.2800000000E+03-1.666666667E+01+
*       -5.000000000E+01               0
GRID*             105624               06.2900000000E+031.6666666667E+01+
*       -5.000000000E+01               0
GRID*             105625               06.2900000000E+03-1.666666667E+01+
*       -5.000000000E+01               0
GRID*             105626               06.3000000000E+031.6666666667E+01+
*       -5.000000000E+01               0
GRID*             105627               06.3000000000E+03-1.666666667E+01+
*       -5.000000000E+01               0
GRID*             105628               06.3100000000E+031.6666666667E+01+
*       -5.000000000E+01               0
GRID*             105629               06.3100000000E+03-1.666666667E+01+
*       -5.000000000E+01               0
GRID*             105630               06.3200000000E+031.6666666667E+01+
*       -5.000000000E+01               0
GRID*             105631               06.3200000000E+03-1.666666667E+01+
*       -5.000000000E+01               0
GRID*             105632               06.3300000000E+031.6666666667E+01+
*       -5.000000000E+01               0
GRID*             105633               06.3300000000E+03-1.666666667E+01+
*       -5.000000000E+01               0
GRID*             105634               06.3400000000E+031.6666666667E+01+
*       -5.000000000E+01               0
GRID*             105635               06.3400000000E+03-1.666666667E+01+
*       -5.000000000E+01               0
GRID*             105636               06.3500000000E+031.6666666667E+01+
*       -5.000000000E+01               0
GRID*             105637               06.3500000000E+03-1.666666667E+01+
*       -5.000000000E+01               0
GRID*             105638               06.3600000000E+031.6666666667E+01+
*       -5.000000000E+01               0
GRID*             105639               06.3600000000E+03-1.666666667E+01+
*       -5.000000000E+01               0
GRID*             105640               06.3700000000E+031.6666666667E+01+
*       -5.000000000E+01               0
GRID*             105641               06.3700000000E+03-1.666666667E+01+
*       -5.000000000E+01               0
GRID*             105642               06.3800000000E+031.6666666667E+01+
*       -5.000000000E+01               0
GRID*             105643               06.3800000000E+03-1.666666667E+01+
*       -5.000000000E+01               0
GRID*             105644               06.3900000000E+031.6666666667E+01+
*       -5.000000000E+01               0
GRID*             105645               06.3900000000E+03-1.666666667E+01+
*       -5.000000000E+01               0
GRID*             105646               06.4000000000E+031.6666666667E+01+
*       -5.000000000E+01               0
GRID*             105647               06.4000000000E+03-1.666666667E+01+
*       -5.000000000E+01               0
GRID*             105648               06.4100000000E+031.6666666667E+01+
*       -5.000000000E+01               0
GRID*             105649               06.4100000000E+03-1.666666667E+01+
*       -5.000000000E+01               0
GRID*             105650               06.4200000000E+031.6666666667E+01+
*       -5.000000000E+01               0
GRID*             105651               06.4200000000E+03-1.666666667E+01+
*       -5.000000000E+01               0
GRID*             105652               06.4300000000E+031.6666666667E+01+
*       -5.000000000E+01               0
GRID*             105653               06.4300000000E+03-1.666666667E+01+
*       -5.000000000E+01               0
GRID*             105654               06.4400000000E+031.6666666667E+01+
*       -5.000000000E+01               0
GRID*             105655               06.4400000000E+03-1.666666667E+01+
*       -5.000000000E+01               0
GRID*             105656               06.4500000000E+031.6666666667E+01+
*       -5.000000000E+01               0
GRID*             105657               06.4500000000E+03-1.666666667E+01+
*       -5.000000000E+01               0
GRID*             105658               06.4600000000E+031.6666666667E+01+
*       -5.000000000E+01               0
GRID*             105659               06.4600000000E+03-1.666666667E+01+
*       -5.000000000E+01               0
GRID*             105660               06.4700000000E+031.6666666667E+01+
*       -5.000000000E+01               0
GRID*             105661               06.4700000000E+03-1.666666667E+01+
*       -5.000000000E+01               0
GRID*             105662               06.4800000000E+031.6666666667E+01+
*       -5.000000000E+01               0
GRID*             105663               06.4800000000E+03-1.666666667E+01+
*       -5.000000000E+01               0
GRID*             105664               06.4900000000E+031.6666666667E+01+
*       -5.000000000E+01               0
GRID*             105665               06.4900000000E+03-1.666666667E+01+
*       -5.000000000E+01               0
GRID*             105666               06.5000000000E+031.6666666667E+01+
*       -5.000000000E+01               0
GRID*             105667               06.5000000000E+03-1.666666667E+01+
*       -5.000000000E+01               0
GRID*             105668               06.5100000000E+031.6666666667E+01+
*       -5.000000000E+01               0
GRID*             105669               06.5100000000E+03-1.666666667E+01+
*       -5.000000000E+01               0
GRID*             105670               06.5200000000E+031.6666666667E+01+
*       -5.000000000E+01               0
GRID*             105671               06.5200000000E+03-1.666666667E+01+
*       -5.000000000E+01               0
GRID*             105672               06.5300000000E+031.6666666667E+01+
*       -5.000000000E+01               0
GRID*             105673               06.5300000000E+03-1.666666667E+01+
*       -5.000000000E+01               0
GRID*             105674               06.5400000000E+031.6666666667E+01+
*       -5.000000000E+01               0
GRID*             105675               06.5400000000E+03-1.666666667E+01+
*       -5.000000000E+01               0
GRID*             105676               06.5500000000E+031.6666666667E+01+
*       -5.000000000E+01               0
GRID*             105677               06.5500000000E+03-1.666666667E+01+
*       -5.000000000E+01               0
GRID*             105678               06.5600000000E+031.6666666667E+01+
*       -5.000000000E+01               0
GRID*             105679               06.5600000000E+03-1.666666667E+01+
*       -5.000000000E+01               0
GRID*             105680               06.5700000000E+031.6666666667E+01+
*       -5.000000000E+01               0
GRID*             105681               06.5700000000E+03-1.666666667E+01+
*       -5.000000000E+01               0
GRID*             105682               06.5800000000E+031.6666666667E+01+
*       -5.000000000E+01               0
GRID*             105683               06.5800000000E+03-1.666666667E+01+
*       -5.000000000E+01               0
GRID*             105684               06.5900000000E+031.6666666667E+01+
*       -5.000000000E+01               0
GRID*             105685               06.5900000000E+03-1.666666667E+01+
*       -5.000000000E+01               0
GRID*             105686               06.6000000000E+031.6666666667E+01+
*       -5.000000000E+01               0
GRID*             105687               06.6000000000E+03-1.666666667E+01+
*       -5.000000000E+01               0
GRID*             105688               06.6100000000E+031.6666666667E+01+
*       -5.000000000E+01               0
GRID*             105689               06.6100000000E+03-1.666666667E+01+
*       -5.000000000E+01               0
GRID*             105690               06.6200000000E+031.6666666667E+01+
*       -5.000000000E+01               0
GRID*             105691               06.6200000000E+03-1.666666667E+01+
*       -5.000000000E+01               0
GRID*             105692               06.6300000000E+031.6666666667E+01+
*       -5.000000000E+01               0
GRID*             105693               06.6300000000E+03-1.666666667E+01+
*       -5.000000000E+01               0
GRID*             105694               06.6400000000E+031.6666666667E+01+
*       -5.000000000E+01               0
GRID*             105695               06.6400000000E+03-1.666666667E+01+
*       -5.000000000E+01               0
GRID*             105696               06.6500000000E+031.6666666667E+01+
*       -5.000000000E+01               0
GRID*             105697               06.6500000000E+03-1.666666667E+01+
*       -5.000000000E+01               0
GRID*             105698               06.6600000000E+031.6666666667E+01+
*       -5.000000000E+01               0
GRID*             105699               06.6600000000E+03-1.666666667E+01+
*       -5.000000000E+01               0
GRID*             105700               06.6700000000E+031.6666666667E+01+
*       -5.000000000E+01               0
GRID*             105701               06.6700000000E+03-1.666666667E+01+
*       -5.000000000E+01               0
GRID*             105702               06.6800000000E+031.6666666667E+01+
*       -5.000000000E+01               0
GRID*             105703               06.6800000000E+03-1.666666667E+01+
*       -5.000000000E+01               0
GRID*             105704               06.6900000000E+031.6666666667E+01+
*       -5.000000000E+01               0
GRID*             105705               06.6900000000E+03-1.666666667E+01+
*       -5.000000000E+01               0
GRID*             105706               06.7000000000E+031.6666666667E+01+
*       -5.000000000E+01               0
GRID*             105707               06.7000000000E+03-1.666666667E+01+
*       -5.000000000E+01               0
GRID*             105708               06.7100000000E+031.6666666667E+01+
*       -5.000000000E+01               0
GRID*             105709               06.7100000000E+03-1.666666667E+01+
*       -5.000000000E+01               0
GRID*             105710               06.7200000000E+031.6666666667E+01+
*       -5.000000000E+01               0
GRID*             105711               06.7200000000E+03-1.666666667E+01+
*       -5.000000000E+01               0
GRID*             105712               06.7300000000E+031.6666666667E+01+
*       -5.000000000E+01               0
GRID*             105713               06.7300000000E+03-1.666666667E+01+
*       -5.000000000E+01               0
GRID*             105714               06.7400000000E+031.6666666667E+01+
*       -5.000000000E+01               0
GRID*             105715               06.7400000000E+03-1.666666667E+01+
*       -5.000000000E+01               0
GRID*             105716               06.7500000000E+031.6666666667E+01+
*       -5.000000000E+01               0
GRID*             105717               06.7500000000E+03-1.666666667E+01+
*       -5.000000000E+01               0
GRID*             105718               06.7600000000E+031.6666666667E+01+
*       -5.000000000E+01               0
GRID*             105719               06.7600000000E+03-1.666666667E+01+
*       -5.000000000E+01               0
GRID*             105720               06.7700000000E+031.6666666667E+01+
*       -5.000000000E+01               0
GRID*             105721               06.7700000000E+03-1.666666667E+01+
*       -5.000000000E+01               0
GRID*             105722               06.7800000000E+031.6666666667E+01+
*       -5.000000000E+01               0
GRID*             105723               06.7800000000E+03-1.666666667E+01+
*       -5.000000000E+01               0
GRID*             105724               06.7900000000E+031.6666666667E+01+
*       -5.000000000E+01               0
GRID*             105725               06.7900000000E+03-1.666666667E+01+
*       -5.000000000E+01               0
GRID*             105726               06.8000000000E+031.6666666667E+01+
*       -5.000000000E+01               0
GRID*             105727               06.8000000000E+03-1.666666667E+01+
*       -5.000000000E+01               0
GRID*             105728               06.8100000000E+031.6666666667E+01+
*       -5.000000000E+01               0
GRID*             105729               06.8100000000E+03-1.666666667E+01+
*       -5.000000000E+01               0
GRID*             105730               06.8200000000E+031.6666666667E+01+
*       -5.000000000E+01               0
GRID*             105731               06.8200000000E+03-1.666666667E+01+
*       -5.000000000E+01               0
GRID*             105732               06.8300000000E+031.6666666667E+01+
*       -5.000000000E+01               0
GRID*             105733               06.8300000000E+03-1.666666667E+01+
*       -5.000000000E+01               0
GRID*             105734               06.8400000000E+031.6666666667E+01+
*       -5.000000000E+01               0
GRID*             105735               06.8400000000E+03-1.666666667E+01+
*       -5.000000000E+01               0
GRID*             105736               06.8500000000E+031.6666666667E+01+
*       -5.000000000E+01               0
GRID*             105737               06.8500000000E+03-1.666666667E+01+
*       -5.000000000E+01               0
GRID*             105738               06.8600000000E+031.6666666667E+01+
*       -5.000000000E+01               0
GRID*             105739               06.8600000000E+03-1.666666667E+01+
*       -5.000000000E+01               0
GRID*             105740               06.8700000000E+031.6666666667E+01+
*       -5.000000000E+01               0
GRID*             105741               06.8700000000E+03-1.666666667E+01+
*       -5.000000000E+01               0
GRID*             105742               06.8800000000E+031.6666666667E+01+
*       -5.000000000E+01               0
GRID*             105743               06.8800000000E+03-1.666666667E+01+
*       -5.000000000E+01               0
GRID*             105744               06.8900000000E+031.6666666667E+01+
*       -5.000000000E+01               0
GRID*             105745               06.8900000000E+03-1.666666667E+01+
*       -5.000000000E+01               0
GRID*             105746               06.9000000000E+031.6666666667E+01+
*       -5.000000000E+01               0
GRID*             105747               06.9000000000E+03-1.666666667E+01+
*       -5.000000000E+01               0
GRID*             105748               06.9100000000E+031.6666666667E+01+
*       -5.000000000E+01               0
GRID*             105749               06.9100000000E+03-1.666666667E+01+
*       -5.000000000E+01               0
GRID*             105750               06.9200000000E+031.6666666667E+01+
*       -5.000000000E+01               0
GRID*             105751               06.9200000000E+03-1.666666667E+01+
*       -5.000000000E+01               0
GRID*             105752               06.9300000000E+031.6666666667E+01+
*       -5.000000000E+01               0
GRID*             105753               06.9300000000E+03-1.666666667E+01+
*       -5.000000000E+01               0
GRID*             105754               06.9400000000E+031.6666666667E+01+
*       -5.000000000E+01               0
GRID*             105755               06.9400000000E+03-1.666666667E+01+
*       -5.000000000E+01               0
GRID*             105756               06.9500000000E+031.6666666667E+01+
*       -5.000000000E+01               0
GRID*             105757               06.9500000000E+03-1.666666667E+01+
*       -5.000000000E+01               0
GRID*             105758               06.9600000000E+031.6666666667E+01+
*       -5.000000000E+01               0
GRID*             105759               06.9600000000E+03-1.666666667E+01+
*       -5.000000000E+01               0
GRID*             105760               06.9700000000E+031.6666666667E+01+
*       -5.000000000E+01               0
GRID*             105761               06.9700000000E+03-1.666666667E+01+
*       -5.000000000E+01               0
GRID*             105762               06.9800000000E+031.6666666667E+01+
*       -5.000000000E+01               0
GRID*             105763               06.9800000000E+03-1.666666667E+01+
*       -5.000000000E+01               0
GRID*             105764               06.9900000000E+031.6666666667E+01+
*       -5.000000000E+01               0
GRID*             105765               06.9900000000E+03-1.666666667E+01+
*       -5.000000000E+01               0
GRID*             105766               06.9900000000E+031.6666666667E+01+
*       5.0000000000E+01               0
GRID*             105767               06.9900000000E+03-1.666666667E+01+
*       5.0000000000E+01               0
GRID*             105768               06.9800000000E+031.6666666667E+01+
*       5.0000000000E+01               0
GRID*             105769               06.9800000000E+03-1.666666667E+01+
*       5.0000000000E+01               0
GRID*             105770               06.9700000000E+031.6666666667E+01+
*       5.0000000000E+01               0
GRID*             105771               06.9700000000E+03-1.666666667E+01+
*       5.0000000000E+01               0
GRID*             105772               06.9600000000E+031.6666666667E+01+
*       5.0000000000E+01               0
GRID*             105773               06.9600000000E+03-1.666666667E+01+
*       5.0000000000E+01               0
GRID*             105774               06.9500000000E+031.6666666667E+01+
*       5.0000000000E+01               0
GRID*             105775               06.9500000000E+03-1.666666667E+01+
*       5.0000000000E+01               0
GRID*             105776               06.9400000000E+031.6666666667E+01+
*       5.0000000000E+01               0
GRID*             105777               06.9400000000E+03-1.666666667E+01+
*       5.0000000000E+01               0
GRID*             105778               06.9300000000E+031.6666666667E+01+
*       5.0000000000E+01               0
GRID*             105779               06.9300000000E+03-1.666666667E+01+
*       5.0000000000E+01               0
GRID*             105780               06.9200000000E+031.6666666667E+01+
*       5.0000000000E+01               0
GRID*             105781               06.9200000000E+03-1.666666667E+01+
*       5.0000000000E+01               0
GRID*             105782               06.9100000000E+031.6666666667E+01+
*       5.0000000000E+01               0
GRID*             105783               06.9100000000E+03-1.666666667E+01+
*       5.0000000000E+01               0
GRID*             105784               06.9000000000E+031.6666666667E+01+
*       5.0000000000E+01               0
GRID*             105785               06.9000000000E+03-1.666666667E+01+
*       5.0000000000E+01               0
GRID*             105786               06.8900000000E+031.6666666667E+01+
*       5.0000000000E+01               0
GRID*             105787               06.8900000000E+03-1.666666667E+01+
*       5.0000000000E+01               0
GRID*             105788               06.8800000000E+031.6666666667E+01+
*       5.0000000000E+01               0
GRID*             105789               06.8800000000E+03-1.666666667E+01+
*       5.0000000000E+01               0
GRID*             105790               06.8700000000E+031.6666666667E+01+
*       5.0000000000E+01               0
GRID*             105791               06.8700000000E+03-1.666666667E+01+
*       5.0000000000E+01               0
GRID*             105792               06.8600000000E+031.6666666667E+01+
*       5.0000000000E+01               0
GRID*             105793               06.8600000000E+03-1.666666667E+01+
*       5.0000000000E+01               0
GRID*             105794               06.8500000000E+031.6666666667E+01+
*       5.0000000000E+01               0
GRID*             105795               06.8500000000E+03-1.666666667E+01+
*       5.0000000000E+01               0
GRID*             105796               06.8400000000E+031.6666666667E+01+
*       5.0000000000E+01               0
GRID*             105797               06.8400000000E+03-1.666666667E+01+
*       5.0000000000E+01               0
GRID*             105798               06.8300000000E+031.6666666667E+01+
*       5.0000000000E+01               0
GRID*             105799               06.8300000000E+03-1.666666667E+01+
*       5.0000000000E+01               0
GRID*             105800               06.8200000000E+031.6666666667E+01+
*       5.0000000000E+01               0
GRID*             105801               06.8200000000E+03-1.666666667E+01+
*       5.0000000000E+01               0
GRID*             105802               06.8100000000E+031.6666666667E+01+
*       5.0000000000E+01               0
GRID*             105803               06.8100000000E+03-1.666666667E+01+
*       5.0000000000E+01               0
GRID*             105804               06.8000000000E+031.6666666667E+01+
*       5.0000000000E+01               0
GRID*             105805               06.8000000000E+03-1.666666667E+01+
*       5.0000000000E+01               0
GRID*             105806               06.7900000000E+031.6666666667E+01+
*       5.0000000000E+01               0
GRID*             105807               06.7900000000E+03-1.666666667E+01+
*       5.0000000000E+01               0
GRID*             105808               06.7800000000E+031.6666666667E+01+
*       5.0000000000E+01               0
GRID*             105809               06.7800000000E+03-1.666666667E+01+
*       5.0000000000E+01               0
GRID*             105810               06.7700000000E+031.6666666667E+01+
*       5.0000000000E+01               0
GRID*             105811               06.7700000000E+03-1.666666667E+01+
*       5.0000000000E+01               0
GRID*             105812               06.7600000000E+031.6666666667E+01+
*       5.0000000000E+01               0
GRID*             105813               06.7600000000E+03-1.666666667E+01+
*       5.0000000000E+01               0
GRID*             105814               06.7500000000E+031.6666666667E+01+
*       5.0000000000E+01               0
GRID*             105815               06.7500000000E+03-1.666666667E+01+
*       5.0000000000E+01               0
GRID*             105816               06.7400000000E+031.6666666667E+01+
*       5.0000000000E+01               0
GRID*             105817               06.7400000000E+03-1.666666667E+01+
*       5.0000000000E+01               0
GRID*             105818               06.7300000000E+031.6666666667E+01+
*       5.0000000000E+01               0
GRID*             105819               06.7300000000E+03-1.666666667E+01+
*       5.0000000000E+01               0
GRID*             105820               06.7200000000E+031.6666666667E+01+
*       5.0000000000E+01               0
GRID*             105821               06.7200000000E+03-1.666666667E+01+
*       5.0000000000E+01               0
GRID*             105822               06.7100000000E+031.6666666667E+01+
*       5.0000000000E+01               0
GRID*             105823               06.7100000000E+03-1.666666667E+01+
*       5.0000000000E+01               0
GRID*             105824               06.7000000000E+031.6666666667E+01+
*       5.0000000000E+01               0
GRID*             105825               06.7000000000E+03-1.666666667E+01+
*       5.0000000000E+01               0
GRID*             105826               06.6900000000E+031.6666666667E+01+
*       5.0000000000E+01               0
GRID*             105827               06.6900000000E+03-1.666666667E+01+
*       5.0000000000E+01               0
GRID*             105828               06.6800000000E+031.6666666667E+01+
*       5.0000000000E+01               0
GRID*             105829               06.6800000000E+03-1.666666667E+01+
*       5.0000000000E+01               0
GRID*             105830               06.6700000000E+031.6666666667E+01+
*       5.0000000000E+01               0
GRID*             105831               06.6700000000E+03-1.666666667E+01+
*       5.0000000000E+01               0
GRID*             105832               06.6600000000E+031.6666666667E+01+
*       5.0000000000E+01               0
GRID*             105833               06.6600000000E+03-1.666666667E+01+
*       5.0000000000E+01               0
GRID*             105834               06.6500000000E+031.6666666667E+01+
*       5.0000000000E+01               0
GRID*             105835               06.6500000000E+03-1.666666667E+01+
*       5.0000000000E+01               0
GRID*             105836               06.6400000000E+031.6666666667E+01+
*       5.0000000000E+01               0
GRID*             105837               06.6400000000E+03-1.666666667E+01+
*       5.0000000000E+01               0
GRID*             105838               06.6300000000E+031.6666666667E+01+
*       5.0000000000E+01               0
GRID*             105839               06.6300000000E+03-1.666666667E+01+
*       5.0000000000E+01               0
GRID*             105840               06.6200000000E+031.6666666667E+01+
*       5.0000000000E+01               0
GRID*             105841               06.6200000000E+03-1.666666667E+01+
*       5.0000000000E+01               0
GRID*             105842               06.6100000000E+031.6666666667E+01+
*       5.0000000000E+01               0
GRID*             105843               06.6100000000E+03-1.666666667E+01+
*       5.0000000000E+01               0
GRID*             105844               06.6000000000E+031.6666666667E+01+
*       5.0000000000E+01               0
GRID*             105845               06.6000000000E+03-1.666666667E+01+
*       5.0000000000E+01               0
GRID*             105846               06.5900000000E+031.6666666667E+01+
*       5.0000000000E+01               0
GRID*             105847               06.5900000000E+03-1.666666667E+01+
*       5.0000000000E+01               0
GRID*             105848               06.5800000000E+031.6666666667E+01+
*       5.0000000000E+01               0
GRID*             105849               06.5800000000E+03-1.666666667E+01+
*       5.0000000000E+01               0
GRID*             105850               06.5700000000E+031.6666666667E+01+
*       5.0000000000E+01               0
GRID*             105851               06.5700000000E+03-1.666666667E+01+
*       5.0000000000E+01               0
GRID*             105852               06.5600000000E+031.6666666667E+01+
*       5.0000000000E+01               0
GRID*             105853               06.5600000000E+03-1.666666667E+01+
*       5.0000000000E+01               0
GRID*             105854               06.5500000000E+031.6666666667E+01+
*       5.0000000000E+01               0
GRID*             105855               06.5500000000E+03-1.666666667E+01+
*       5.0000000000E+01               0
GRID*             105856               06.5400000000E+031.6666666667E+01+
*       5.0000000000E+01               0
GRID*             105857               06.5400000000E+03-1.666666667E+01+
*       5.0000000000E+01               0
GRID*             105858               06.5300000000E+031.6666666667E+01+
*       5.0000000000E+01               0
GRID*             105859               06.5300000000E+03-1.666666667E+01+
*       5.0000000000E+01               0
GRID*             105860               06.5200000000E+031.6666666667E+01+
*       5.0000000000E+01               0
GRID*             105861               06.5200000000E+03-1.666666667E+01+
*       5.0000000000E+01               0
GRID*             105862               06.5100000000E+031.6666666667E+01+
*       5.0000000000E+01               0
GRID*             105863               06.5100000000E+03-1.666666667E+01+
*       5.0000000000E+01               0
GRID*             105864               06.5000000000E+031.6666666667E+01+
*       5.0000000000E+01               0
GRID*             105865               06.5000000000E+03-1.666666667E+01+
*       5.0000000000E+01               0
GRID*             105866               06.4900000000E+031.6666666667E+01+
*       5.0000000000E+01               0
GRID*             105867               06.4900000000E+03-1.666666667E+01+
*       5.0000000000E+01               0
GRID*             105868               06.4800000000E+031.6666666667E+01+
*       5.0000000000E+01               0
GRID*             105869               06.4800000000E+03-1.666666667E+01+
*       5.0000000000E+01               0
GRID*             105870               06.4700000000E+031.6666666667E+01+
*       5.0000000000E+01               0
GRID*             105871               06.4700000000E+03-1.666666667E+01+
*       5.0000000000E+01               0
GRID*             105872               06.4600000000E+031.6666666667E+01+
*       5.0000000000E+01               0
GRID*             105873               06.4600000000E+03-1.666666667E+01+
*       5.0000000000E+01               0
GRID*             105874               06.4500000000E+031.6666666667E+01+
*       5.0000000000E+01               0
GRID*             105875               06.4500000000E+03-1.666666667E+01+
*       5.0000000000E+01               0
GRID*             105876               06.4400000000E+031.6666666667E+01+
*       5.0000000000E+01               0
GRID*             105877               06.4400000000E+03-1.666666667E+01+
*       5.0000000000E+01               0
GRID*             105878               06.4300000000E+031.6666666667E+01+
*       5.0000000000E+01               0
GRID*             105879               06.4300000000E+03-1.666666667E+01+
*       5.0000000000E+01               0
GRID*             105880               06.4200000000E+031.6666666667E+01+
*       5.0000000000E+01               0
GRID*             105881               06.4200000000E+03-1.666666667E+01+
*       5.0000000000E+01               0
GRID*             105882               06.4100000000E+031.6666666667E+01+
*       5.0000000000E+01               0
GRID*             105883               06.4100000000E+03-1.666666667E+01+
*       5.0000000000E+01               0
GRID*             105884               06.4000000000E+031.6666666667E+01+
*       5.0000000000E+01               0
GRID*             105885               06.4000000000E+03-1.666666667E+01+
*       5.0000000000E+01               0
GRID*             105886               06.3900000000E+031.6666666667E+01+
*       5.0000000000E+01               0
GRID*             105887               06.3900000000E+03-1.666666667E+01+
*       5.0000000000E+01               0
GRID*             105888               06.3800000000E+031.6666666667E+01+
*       5.0000000000E+01               0
GRID*             105889               06.3800000000E+03-1.666666667E+01+
*       5.0000000000E+01               0
GRID*             105890               06.3700000000E+031.6666666667E+01+
*       5.0000000000E+01               0
GRID*             105891               06.3700000000E+03-1.666666667E+01+
*       5.0000000000E+01               0
GRID*             105892               06.3600000000E+031.6666666667E+01+
*       5.0000000000E+01               0
GRID*             105893               06.3600000000E+03-1.666666667E+01+
*       5.0000000000E+01               0
GRID*             105894               06.3500000000E+031.6666666667E+01+
*       5.0000000000E+01               0
GRID*             105895               06.3500000000E+03-1.666666667E+01+
*       5.0000000000E+01               0
GRID*             105896               06.3400000000E+031.6666666667E+01+
*       5.0000000000E+01               0
GRID*             105897               06.3400000000E+03-1.666666667E+01+
*       5.0000000000E+01               0
GRID*             105898               06.3300000000E+031.6666666667E+01+
*       5.0000000000E+01               0
GRID*             105899               06.3300000000E+03-1.666666667E+01+
*       5.0000000000E+01               0
GRID*             105900               06.3200000000E+031.6666666667E+01+
*       5.0000000000E+01               0
GRID*             105901               06.3200000000E+03-1.666666667E+01+
*       5.0000000000E+01               0
GRID*             105902               06.3100000000E+031.6666666667E+01+
*       5.0000000000E+01               0
GRID*             105903               06.3100000000E+03-1.666666667E+01+
*       5.0000000000E+01               0
GRID*             105904               06.3000000000E+031.6666666667E+01+
*       5.0000000000E+01               0
GRID*             105905               06.3000000000E+03-1.666666667E+01+
*       5.0000000000E+01               0
GRID*             105906               06.2900000000E+031.6666666667E+01+
*       5.0000000000E+01               0
GRID*             105907               06.2900000000E+03-1.666666667E+01+
*       5.0000000000E+01               0
GRID*             105908               06.2800000000E+031.6666666667E+01+
*       5.0000000000E+01               0
GRID*             105909               06.2800000000E+03-1.666666667E+01+
*       5.0000000000E+01               0
GRID*             105910               06.2700000000E+031.6666666667E+01+
*       5.0000000000E+01               0
GRID*             105911               06.2700000000E+03-1.666666667E+01+
*       5.0000000000E+01               0
GRID*             105912               06.2600000000E+031.6666666667E+01+
*       5.0000000000E+01               0
GRID*             105913               06.2600000000E+03-1.666666667E+01+
*       5.0000000000E+01               0
GRID*             105914               06.2500000000E+031.6666666667E+01+
*       5.0000000000E+01               0
GRID*             105915               06.2500000000E+03-1.666666667E+01+
*       5.0000000000E+01               0
GRID*             105916               06.2400000000E+031.6666666667E+01+
*       5.0000000000E+01               0
GRID*             105917               06.2400000000E+03-1.666666667E+01+
*       5.0000000000E+01               0
GRID*             105918               06.2300000000E+031.6666666667E+01+
*       5.0000000000E+01               0
GRID*             105919               06.2300000000E+03-1.666666667E+01+
*       5.0000000000E+01               0
GRID*             105920               06.2200000000E+031.6666666667E+01+
*       5.0000000000E+01               0
GRID*             105921               06.2200000000E+03-1.666666667E+01+
*       5.0000000000E+01               0
GRID*             105922               06.2100000000E+031.6666666667E+01+
*       5.0000000000E+01               0
GRID*             105923               06.2100000000E+03-1.666666667E+01+
*       5.0000000000E+01               0
GRID*             105924               06.2000000000E+031.6666666667E+01+
*       5.0000000000E+01               0
GRID*             105925               06.2000000000E+03-1.666666667E+01+
*       5.0000000000E+01               0
GRID*             105926               06.1900000000E+031.6666666667E+01+
*       5.0000000000E+01               0
GRID*             105927               06.1900000000E+03-1.666666667E+01+
*       5.0000000000E+01               0
GRID*             105928               06.1800000000E+031.6666666667E+01+
*       5.0000000000E+01               0
GRID*             105929               06.1800000000E+03-1.666666667E+01+
*       5.0000000000E+01               0
GRID*             105930               06.1700000000E+031.6666666667E+01+
*       5.0000000000E+01               0
GRID*             105931               06.1700000000E+03-1.666666667E+01+
*       5.0000000000E+01               0
GRID*             105932               06.1600000000E+031.6666666667E+01+
*       5.0000000000E+01               0
GRID*             105933               06.1600000000E+03-1.666666667E+01+
*       5.0000000000E+01               0
GRID*             105934               06.1500000000E+031.6666666667E+01+
*       5.0000000000E+01               0
GRID*             105935               06.1500000000E+03-1.666666667E+01+
*       5.0000000000E+01               0
GRID*             105936               06.1400000000E+031.6666666667E+01+
*       5.0000000000E+01               0
GRID*             105937               06.1400000000E+03-1.666666667E+01+
*       5.0000000000E+01               0
GRID*             105938               06.1300000000E+031.6666666667E+01+
*       5.0000000000E+01               0
GRID*             105939               06.1300000000E+03-1.666666667E+01+
*       5.0000000000E+01               0
GRID*             105940               06.1200000000E+031.6666666667E+01+
*       5.0000000000E+01               0
GRID*             105941               06.1200000000E+03-1.666666667E+01+
*       5.0000000000E+01               0
GRID*             105942               06.1100000000E+031.6666666667E+01+
*       5.0000000000E+01               0
GRID*             105943               06.1100000000E+03-1.666666667E+01+
*       5.0000000000E+01               0
GRID*             105944               06.1000000000E+031.6666666667E+01+
*       5.0000000000E+01               0
GRID*             105945               06.1000000000E+03-1.666666667E+01+
*       5.0000000000E+01               0
GRID*             105946               06.0900000000E+031.6666666667E+01+
*       5.0000000000E+01               0
GRID*             105947               06.0900000000E+03-1.666666667E+01+
*       5.0000000000E+01               0
GRID*             105948               06.0800000000E+031.6666666667E+01+
*       5.0000000000E+01               0
GRID*             105949               06.0800000000E+03-1.666666667E+01+
*       5.0000000000E+01               0
GRID*             105950               06.0700000000E+031.6666666667E+01+
*       5.0000000000E+01               0
GRID*             105951               06.0700000000E+03-1.666666667E+01+
*       5.0000000000E+01               0
GRID*             105952               06.0600000000E+031.6666666667E+01+
*       5.0000000000E+01               0
GRID*             105953               06.0600000000E+03-1.666666667E+01+
*       5.0000000000E+01               0
GRID*             105954               06.0500000000E+031.6666666667E+01+
*       5.0000000000E+01               0
GRID*             105955               06.0500000000E+03-1.666666667E+01+
*       5.0000000000E+01               0
GRID*             105956               06.0400000000E+031.6666666667E+01+
*       5.0000000000E+01               0
GRID*             105957               06.0400000000E+03-1.666666667E+01+
*       5.0000000000E+01               0
GRID*             105958               06.0300000000E+031.6666666667E+01+
*       5.0000000000E+01               0
GRID*             105959               06.0300000000E+03-1.666666667E+01+
*       5.0000000000E+01               0
GRID*             105960               06.0200000000E+031.6666666667E+01+
*       5.0000000000E+01               0
GRID*             105961               06.0200000000E+03-1.666666667E+01+
*       5.0000000000E+01               0
GRID*             105962               06.0100000000E+031.6666666667E+01+
*       5.0000000000E+01               0
GRID*             105963               06.0100000000E+03-1.666666667E+01+
*       5.0000000000E+01               0
GRID*             105964               06.0000000000E+031.6666666667E+01+
*       5.0000000000E+01               0
GRID*             105965               06.0000000000E+03-1.666666667E+01+
*       5.0000000000E+01               0
GRID*             105966               05.9900000000E+031.6666666667E+01+
*       5.0000000000E+01               0
GRID*             105967               05.9900000000E+03-1.666666667E+01+
*       5.0000000000E+01               0
GRID*             105968               05.9800000000E+031.6666666667E+01+
*       5.0000000000E+01               0
GRID*             105969               05.9800000000E+03-1.666666667E+01+
*       5.0000000000E+01               0
GRID*             105970               05.9700000000E+031.6666666667E+01+
*       5.0000000000E+01               0
GRID*             105971               05.9700000000E+03-1.666666667E+01+
*       5.0000000000E+01               0
GRID*             105972               05.9600000000E+031.6666666667E+01+
*       5.0000000000E+01               0
GRID*             105973               05.9600000000E+03-1.666666667E+01+
*       5.0000000000E+01               0
GRID*             105974               05.9500000000E+031.6666666667E+01+
*       5.0000000000E+01               0
GRID*             105975               05.9500000000E+03-1.666666667E+01+
*       5.0000000000E+01               0
GRID*             105976               05.9400000000E+031.6666666667E+01+
*       5.0000000000E+01               0
GRID*             105977               05.9400000000E+03-1.666666667E+01+
*       5.0000000000E+01               0
GRID*             105978               05.9300000000E+031.6666666667E+01+
*       5.0000000000E+01               0
GRID*             105979               05.9300000000E+03-1.666666667E+01+
*       5.0000000000E+01               0
GRID*             105980               05.9200000000E+031.6666666667E+01+
*       5.0000000000E+01               0
GRID*             105981               05.9200000000E+03-1.666666667E+01+
*       5.0000000000E+01               0
GRID*             105982               05.9100000000E+031.6666666667E+01+
*       5.0000000000E+01               0
GRID*             105983               05.9100000000E+03-1.666666667E+01+
*       5.0000000000E+01               0
GRID*             105984               05.9000000000E+031.6666666667E+01+
*       5.0000000000E+01               0
GRID*             105985               05.9000000000E+03-1.666666667E+01+
*       5.0000000000E+01               0
GRID*             105986               05.8900000000E+031.6666666667E+01+
*       5.0000000000E+01               0
GRID*             105987               05.8900000000E+03-1.666666667E+01+
*       5.0000000000E+01               0
GRID*             105988               05.8800000000E+031.6666666667E+01+
*       5.0000000000E+01               0
GRID*             105989               05.8800000000E+03-1.666666667E+01+
*       5.0000000000E+01               0
GRID*             105990               05.8700000000E+031.6666666667E+01+
*       5.0000000000E+01               0
GRID*             105991               05.8700000000E+03-1.666666667E+01+
*       5.0000000000E+01               0
GRID*             105992               05.8600000000E+031.6666666667E+01+
*       5.0000000000E+01               0
GRID*             105993               05.8600000000E+03-1.666666667E+01+
*       5.0000000000E+01               0
GRID*             105994               05.8500000000E+031.6666666667E+01+
*       5.0000000000E+01               0
GRID*             105995               05.8500000000E+03-1.666666667E+01+
*       5.0000000000E+01               0
GRID*             105996               05.8400000000E+031.6666666667E+01+
*       5.0000000000E+01               0
GRID*             105997               05.8400000000E+03-1.666666667E+01+
*       5.0000000000E+01               0
GRID*             105998               05.8300000000E+031.6666666667E+01+
*       5.0000000000E+01               0
GRID*             105999               05.8300000000E+03-1.666666667E+01+
*       5.0000000000E+01               0
GRID*             106000               05.8200000000E+031.6666666667E+01+
*       5.0000000000E+01               0
GRID*             106001               05.8200000000E+03-1.666666667E+01+
*       5.0000000000E+01               0
GRID*             106002               05.8100000000E+031.6666666667E+01+
*       5.0000000000E+01               0
GRID*             106003               05.8100000000E+03-1.666666667E+01+
*       5.0000000000E+01               0
GRID*             106004               05.8000000000E+031.6666666667E+01+
*       5.0000000000E+01               0
GRID*             106005               05.8000000000E+03-1.666666667E+01+
*       5.0000000000E+01               0
GRID*             106006               05.7900000000E+031.6666666667E+01+
*       5.0000000000E+01               0
GRID*             106007               05.7900000000E+03-1.666666667E+01+
*       5.0000000000E+01               0
GRID*             106008               05.7800000000E+031.6666666667E+01+
*       5.0000000000E+01               0
GRID*             106009               05.7800000000E+03-1.666666667E+01+
*       5.0000000000E+01               0
GRID*             106010               05.7700000000E+031.6666666667E+01+
*       5.0000000000E+01               0
GRID*             106011               05.7700000000E+03-1.666666667E+01+
*       5.0000000000E+01               0
GRID*             106012               05.7600000000E+031.6666666667E+01+
*       5.0000000000E+01               0
GRID*             106013               05.7600000000E+03-1.666666667E+01+
*       5.0000000000E+01               0
GRID*             106014               05.7500000000E+031.6666666667E+01+
*       5.0000000000E+01               0
GRID*             106015               05.7500000000E+03-1.666666667E+01+
*       5.0000000000E+01               0
GRID*             106016               05.7400000000E+031.6666666667E+01+
*       5.0000000000E+01               0
GRID*             106017               05.7400000000E+03-1.666666667E+01+
*       5.0000000000E+01               0
GRID*             106018               05.7300000000E+031.6666666667E+01+
*       5.0000000000E+01               0
GRID*             106019               05.7300000000E+03-1.666666667E+01+
*       5.0000000000E+01               0
GRID*             106020               05.7200000000E+031.6666666667E+01+
*       5.0000000000E+01               0
GRID*             106021               05.7200000000E+03-1.666666667E+01+
*       5.0000000000E+01               0
GRID*             106022               05.7100000000E+031.6666666667E+01+
*       5.0000000000E+01               0
GRID*             106023               05.7100000000E+03-1.666666667E+01+
*       5.0000000000E+01               0
GRID*             106024               05.7000000000E+031.6666666667E+01+
*       5.0000000000E+01               0
GRID*             106025               05.7000000000E+03-1.666666667E+01+
*       5.0000000000E+01               0
GRID*             106026               05.6900000000E+031.6666666667E+01+
*       5.0000000000E+01               0
GRID*             106027               05.6900000000E+03-1.666666667E+01+
*       5.0000000000E+01               0
GRID*             106028               05.6800000000E+031.6666666667E+01+
*       5.0000000000E+01               0
GRID*             106029               05.6800000000E+03-1.666666667E+01+
*       5.0000000000E+01               0
GRID*             106030               05.6700000000E+031.6666666667E+01+
*       5.0000000000E+01               0
GRID*             106031               05.6700000000E+03-1.666666667E+01+
*       5.0000000000E+01               0
GRID*             106032               05.6600000000E+031.6666666667E+01+
*       5.0000000000E+01               0
GRID*             106033               05.6600000000E+03-1.666666667E+01+
*       5.0000000000E+01               0
GRID*             106034               05.6500000000E+031.6666666667E+01+
*       5.0000000000E+01               0
GRID*             106035               05.6500000000E+03-1.666666667E+01+
*       5.0000000000E+01               0
GRID*             106036               05.6400000000E+031.6666666667E+01+
*       5.0000000000E+01               0
GRID*             106037               05.6400000000E+03-1.666666667E+01+
*       5.0000000000E+01               0
GRID*             106038               05.6300000000E+031.6666666667E+01+
*       5.0000000000E+01               0
GRID*             106039               05.6300000000E+03-1.666666667E+01+
*       5.0000000000E+01               0
GRID*             106040               05.6200000000E+031.6666666667E+01+
*       5.0000000000E+01               0
GRID*             106041               05.6200000000E+03-1.666666667E+01+
*       5.0000000000E+01               0
GRID*             106042               05.6100000000E+031.6666666667E+01+
*       5.0000000000E+01               0
GRID*             106043               05.6100000000E+03-1.666666667E+01+
*       5.0000000000E+01               0
GRID*             106044               05.6000000000E+031.6666666667E+01+
*       5.0000000000E+01               0
GRID*             106045               05.6000000000E+03-1.666666667E+01+
*       5.0000000000E+01               0
GRID*             106046               05.5900000000E+031.6666666667E+01+
*       5.0000000000E+01               0
GRID*             106047               05.5900000000E+03-1.666666667E+01+
*       5.0000000000E+01               0
GRID*             106048               05.5800000000E+031.6666666667E+01+
*       5.0000000000E+01               0
GRID*             106049               05.5800000000E+03-1.666666667E+01+
*       5.0000000000E+01               0
GRID*             106050               05.5700000000E+031.6666666667E+01+
*       5.0000000000E+01               0
GRID*             106051               05.5700000000E+03-1.666666667E+01+
*       5.0000000000E+01               0
GRID*             106052               05.5600000000E+031.6666666667E+01+
*       5.0000000000E+01               0
GRID*             106053               05.5600000000E+03-1.666666667E+01+
*       5.0000000000E+01               0
GRID*             106054               05.5500000000E+031.6666666667E+01+
*       5.0000000000E+01               0
GRID*             106055               05.5500000000E+03-1.666666667E+01+
*       5.0000000000E+01               0
GRID*             106056               05.5400000000E+031.6666666667E+01+
*       5.0000000000E+01               0
GRID*             106057               05.5400000000E+03-1.666666667E+01+
*       5.0000000000E+01               0
GRID*             106058               05.5300000000E+031.6666666667E+01+
*       5.0000000000E+01               0
GRID*             106059               05.5300000000E+03-1.666666667E+01+
*       5.0000000000E+01               0
GRID*             106060               05.5200000000E+031.6666666667E+01+
*       5.0000000000E+01               0
GRID*             106061               05.5200000000E+03-1.666666667E+01+
*       5.0000000000E+01               0
GRID*             106062               05.5100000000E+031.6666666667E+01+
*       5.0000000000E+01               0
GRID*             106063               05.5100000000E+03-1.666666667E+01+
*       5.0000000000E+01               0
GRID*             106064               05.5000000000E+031.6666666667E+01+
*       5.0000000000E+01               0
GRID*             106065               05.5000000000E+03-1.666666667E+01+
*       5.0000000000E+01               0
GRID*             106066               05.4900000000E+031.6666666667E+01+
*       5.0000000000E+01               0
GRID*             106067               05.4900000000E+03-1.666666667E+01+
*       5.0000000000E+01               0
GRID*             106068               05.4800000000E+031.6666666667E+01+
*       5.0000000000E+01               0
GRID*             106069               05.4800000000E+03-1.666666667E+01+
*       5.0000000000E+01               0
GRID*             106070               05.4700000000E+031.6666666667E+01+
*       5.0000000000E+01               0
GRID*             106071               05.4700000000E+03-1.666666667E+01+
*       5.0000000000E+01               0
GRID*             106072               05.4600000000E+031.6666666667E+01+
*       5.0000000000E+01               0
GRID*             106073               05.4600000000E+03-1.666666667E+01+
*       5.0000000000E+01               0
GRID*             106074               05.4500000000E+031.6666666667E+01+
*       5.0000000000E+01               0
GRID*             106075               05.4500000000E+03-1.666666667E+01+
*       5.0000000000E+01               0
GRID*             106076               05.4400000000E+031.6666666667E+01+
*       5.0000000000E+01               0
GRID*             106077               05.4400000000E+03-1.666666667E+01+
*       5.0000000000E+01               0
GRID*             106078               05.4300000000E+031.6666666667E+01+
*       5.0000000000E+01               0
GRID*             106079               05.4300000000E+03-1.666666667E+01+
*       5.0000000000E+01               0
GRID*             106080               05.4200000000E+031.6666666667E+01+
*       5.0000000000E+01               0
GRID*             106081               05.4200000000E+03-1.666666667E+01+
*       5.0000000000E+01               0
GRID*             106082               05.4100000000E+031.6666666667E+01+
*       5.0000000000E+01               0
GRID*             106083               05.4100000000E+03-1.666666667E+01+
*       5.0000000000E+01               0
GRID*             106084               05.4000000000E+031.6666666667E+01+
*       5.0000000000E+01               0
GRID*             106085               05.4000000000E+03-1.666666667E+01+
*       5.0000000000E+01               0
GRID*             106086               05.3900000000E+031.6666666667E+01+
*       5.0000000000E+01               0
GRID*             106087               05.3900000000E+03-1.666666667E+01+
*       5.0000000000E+01               0
GRID*             106088               05.3800000000E+031.6666666667E+01+
*       5.0000000000E+01               0
GRID*             106089               05.3800000000E+03-1.666666667E+01+
*       5.0000000000E+01               0
GRID*             106090               05.3700000000E+031.6666666667E+01+
*       5.0000000000E+01               0
GRID*             106091               05.3700000000E+03-1.666666667E+01+
*       5.0000000000E+01               0
GRID*             106092               05.3600000000E+031.6666666667E+01+
*       5.0000000000E+01               0
GRID*             106093               05.3600000000E+03-1.666666667E+01+
*       5.0000000000E+01               0
GRID*             106094               05.3500000000E+031.6666666667E+01+
*       5.0000000000E+01               0
GRID*             106095               05.3500000000E+03-1.666666667E+01+
*       5.0000000000E+01               0
GRID*             106096               05.3400000000E+031.6666666667E+01+
*       5.0000000000E+01               0
GRID*             106097               05.3400000000E+03-1.666666667E+01+
*       5.0000000000E+01               0
GRID*             106098               05.3300000000E+031.6666666667E+01+
*       5.0000000000E+01               0
GRID*             106099               05.3300000000E+03-1.666666667E+01+
*       5.0000000000E+01               0
GRID*             106100               05.3200000000E+031.6666666667E+01+
*       5.0000000000E+01               0
GRID*             106101               05.3200000000E+03-1.666666667E+01+
*       5.0000000000E+01               0
GRID*             106102               05.3100000000E+031.6666666667E+01+
*       5.0000000000E+01               0
GRID*             106103               05.3100000000E+03-1.666666667E+01+
*       5.0000000000E+01               0
GRID*             106104               05.3000000000E+031.6666666667E+01+
*       5.0000000000E+01               0
GRID*             106105               05.3000000000E+03-1.666666667E+01+
*       5.0000000000E+01               0
GRID*             106106               05.2900000000E+031.6666666667E+01+
*       5.0000000000E+01               0
GRID*             106107               05.2900000000E+03-1.666666667E+01+
*       5.0000000000E+01               0
GRID*             106108               05.2800000000E+031.6666666667E+01+
*       5.0000000000E+01               0
GRID*             106109               05.2800000000E+03-1.666666667E+01+
*       5.0000000000E+01               0
GRID*             106110               05.2700000000E+031.6666666667E+01+
*       5.0000000000E+01               0
GRID*             106111               05.2700000000E+03-1.666666667E+01+
*       5.0000000000E+01               0
GRID*             106112               05.2600000000E+031.6666666667E+01+
*       5.0000000000E+01               0
GRID*             106113               05.2600000000E+03-1.666666667E+01+
*       5.0000000000E+01               0
GRID*             106114               05.2500000000E+031.6666666667E+01+
*       5.0000000000E+01               0
GRID*             106115               05.2500000000E+03-1.666666667E+01+
*       5.0000000000E+01               0
GRID*             106116               05.2400000000E+031.6666666667E+01+
*       5.0000000000E+01               0
GRID*             106117               05.2400000000E+03-1.666666667E+01+
*       5.0000000000E+01               0
GRID*             106118               05.2300000000E+031.6666666667E+01+
*       5.0000000000E+01               0
GRID*             106119               05.2300000000E+03-1.666666667E+01+
*       5.0000000000E+01               0
GRID*             106120               05.2200000000E+031.6666666667E+01+
*       5.0000000000E+01               0
GRID*             106121               05.2200000000E+03-1.666666667E+01+
*       5.0000000000E+01               0
GRID*             106122               05.2100000000E+031.6666666667E+01+
*       5.0000000000E+01               0
GRID*             106123               05.2100000000E+03-1.666666667E+01+
*       5.0000000000E+01               0
GRID*             106124               05.2000000000E+031.6666666667E+01+
*       5.0000000000E+01               0
GRID*             106125               05.2000000000E+03-1.666666667E+01+
*       5.0000000000E+01               0
GRID*             106126               05.1900000000E+031.6666666667E+01+
*       5.0000000000E+01               0
GRID*             106127               05.1900000000E+03-1.666666667E+01+
*       5.0000000000E+01               0
GRID*             106128               05.1800000000E+031.6666666667E+01+
*       5.0000000000E+01               0
GRID*             106129               05.1800000000E+03-1.666666667E+01+
*       5.0000000000E+01               0
GRID*             106130               05.1700000000E+031.6666666667E+01+
*       5.0000000000E+01               0
GRID*             106131               05.1700000000E+03-1.666666667E+01+
*       5.0000000000E+01               0
GRID*             106132               05.1600000000E+031.6666666667E+01+
*       5.0000000000E+01               0
GRID*             106133               05.1600000000E+03-1.666666667E+01+
*       5.0000000000E+01               0
GRID*             106134               05.1500000000E+031.6666666667E+01+
*       5.0000000000E+01               0
GRID*             106135               05.1500000000E+03-1.666666667E+01+
*       5.0000000000E+01               0
GRID*             106136               05.1400000000E+031.6666666667E+01+
*       5.0000000000E+01               0
GRID*             106137               05.1400000000E+03-1.666666667E+01+
*       5.0000000000E+01               0
GRID*             106138               05.1300000000E+031.6666666667E+01+
*       5.0000000000E+01               0
GRID*             106139               05.1300000000E+03-1.666666667E+01+
*       5.0000000000E+01               0
GRID*             106140               05.1200000000E+031.6666666667E+01+
*       5.0000000000E+01               0
GRID*             106141               05.1200000000E+03-1.666666667E+01+
*       5.0000000000E+01               0
GRID*             106142               05.1100000000E+031.6666666667E+01+
*       5.0000000000E+01               0
GRID*             106143               05.1100000000E+03-1.666666667E+01+
*       5.0000000000E+01               0
GRID*             106144               05.1000000000E+031.6666666667E+01+
*       5.0000000000E+01               0
GRID*             106145               05.1000000000E+03-1.666666667E+01+
*       5.0000000000E+01               0
GRID*             106146               05.0900000000E+031.6666666667E+01+
*       5.0000000000E+01               0
GRID*             106147               05.0900000000E+03-1.666666667E+01+
*       5.0000000000E+01               0
GRID*             106148               05.0800000000E+031.6666666667E+01+
*       5.0000000000E+01               0
GRID*             106149               05.0800000000E+03-1.666666667E+01+
*       5.0000000000E+01               0
GRID*             106150               05.0700000000E+031.6666666667E+01+
*       5.0000000000E+01               0
GRID*             106151               05.0700000000E+03-1.666666667E+01+
*       5.0000000000E+01               0
GRID*             106152               05.0600000000E+031.6666666667E+01+
*       5.0000000000E+01               0
GRID*             106153               05.0600000000E+03-1.666666667E+01+
*       5.0000000000E+01               0
GRID*             106154               05.0500000000E+031.6666666667E+01+
*       5.0000000000E+01               0
GRID*             106155               05.0500000000E+03-1.666666667E+01+
*       5.0000000000E+01               0
GRID*             106156               05.0400000000E+031.6666666667E+01+
*       5.0000000000E+01               0
GRID*             106157               05.0400000000E+03-1.666666667E+01+
*       5.0000000000E+01               0
GRID*             106158               05.0300000000E+031.6666666667E+01+
*       5.0000000000E+01               0
GRID*             106159               05.0300000000E+03-1.666666667E+01+
*       5.0000000000E+01               0
GRID*             106160               05.0200000000E+031.6666666667E+01+
*       5.0000000000E+01               0
GRID*             106161               05.0200000000E+03-1.666666667E+01+
*       5.0000000000E+01               0
GRID*             106162               05.0100000000E+031.6666666667E+01+
*       5.0000000000E+01               0
GRID*             106163               05.0100000000E+03-1.666666667E+01+
*       5.0000000000E+01               0
GRID*             106164               05.0000000000E+031.6666666667E+01+
*       5.0000000000E+01               0
GRID*             106165               05.0000000000E+03-1.666666667E+01+
*       5.0000000000E+01               0
GRID*             106166               04.9900000000E+031.6666666667E+01+
*       5.0000000000E+01               0
GRID*             106167               04.9900000000E+03-1.666666667E+01+
*       5.0000000000E+01               0
GRID*             106168               04.9800000000E+031.6666666667E+01+
*       5.0000000000E+01               0
GRID*             106169               04.9800000000E+03-1.666666667E+01+
*       5.0000000000E+01               0
GRID*             106170               04.9700000000E+031.6666666667E+01+
*       5.0000000000E+01               0
GRID*             106171               04.9700000000E+03-1.666666667E+01+
*       5.0000000000E+01               0
GRID*             106172               04.9600000000E+031.6666666667E+01+
*       5.0000000000E+01               0
GRID*             106173               04.9600000000E+03-1.666666667E+01+
*       5.0000000000E+01               0
GRID*             106174               04.9500000000E+031.6666666667E+01+
*       5.0000000000E+01               0
GRID*             106175               04.9500000000E+03-1.666666667E+01+
*       5.0000000000E+01               0
GRID*             106176               04.9400000000E+031.6666666667E+01+
*       5.0000000000E+01               0
GRID*             106177               04.9400000000E+03-1.666666667E+01+
*       5.0000000000E+01               0
GRID*             106178               04.9300000000E+031.6666666667E+01+
*       5.0000000000E+01               0
GRID*             106179               04.9300000000E+03-1.666666667E+01+
*       5.0000000000E+01               0
GRID*             106180               04.9200000000E+031.6666666667E+01+
*       5.0000000000E+01               0
GRID*             106181               04.9200000000E+03-1.666666667E+01+
*       5.0000000000E+01               0
GRID*             106182               04.9100000000E+031.6666666667E+01+
*       5.0000000000E+01               0
GRID*             106183               04.9100000000E+03-1.666666667E+01+
*       5.0000000000E+01               0
GRID*             106184               04.9000000000E+031.6666666667E+01+
*       5.0000000000E+01               0
GRID*             106185               04.9000000000E+03-1.666666667E+01+
*       5.0000000000E+01               0
GRID*             106186               04.8900000000E+031.6666666667E+01+
*       5.0000000000E+01               0
GRID*             106187               04.8900000000E+03-1.666666667E+01+
*       5.0000000000E+01               0
GRID*             106188               04.8800000000E+031.6666666667E+01+
*       5.0000000000E+01               0
GRID*             106189               04.8800000000E+03-1.666666667E+01+
*       5.0000000000E+01               0
GRID*             106190               04.8700000000E+031.6666666667E+01+
*       5.0000000000E+01               0
GRID*             106191               04.8700000000E+03-1.666666667E+01+
*       5.0000000000E+01               0
GRID*             106192               04.8600000000E+031.6666666667E+01+
*       5.0000000000E+01               0
GRID*             106193               04.8600000000E+03-1.666666667E+01+
*       5.0000000000E+01               0
GRID*             106194               04.8500000000E+031.6666666667E+01+
*       5.0000000000E+01               0
GRID*             106195               04.8500000000E+03-1.666666667E+01+
*       5.0000000000E+01               0
GRID*             106196               04.8400000000E+031.6666666667E+01+
*       5.0000000000E+01               0
GRID*             106197               04.8400000000E+03-1.666666667E+01+
*       5.0000000000E+01               0
GRID*             106198               04.8300000000E+031.6666666667E+01+
*       5.0000000000E+01               0
GRID*             106199               04.8300000000E+03-1.666666667E+01+
*       5.0000000000E+01               0
GRID*             106200               04.8200000000E+031.6666666667E+01+
*       5.0000000000E+01               0
GRID*             106201               04.8200000000E+03-1.666666667E+01+
*       5.0000000000E+01               0
GRID*             106202               04.8100000000E+031.6666666667E+01+
*       5.0000000000E+01               0
GRID*             106203               04.8100000000E+03-1.666666667E+01+
*       5.0000000000E+01               0
GRID*             106204               04.8000000000E+031.6666666667E+01+
*       5.0000000000E+01               0
GRID*             106205               04.8000000000E+03-1.666666667E+01+
*       5.0000000000E+01               0
GRID*             106206               04.7900000000E+031.6666666667E+01+
*       5.0000000000E+01               0
GRID*             106207               04.7900000000E+03-1.666666667E+01+
*       5.0000000000E+01               0
GRID*             106208               04.7800000000E+031.6666666667E+01+
*       5.0000000000E+01               0
GRID*             106209               04.7800000000E+03-1.666666667E+01+
*       5.0000000000E+01               0
GRID*             106210               04.7700000000E+031.6666666667E+01+
*       5.0000000000E+01               0
GRID*             106211               04.7700000000E+03-1.666666667E+01+
*       5.0000000000E+01               0
GRID*             106212               04.7600000000E+031.6666666667E+01+
*       5.0000000000E+01               0
GRID*             106213               04.7600000000E+03-1.666666667E+01+
*       5.0000000000E+01               0
GRID*             106214               04.7500000000E+031.6666666667E+01+
*       5.0000000000E+01               0
GRID*             106215               04.7500000000E+03-1.666666667E+01+
*       5.0000000000E+01               0
GRID*             106216               04.7400000000E+031.6666666667E+01+
*       5.0000000000E+01               0
GRID*             106217               04.7400000000E+03-1.666666667E+01+
*       5.0000000000E+01               0
GRID*             106218               04.7300000000E+031.6666666667E+01+
*       5.0000000000E+01               0
GRID*             106219               04.7300000000E+03-1.666666667E+01+
*       5.0000000000E+01               0
GRID*             106220               04.7200000000E+031.6666666667E+01+
*       5.0000000000E+01               0
GRID*             106221               04.7200000000E+03-1.666666667E+01+
*       5.0000000000E+01               0
GRID*             106222               04.7100000000E+031.6666666667E+01+
*       5.0000000000E+01               0
GRID*             106223               04.7100000000E+03-1.666666667E+01+
*       5.0000000000E+01               0
GRID*             106224               04.7000000000E+031.6666666667E+01+
*       5.0000000000E+01               0
GRID*             106225               04.7000000000E+03-1.666666667E+01+
*       5.0000000000E+01               0
GRID*             106226               04.6900000000E+031.6666666667E+01+
*       5.0000000000E+01               0
GRID*             106227               04.6900000000E+03-1.666666667E+01+
*       5.0000000000E+01               0
GRID*             106228               04.6800000000E+031.6666666667E+01+
*       5.0000000000E+01               0
GRID*             106229               04.6800000000E+03-1.666666667E+01+
*       5.0000000000E+01               0
GRID*             106230               04.6700000000E+031.6666666667E+01+
*       5.0000000000E+01               0
GRID*             106231               04.6700000000E+03-1.666666667E+01+
*       5.0000000000E+01               0
GRID*             106232               04.6600000000E+031.6666666667E+01+
*       5.0000000000E+01               0
GRID*             106233               04.6600000000E+03-1.666666667E+01+
*       5.0000000000E+01               0
GRID*             106234               04.6500000000E+031.6666666667E+01+
*       5.0000000000E+01               0
GRID*             106235               04.6500000000E+03-1.666666667E+01+
*       5.0000000000E+01               0
GRID*             106236               04.6400000000E+031.6666666667E+01+
*       5.0000000000E+01               0
GRID*             106237               04.6400000000E+03-1.666666667E+01+
*       5.0000000000E+01               0
GRID*             106238               04.6300000000E+031.6666666667E+01+
*       5.0000000000E+01               0
GRID*             106239               04.6300000000E+03-1.666666667E+01+
*       5.0000000000E+01               0
GRID*             106240               04.6200000000E+031.6666666667E+01+
*       5.0000000000E+01               0
GRID*             106241               04.6200000000E+03-1.666666667E+01+
*       5.0000000000E+01               0
GRID*             106242               04.6100000000E+031.6666666667E+01+
*       5.0000000000E+01               0
GRID*             106243               04.6100000000E+03-1.666666667E+01+
*       5.0000000000E+01               0
GRID*             106244               04.6000000000E+031.6666666667E+01+
*       5.0000000000E+01               0
GRID*             106245               04.6000000000E+03-1.666666667E+01+
*       5.0000000000E+01               0
GRID*             106246               04.5900000000E+031.6666666667E+01+
*       5.0000000000E+01               0
GRID*             106247               04.5900000000E+03-1.666666667E+01+
*       5.0000000000E+01               0
GRID*             106248               04.5800000000E+031.6666666667E+01+
*       5.0000000000E+01               0
GRID*             106249               04.5800000000E+03-1.666666667E+01+
*       5.0000000000E+01               0
GRID*             106250               04.5700000000E+031.6666666667E+01+
*       5.0000000000E+01               0
GRID*             106251               04.5700000000E+03-1.666666667E+01+
*       5.0000000000E+01               0
GRID*             106252               04.5600000000E+031.6666666667E+01+
*       5.0000000000E+01               0
GRID*             106253               04.5600000000E+03-1.666666667E+01+
*       5.0000000000E+01               0
GRID*             106254               04.5500000000E+031.6666666667E+01+
*       5.0000000000E+01               0
GRID*             106255               04.5500000000E+03-1.666666667E+01+
*       5.0000000000E+01               0
GRID*             106256               04.5400000000E+031.6666666667E+01+
*       5.0000000000E+01               0
GRID*             106257               04.5400000000E+03-1.666666667E+01+
*       5.0000000000E+01               0
GRID*             106258               04.5300000000E+031.6666666667E+01+
*       5.0000000000E+01               0
GRID*             106259               04.5300000000E+03-1.666666667E+01+
*       5.0000000000E+01               0
GRID*             106260               04.5200000000E+031.6666666667E+01+
*       5.0000000000E+01               0
GRID*             106261               04.5200000000E+03-1.666666667E+01+
*       5.0000000000E+01               0
GRID*             106262               04.5100000000E+031.6666666667E+01+
*       5.0000000000E+01               0
GRID*             106263               04.5100000000E+03-1.666666667E+01+
*       5.0000000000E+01               0
GRID*             106264               04.5000000000E+031.6666666667E+01+
*       5.0000000000E+01               0
GRID*             106265               04.5000000000E+03-1.666666667E+01+
*       5.0000000000E+01               0
GRID*             106266               04.4900000000E+031.6666666667E+01+
*       5.0000000000E+01               0
GRID*             106267               04.4900000000E+03-1.666666667E+01+
*       5.0000000000E+01               0
GRID*             106268               04.4800000000E+031.6666666667E+01+
*       5.0000000000E+01               0
GRID*             106269               04.4800000000E+03-1.666666667E+01+
*       5.0000000000E+01               0
GRID*             106270               04.4700000000E+031.6666666667E+01+
*       5.0000000000E+01               0
GRID*             106271               04.4700000000E+03-1.666666667E+01+
*       5.0000000000E+01               0
GRID*             106272               04.4600000000E+031.6666666667E+01+
*       5.0000000000E+01               0
GRID*             106273               04.4600000000E+03-1.666666667E+01+
*       5.0000000000E+01               0
GRID*             106274               04.4500000000E+031.6666666667E+01+
*       5.0000000000E+01               0
GRID*             106275               04.4500000000E+03-1.666666667E+01+
*       5.0000000000E+01               0
GRID*             106276               04.4400000000E+031.6666666667E+01+
*       5.0000000000E+01               0
GRID*             106277               04.4400000000E+03-1.666666667E+01+
*       5.0000000000E+01               0
GRID*             106278               04.4300000000E+031.6666666667E+01+
*       5.0000000000E+01               0
GRID*             106279               04.4300000000E+03-1.666666667E+01+
*       5.0000000000E+01               0
GRID*             106280               04.4200000000E+031.6666666667E+01+
*       5.0000000000E+01               0
GRID*             106281               04.4200000000E+03-1.666666667E+01+
*       5.0000000000E+01               0
GRID*             106282               04.4100000000E+031.6666666667E+01+
*       5.0000000000E+01               0
GRID*             106283               04.4100000000E+03-1.666666667E+01+
*       5.0000000000E+01               0
GRID*             106284               04.4000000000E+031.6666666667E+01+
*       5.0000000000E+01               0
GRID*             106285               04.4000000000E+03-1.666666667E+01+
*       5.0000000000E+01               0
GRID*             106286               04.3900000000E+031.6666666667E+01+
*       5.0000000000E+01               0
GRID*             106287               04.3900000000E+03-1.666666667E+01+
*       5.0000000000E+01               0
GRID*             106288               04.3800000000E+031.6666666667E+01+
*       5.0000000000E+01               0
GRID*             106289               04.3800000000E+03-1.666666667E+01+
*       5.0000000000E+01               0
GRID*             106290               04.3700000000E+031.6666666667E+01+
*       5.0000000000E+01               0
GRID*             106291               04.3700000000E+03-1.666666667E+01+
*       5.0000000000E+01               0
GRID*             106292               04.3600000000E+031.6666666667E+01+
*       5.0000000000E+01               0
GRID*             106293               04.3600000000E+03-1.666666667E+01+
*       5.0000000000E+01               0
GRID*             106294               04.3500000000E+031.6666666667E+01+
*       5.0000000000E+01               0
GRID*             106295               04.3500000000E+03-1.666666667E+01+
*       5.0000000000E+01               0
GRID*             106296               04.3400000000E+031.6666666667E+01+
*       5.0000000000E+01               0
GRID*             106297               04.3400000000E+03-1.666666667E+01+
*       5.0000000000E+01               0
GRID*             106298               04.3300000000E+031.6666666667E+01+
*       5.0000000000E+01               0
GRID*             106299               04.3300000000E+03-1.666666667E+01+
*       5.0000000000E+01               0
GRID*             106300               04.3200000000E+031.6666666667E+01+
*       5.0000000000E+01               0
GRID*             106301               04.3200000000E+03-1.666666667E+01+
*       5.0000000000E+01               0
GRID*             106302               04.3100000000E+031.6666666667E+01+
*       5.0000000000E+01               0
GRID*             106303               04.3100000000E+03-1.666666667E+01+
*       5.0000000000E+01               0
GRID*             106304               04.3000000000E+031.6666666667E+01+
*       5.0000000000E+01               0
GRID*             106305               04.3000000000E+03-1.666666667E+01+
*       5.0000000000E+01               0
GRID*             106306               04.2900000000E+031.6666666667E+01+
*       5.0000000000E+01               0
GRID*             106307               04.2900000000E+03-1.666666667E+01+
*       5.0000000000E+01               0
GRID*             106308               04.2800000000E+031.6666666667E+01+
*       5.0000000000E+01               0
GRID*             106309               04.2800000000E+03-1.666666667E+01+
*       5.0000000000E+01               0
GRID*             106310               04.2700000000E+031.6666666667E+01+
*       5.0000000000E+01               0
GRID*             106311               04.2700000000E+03-1.666666667E+01+
*       5.0000000000E+01               0
GRID*             106312               04.2600000000E+031.6666666667E+01+
*       5.0000000000E+01               0
GRID*             106313               04.2600000000E+03-1.666666667E+01+
*       5.0000000000E+01               0
GRID*             106314               04.2500000000E+031.6666666667E+01+
*       5.0000000000E+01               0
GRID*             106315               04.2500000000E+03-1.666666667E+01+
*       5.0000000000E+01               0
GRID*             106316               04.2400000000E+031.6666666667E+01+
*       5.0000000000E+01               0
GRID*             106317               04.2400000000E+03-1.666666667E+01+
*       5.0000000000E+01               0
GRID*             106318               04.2300000000E+031.6666666667E+01+
*       5.0000000000E+01               0
GRID*             106319               04.2300000000E+03-1.666666667E+01+
*       5.0000000000E+01               0
GRID*             106320               04.2200000000E+031.6666666667E+01+
*       5.0000000000E+01               0
GRID*             106321               04.2200000000E+03-1.666666667E+01+
*       5.0000000000E+01               0
GRID*             106322               04.2100000000E+031.6666666667E+01+
*       5.0000000000E+01               0
GRID*             106323               04.2100000000E+03-1.666666667E+01+
*       5.0000000000E+01               0
GRID*             106324               04.2000000000E+031.6666666667E+01+
*       5.0000000000E+01               0
GRID*             106325               04.2000000000E+03-1.666666667E+01+
*       5.0000000000E+01               0
GRID*             106326               04.1900000000E+031.6666666667E+01+
*       5.0000000000E+01               0
GRID*             106327               04.1900000000E+03-1.666666667E+01+
*       5.0000000000E+01               0
GRID*             106328               04.1800000000E+031.6666666667E+01+
*       5.0000000000E+01               0
GRID*             106329               04.1800000000E+03-1.666666667E+01+
*       5.0000000000E+01               0
GRID*             106330               04.1700000000E+031.6666666667E+01+
*       5.0000000000E+01               0
GRID*             106331               04.1700000000E+03-1.666666667E+01+
*       5.0000000000E+01               0
GRID*             106332               04.1600000000E+031.6666666667E+01+
*       5.0000000000E+01               0
GRID*             106333               04.1600000000E+03-1.666666667E+01+
*       5.0000000000E+01               0
GRID*             106334               04.1500000000E+031.6666666667E+01+
*       5.0000000000E+01               0
GRID*             106335               04.1500000000E+03-1.666666667E+01+
*       5.0000000000E+01               0
GRID*             106336               04.1400000000E+031.6666666667E+01+
*       5.0000000000E+01               0
GRID*             106337               04.1400000000E+03-1.666666667E+01+
*       5.0000000000E+01               0
GRID*             106338               04.1300000000E+031.6666666667E+01+
*       5.0000000000E+01               0
GRID*             106339               04.1300000000E+03-1.666666667E+01+
*       5.0000000000E+01               0
GRID*             106340               04.1200000000E+031.6666666667E+01+
*       5.0000000000E+01               0
GRID*             106341               04.1200000000E+03-1.666666667E+01+
*       5.0000000000E+01               0
GRID*             106342               04.1100000000E+031.6666666667E+01+
*       5.0000000000E+01               0
GRID*             106343               04.1100000000E+03-1.666666667E+01+
*       5.0000000000E+01               0
GRID*             106344               04.1000000000E+031.6666666667E+01+
*       5.0000000000E+01               0
GRID*             106345               04.1000000000E+03-1.666666667E+01+
*       5.0000000000E+01               0
GRID*             106346               04.0900000000E+031.6666666667E+01+
*       5.0000000000E+01               0
GRID*             106347               04.0900000000E+03-1.666666667E+01+
*       5.0000000000E+01               0
GRID*             106348               04.0800000000E+031.6666666667E+01+
*       5.0000000000E+01               0
GRID*             106349               04.0800000000E+03-1.666666667E+01+
*       5.0000000000E+01               0
GRID*             106350               04.0700000000E+031.6666666667E+01+
*       5.0000000000E+01               0
GRID*             106351               04.0700000000E+03-1.666666667E+01+
*       5.0000000000E+01               0
GRID*             106352               04.0600000000E+031.6666666667E+01+
*       5.0000000000E+01               0
GRID*             106353               04.0600000000E+03-1.666666667E+01+
*       5.0000000000E+01               0
GRID*             106354               04.0500000000E+031.6666666667E+01+
*       5.0000000000E+01               0
GRID*             106355               04.0500000000E+03-1.666666667E+01+
*       5.0000000000E+01               0
GRID*             106356               04.0400000000E+031.6666666667E+01+
*       5.0000000000E+01               0
GRID*             106357               04.0400000000E+03-1.666666667E+01+
*       5.0000000000E+01               0
GRID*             106358               04.0300000000E+031.6666666667E+01+
*       5.0000000000E+01               0
GRID*             106359               04.0300000000E+03-1.666666667E+01+
*       5.0000000000E+01               0
GRID*             106360               04.0200000000E+031.6666666667E+01+
*       5.0000000000E+01               0
GRID*             106361               04.0200000000E+03-1.666666667E+01+
*       5.0000000000E+01               0
GRID*             106362               04.0100000000E+031.6666666667E+01+
*       5.0000000000E+01               0
GRID*             106363               04.0100000000E+03-1.666666667E+01+
*       5.0000000000E+01               0
GRID*             106364               04.0100000000E+035.0000000000E+01+
*       1.6666666667E+01               0
GRID*             106365               04.0100000000E+035.0000000000E+01+
*       -1.666666667E+01               0
GRID*             106366               04.0200000000E+035.0000000000E+01+
*       1.6666666667E+01               0
GRID*             106367               04.0200000000E+035.0000000000E+01+
*       -1.666666667E+01               0
GRID*             106368               04.0300000000E+035.0000000000E+01+
*       1.6666666667E+01               0
GRID*             106369               04.0300000000E+035.0000000000E+01+
*       -1.666666667E+01               0
GRID*             106370               04.0400000000E+035.0000000000E+01+
*       1.6666666667E+01               0
GRID*             106371               04.0400000000E+035.0000000000E+01+
*       -1.666666667E+01               0
GRID*             106372               04.0500000000E+035.0000000000E+01+
*       1.6666666667E+01               0
GRID*             106373               04.0500000000E+035.0000000000E+01+
*       -1.666666667E+01               0
GRID*             106374               04.0600000000E+035.0000000000E+01+
*       1.6666666667E+01               0
GRID*             106375               04.0600000000E+035.0000000000E+01+
*       -1.666666667E+01               0
GRID*             106376               04.0700000000E+035.0000000000E+01+
*       1.6666666667E+01               0
GRID*             106377               04.0700000000E+035.0000000000E+01+
*       -1.666666667E+01               0
GRID*             106378               04.0800000000E+035.0000000000E+01+
*       1.6666666667E+01               0
GRID*             106379               04.0800000000E+035.0000000000E+01+
*       -1.666666667E+01               0
GRID*             106380               04.0900000000E+035.0000000000E+01+
*       1.6666666667E+01               0
GRID*             106381               04.0900000000E+035.0000000000E+01+
*       -1.666666667E+01               0
GRID*             106382               04.1000000000E+035.0000000000E+01+
*       1.6666666667E+01               0
GRID*             106383               04.1000000000E+035.0000000000E+01+
*       -1.666666667E+01               0
GRID*             106384               04.1100000000E+035.0000000000E+01+
*       1.6666666667E+01               0
GRID*             106385               04.1100000000E+035.0000000000E+01+
*       -1.666666667E+01               0
GRID*             106386               04.1200000000E+035.0000000000E+01+
*       1.6666666667E+01               0
GRID*             106387               04.1200000000E+035.0000000000E+01+
*       -1.666666667E+01               0
GRID*             106388               04.1300000000E+035.0000000000E+01+
*       1.6666666667E+01               0
GRID*             106389               04.1300000000E+035.0000000000E+01+
*       -1.666666667E+01               0
GRID*             106390               04.1400000000E+035.0000000000E+01+
*       1.6666666667E+01               0
GRID*             106391               04.1400000000E+035.0000000000E+01+
*       -1.666666667E+01               0
GRID*             106392               04.1500000000E+035.0000000000E+01+
*       1.6666666667E+01               0
GRID*             106393               04.1500000000E+035.0000000000E+01+
*       -1.666666667E+01               0
GRID*             106394               04.1600000000E+035.0000000000E+01+
*       1.6666666667E+01               0
GRID*             106395               04.1600000000E+035.0000000000E+01+
*       -1.666666667E+01               0
GRID*             106396               04.1700000000E+035.0000000000E+01+
*       1.6666666667E+01               0
GRID*             106397               04.1700000000E+035.0000000000E+01+
*       -1.666666667E+01               0
GRID*             106398               04.1800000000E+035.0000000000E+01+
*       1.6666666667E+01               0
GRID*             106399               04.1800000000E+035.0000000000E+01+
*       -1.666666667E+01               0
GRID*             106400               04.1900000000E+035.0000000000E+01+
*       1.6666666667E+01               0
GRID*             106401               04.1900000000E+035.0000000000E+01+
*       -1.666666667E+01               0
GRID*             106402               04.2000000000E+035.0000000000E+01+
*       1.6666666667E+01               0
GRID*             106403               04.2000000000E+035.0000000000E+01+
*       -1.666666667E+01               0
GRID*             106404               04.2100000000E+035.0000000000E+01+
*       1.6666666667E+01               0
GRID*             106405               04.2100000000E+035.0000000000E+01+
*       -1.666666667E+01               0
GRID*             106406               04.2200000000E+035.0000000000E+01+
*       1.6666666667E+01               0
GRID*             106407               04.2200000000E+035.0000000000E+01+
*       -1.666666667E+01               0
GRID*             106408               04.2300000000E+035.0000000000E+01+
*       1.6666666667E+01               0
GRID*             106409               04.2300000000E+035.0000000000E+01+
*       -1.666666667E+01               0
GRID*             106410               04.2400000000E+035.0000000000E+01+
*       1.6666666667E+01               0
GRID*             106411               04.2400000000E+035.0000000000E+01+
*       -1.666666667E+01               0
GRID*             106412               04.2500000000E+035.0000000000E+01+
*       1.6666666667E+01               0
GRID*             106413               04.2500000000E+035.0000000000E+01+
*       -1.666666667E+01               0
GRID*             106414               04.2600000000E+035.0000000000E+01+
*       1.6666666667E+01               0
GRID*             106415               04.2600000000E+035.0000000000E+01+
*       -1.666666667E+01               0
GRID*             106416               04.2700000000E+035.0000000000E+01+
*       1.6666666667E+01               0
GRID*             106417               04.2700000000E+035.0000000000E+01+
*       -1.666666667E+01               0
GRID*             106418               04.2800000000E+035.0000000000E+01+
*       1.6666666667E+01               0
GRID*             106419               04.2800000000E+035.0000000000E+01+
*       -1.666666667E+01               0
GRID*             106420               04.2900000000E+035.0000000000E+01+
*       1.6666666667E+01               0
GRID*             106421               04.2900000000E+035.0000000000E+01+
*       -1.666666667E+01               0
GRID*             106422               04.3000000000E+035.0000000000E+01+
*       1.6666666667E+01               0
GRID*             106423               04.3000000000E+035.0000000000E+01+
*       -1.666666667E+01               0
GRID*             106424               04.3100000000E+035.0000000000E+01+
*       1.6666666667E+01               0
GRID*             106425               04.3100000000E+035.0000000000E+01+
*       -1.666666667E+01               0
GRID*             106426               04.3200000000E+035.0000000000E+01+
*       1.6666666667E+01               0
GRID*             106427               04.3200000000E+035.0000000000E+01+
*       -1.666666667E+01               0
GRID*             106428               04.3300000000E+035.0000000000E+01+
*       1.6666666667E+01               0
GRID*             106429               04.3300000000E+035.0000000000E+01+
*       -1.666666667E+01               0
GRID*             106430               04.3400000000E+035.0000000000E+01+
*       1.6666666667E+01               0
GRID*             106431               04.3400000000E+035.0000000000E+01+
*       -1.666666667E+01               0
GRID*             106432               04.3500000000E+035.0000000000E+01+
*       1.6666666667E+01               0
GRID*             106433               04.3500000000E+035.0000000000E+01+
*       -1.666666667E+01               0
GRID*             106434               04.3600000000E+035.0000000000E+01+
*       1.6666666667E+01               0
GRID*             106435               04.3600000000E+035.0000000000E+01+
*       -1.666666667E+01               0
GRID*             106436               04.3700000000E+035.0000000000E+01+
*       1.6666666667E+01               0
GRID*             106437               04.3700000000E+035.0000000000E+01+
*       -1.666666667E+01               0
GRID*             106438               04.3800000000E+035.0000000000E+01+
*       1.6666666667E+01               0
GRID*             106439               04.3800000000E+035.0000000000E+01+
*       -1.666666667E+01               0
GRID*             106440               04.3900000000E+035.0000000000E+01+
*       1.6666666667E+01               0
GRID*             106441               04.3900000000E+035.0000000000E+01+
*       -1.666666667E+01               0
GRID*             106442               04.4000000000E+035.0000000000E+01+
*       1.6666666667E+01               0
GRID*             106443               04.4000000000E+035.0000000000E+01+
*       -1.666666667E+01               0
GRID*             106444               04.4100000000E+035.0000000000E+01+
*       1.6666666667E+01               0
GRID*             106445               04.4100000000E+035.0000000000E+01+
*       -1.666666667E+01               0
GRID*             106446               04.4200000000E+035.0000000000E+01+
*       1.6666666667E+01               0
GRID*             106447               04.4200000000E+035.0000000000E+01+
*       -1.666666667E+01               0
GRID*             106448               04.4300000000E+035.0000000000E+01+
*       1.6666666667E+01               0
GRID*             106449               04.4300000000E+035.0000000000E+01+
*       -1.666666667E+01               0
GRID*             106450               04.4400000000E+035.0000000000E+01+
*       1.6666666667E+01               0
GRID*             106451               04.4400000000E+035.0000000000E+01+
*       -1.666666667E+01               0
GRID*             106452               04.4500000000E+035.0000000000E+01+
*       1.6666666667E+01               0
GRID*             106453               04.4500000000E+035.0000000000E+01+
*       -1.666666667E+01               0
GRID*             106454               04.4600000000E+035.0000000000E+01+
*       1.6666666667E+01               0
GRID*             106455               04.4600000000E+035.0000000000E+01+
*       -1.666666667E+01               0
GRID*             106456               04.4700000000E+035.0000000000E+01+
*       1.6666666667E+01               0
GRID*             106457               04.4700000000E+035.0000000000E+01+
*       -1.666666667E+01               0
GRID*             106458               04.4800000000E+035.0000000000E+01+
*       1.6666666667E+01               0
GRID*             106459               04.4800000000E+035.0000000000E+01+
*       -1.666666667E+01               0
GRID*             106460               04.4900000000E+035.0000000000E+01+
*       1.6666666667E+01               0
GRID*             106461               04.4900000000E+035.0000000000E+01+
*       -1.666666667E+01               0
GRID*             106462               04.5000000000E+035.0000000000E+01+
*       1.6666666667E+01               0
GRID*             106463               04.5000000000E+035.0000000000E+01+
*       -1.666666667E+01               0
GRID*             106464               04.5100000000E+035.0000000000E+01+
*       1.6666666667E+01               0
GRID*             106465               04.5100000000E+035.0000000000E+01+
*       -1.666666667E+01               0
GRID*             106466               04.5200000000E+035.0000000000E+01+
*       1.6666666667E+01               0
GRID*             106467               04.5200000000E+035.0000000000E+01+
*       -1.666666667E+01               0
GRID*             106468               04.5300000000E+035.0000000000E+01+
*       1.6666666667E+01               0
GRID*             106469               04.5300000000E+035.0000000000E+01+
*       -1.666666667E+01               0
GRID*             106470               04.5400000000E+035.0000000000E+01+
*       1.6666666667E+01               0
GRID*             106471               04.5400000000E+035.0000000000E+01+
*       -1.666666667E+01               0
GRID*             106472               04.5500000000E+035.0000000000E+01+
*       1.6666666667E+01               0
GRID*             106473               04.5500000000E+035.0000000000E+01+
*       -1.666666667E+01               0
GRID*             106474               04.5600000000E+035.0000000000E+01+
*       1.6666666667E+01               0
GRID*             106475               04.5600000000E+035.0000000000E+01+
*       -1.666666667E+01               0
GRID*             106476               04.5700000000E+035.0000000000E+01+
*       1.6666666667E+01               0
GRID*             106477               04.5700000000E+035.0000000000E+01+
*       -1.666666667E+01               0
GRID*             106478               04.5800000000E+035.0000000000E+01+
*       1.6666666667E+01               0
GRID*             106479               04.5800000000E+035.0000000000E+01+
*       -1.666666667E+01               0
GRID*             106480               04.5900000000E+035.0000000000E+01+
*       1.6666666667E+01               0
GRID*             106481               04.5900000000E+035.0000000000E+01+
*       -1.666666667E+01               0
GRID*             106482               04.6000000000E+035.0000000000E+01+
*       1.6666666667E+01               0
GRID*             106483               04.6000000000E+035.0000000000E+01+
*       -1.666666667E+01               0
GRID*             106484               04.6100000000E+035.0000000000E+01+
*       1.6666666667E+01               0
GRID*             106485               04.6100000000E+035.0000000000E+01+
*       -1.666666667E+01               0
GRID*             106486               04.6200000000E+035.0000000000E+01+
*       1.6666666667E+01               0
GRID*             106487               04.6200000000E+035.0000000000E+01+
*       -1.666666667E+01               0
GRID*             106488               04.6300000000E+035.0000000000E+01+
*       1.6666666667E+01               0
GRID*             106489               04.6300000000E+035.0000000000E+01+
*       -1.666666667E+01               0
GRID*             106490               04.6400000000E+035.0000000000E+01+
*       1.6666666667E+01               0
GRID*             106491               04.6400000000E+035.0000000000E+01+
*       -1.666666667E+01               0
GRID*             106492               04.6500000000E+035.0000000000E+01+
*       1.6666666667E+01               0
GRID*             106493               04.6500000000E+035.0000000000E+01+
*       -1.666666667E+01               0
GRID*             106494               04.6600000000E+035.0000000000E+01+
*       1.6666666667E+01               0
GRID*             106495               04.6600000000E+035.0000000000E+01+
*       -1.666666667E+01               0
GRID*             106496               04.6700000000E+035.0000000000E+01+
*       1.6666666667E+01               0
GRID*             106497               04.6700000000E+035.0000000000E+01+
*       -1.666666667E+01               0
GRID*             106498               04.6800000000E+035.0000000000E+01+
*       1.6666666667E+01               0
GRID*             106499               04.6800000000E+035.0000000000E+01+
*       -1.666666667E+01               0
GRID*             106500               04.6900000000E+035.0000000000E+01+
*       1.6666666667E+01               0
GRID*             106501               04.6900000000E+035.0000000000E+01+
*       -1.666666667E+01               0
GRID*             106502               04.7000000000E+035.0000000000E+01+
*       1.6666666667E+01               0
GRID*             106503               04.7000000000E+035.0000000000E+01+
*       -1.666666667E+01               0
GRID*             106504               04.7100000000E+035.0000000000E+01+
*       1.6666666667E+01               0
GRID*             106505               04.7100000000E+035.0000000000E+01+
*       -1.666666667E+01               0
GRID*             106506               04.7200000000E+035.0000000000E+01+
*       1.6666666667E+01               0
GRID*             106507               04.7200000000E+035.0000000000E+01+
*       -1.666666667E+01               0
GRID*             106508               04.7300000000E+035.0000000000E+01+
*       1.6666666667E+01               0
GRID*             106509               04.7300000000E+035.0000000000E+01+
*       -1.666666667E+01               0
GRID*             106510               04.7400000000E+035.0000000000E+01+
*       1.6666666667E+01               0
GRID*             106511               04.7400000000E+035.0000000000E+01+
*       -1.666666667E+01               0
GRID*             106512               04.7500000000E+035.0000000000E+01+
*       1.6666666667E+01               0
GRID*             106513               04.7500000000E+035.0000000000E+01+
*       -1.666666667E+01               0
GRID*             106514               04.7600000000E+035.0000000000E+01+
*       1.6666666667E+01               0
GRID*             106515               04.7600000000E+035.0000000000E+01+
*       -1.666666667E+01               0
GRID*             106516               04.7700000000E+035.0000000000E+01+
*       1.6666666667E+01               0
GRID*             106517               04.7700000000E+035.0000000000E+01+
*       -1.666666667E+01               0
GRID*             106518               04.7800000000E+035.0000000000E+01+
*       1.6666666667E+01               0
GRID*             106519               04.7800000000E+035.0000000000E+01+
*       -1.666666667E+01               0
GRID*             106520               04.7900000000E+035.0000000000E+01+
*       1.6666666667E+01               0
GRID*             106521               04.7900000000E+035.0000000000E+01+
*       -1.666666667E+01               0
GRID*             106522               04.8000000000E+035.0000000000E+01+
*       1.6666666667E+01               0
GRID*             106523               04.8000000000E+035.0000000000E+01+
*       -1.666666667E+01               0
GRID*             106524               04.8100000000E+035.0000000000E+01+
*       1.6666666667E+01               0
GRID*             106525               04.8100000000E+035.0000000000E+01+
*       -1.666666667E+01               0
GRID*             106526               04.8200000000E+035.0000000000E+01+
*       1.6666666667E+01               0
GRID*             106527               04.8200000000E+035.0000000000E+01+
*       -1.666666667E+01               0
GRID*             106528               04.8300000000E+035.0000000000E+01+
*       1.6666666667E+01               0
GRID*             106529               04.8300000000E+035.0000000000E+01+
*       -1.666666667E+01               0
GRID*             106530               04.8400000000E+035.0000000000E+01+
*       1.6666666667E+01               0
GRID*             106531               04.8400000000E+035.0000000000E+01+
*       -1.666666667E+01               0
GRID*             106532               04.8500000000E+035.0000000000E+01+
*       1.6666666667E+01               0
GRID*             106533               04.8500000000E+035.0000000000E+01+
*       -1.666666667E+01               0
GRID*             106534               04.8600000000E+035.0000000000E+01+
*       1.6666666667E+01               0
GRID*             106535               04.8600000000E+035.0000000000E+01+
*       -1.666666667E+01               0
GRID*             106536               04.8700000000E+035.0000000000E+01+
*       1.6666666667E+01               0
GRID*             106537               04.8700000000E+035.0000000000E+01+
*       -1.666666667E+01               0
GRID*             106538               04.8800000000E+035.0000000000E+01+
*       1.6666666667E+01               0
GRID*             106539               04.8800000000E+035.0000000000E+01+
*       -1.666666667E+01               0
GRID*             106540               04.8900000000E+035.0000000000E+01+
*       1.6666666667E+01               0
GRID*             106541               04.8900000000E+035.0000000000E+01+
*       -1.666666667E+01               0
GRID*             106542               04.9000000000E+035.0000000000E+01+
*       1.6666666667E+01               0
GRID*             106543               04.9000000000E+035.0000000000E+01+
*       -1.666666667E+01               0
GRID*             106544               04.9100000000E+035.0000000000E+01+
*       1.6666666667E+01               0
GRID*             106545               04.9100000000E+035.0000000000E+01+
*       -1.666666667E+01               0
GRID*             106546               04.9200000000E+035.0000000000E+01+
*       1.6666666667E+01               0
GRID*             106547               04.9200000000E+035.0000000000E+01+
*       -1.666666667E+01               0
GRID*             106548               04.9300000000E+035.0000000000E+01+
*       1.6666666667E+01               0
GRID*             106549               04.9300000000E+035.0000000000E+01+
*       -1.666666667E+01               0
GRID*             106550               04.9400000000E+035.0000000000E+01+
*       1.6666666667E+01               0
GRID*             106551               04.9400000000E+035.0000000000E+01+
*       -1.666666667E+01               0
GRID*             106552               04.9500000000E+035.0000000000E+01+
*       1.6666666667E+01               0
GRID*             106553               04.9500000000E+035.0000000000E+01+
*       -1.666666667E+01               0
GRID*             106554               04.9600000000E+035.0000000000E+01+
*       1.6666666667E+01               0
GRID*             106555               04.9600000000E+035.0000000000E+01+
*       -1.666666667E+01               0
GRID*             106556               04.9700000000E+035.0000000000E+01+
*       1.6666666667E+01               0
GRID*             106557               04.9700000000E+035.0000000000E+01+
*       -1.666666667E+01               0
GRID*             106558               04.9800000000E+035.0000000000E+01+
*       1.6666666667E+01               0
GRID*             106559               04.9800000000E+035.0000000000E+01+
*       -1.666666667E+01               0
GRID*             106560               04.9900000000E+035.0000000000E+01+
*       1.6666666667E+01               0
GRID*             106561               04.9900000000E+035.0000000000E+01+
*       -1.666666667E+01               0
GRID*             106562               05.0000000000E+035.0000000000E+01+
*       1.6666666667E+01               0
GRID*             106563               05.0000000000E+035.0000000000E+01+
*       -1.666666667E+01               0
GRID*             106564               05.0100000000E+035.0000000000E+01+
*       1.6666666667E+01               0
GRID*             106565               05.0100000000E+035.0000000000E+01+
*       -1.666666667E+01               0
GRID*             106566               05.0200000000E+035.0000000000E+01+
*       1.6666666667E+01               0
GRID*             106567               05.0200000000E+035.0000000000E+01+
*       -1.666666667E+01               0
GRID*             106568               05.0300000000E+035.0000000000E+01+
*       1.6666666667E+01               0
GRID*             106569               05.0300000000E+035.0000000000E+01+
*       -1.666666667E+01               0
GRID*             106570               05.0400000000E+035.0000000000E+01+
*       1.6666666667E+01               0
GRID*             106571               05.0400000000E+035.0000000000E+01+
*       -1.666666667E+01               0
GRID*             106572               05.0500000000E+035.0000000000E+01+
*       1.6666666667E+01               0
GRID*             106573               05.0500000000E+035.0000000000E+01+
*       -1.666666667E+01               0
GRID*             106574               05.0600000000E+035.0000000000E+01+
*       1.6666666667E+01               0
GRID*             106575               05.0600000000E+035.0000000000E+01+
*       -1.666666667E+01               0
GRID*             106576               05.0700000000E+035.0000000000E+01+
*       1.6666666667E+01               0
GRID*             106577               05.0700000000E+035.0000000000E+01+
*       -1.666666667E+01               0
GRID*             106578               05.0800000000E+035.0000000000E+01+
*       1.6666666667E+01               0
GRID*             106579               05.0800000000E+035.0000000000E+01+
*       -1.666666667E+01               0
GRID*             106580               05.0900000000E+035.0000000000E+01+
*       1.6666666667E+01               0
GRID*             106581               05.0900000000E+035.0000000000E+01+
*       -1.666666667E+01               0
GRID*             106582               05.1000000000E+035.0000000000E+01+
*       1.6666666667E+01               0
GRID*             106583               05.1000000000E+035.0000000000E+01+
*       -1.666666667E+01               0
GRID*             106584               05.1100000000E+035.0000000000E+01+
*       1.6666666667E+01               0
GRID*             106585               05.1100000000E+035.0000000000E+01+
*       -1.666666667E+01               0
GRID*             106586               05.1200000000E+035.0000000000E+01+
*       1.6666666667E+01               0
GRID*             106587               05.1200000000E+035.0000000000E+01+
*       -1.666666667E+01               0
GRID*             106588               05.1300000000E+035.0000000000E+01+
*       1.6666666667E+01               0
GRID*             106589               05.1300000000E+035.0000000000E+01+
*       -1.666666667E+01               0
GRID*             106590               05.1400000000E+035.0000000000E+01+
*       1.6666666667E+01               0
GRID*             106591               05.1400000000E+035.0000000000E+01+
*       -1.666666667E+01               0
GRID*             106592               05.1500000000E+035.0000000000E+01+
*       1.6666666667E+01               0
GRID*             106593               05.1500000000E+035.0000000000E+01+
*       -1.666666667E+01               0
GRID*             106594               05.1600000000E+035.0000000000E+01+
*       1.6666666667E+01               0
GRID*             106595               05.1600000000E+035.0000000000E+01+
*       -1.666666667E+01               0
GRID*             106596               05.1700000000E+035.0000000000E+01+
*       1.6666666667E+01               0
GRID*             106597               05.1700000000E+035.0000000000E+01+
*       -1.666666667E+01               0
GRID*             106598               05.1800000000E+035.0000000000E+01+
*       1.6666666667E+01               0
GRID*             106599               05.1800000000E+035.0000000000E+01+
*       -1.666666667E+01               0
GRID*             106600               05.1900000000E+035.0000000000E+01+
*       1.6666666667E+01               0
GRID*             106601               05.1900000000E+035.0000000000E+01+
*       -1.666666667E+01               0
GRID*             106602               05.2000000000E+035.0000000000E+01+
*       1.6666666667E+01               0
GRID*             106603               05.2000000000E+035.0000000000E+01+
*       -1.666666667E+01               0
GRID*             106604               05.2100000000E+035.0000000000E+01+
*       1.6666666667E+01               0
GRID*             106605               05.2100000000E+035.0000000000E+01+
*       -1.666666667E+01               0
GRID*             106606               05.2200000000E+035.0000000000E+01+
*       1.6666666667E+01               0
GRID*             106607               05.2200000000E+035.0000000000E+01+
*       -1.666666667E+01               0
GRID*             106608               05.2300000000E+035.0000000000E+01+
*       1.6666666667E+01               0
GRID*             106609               05.2300000000E+035.0000000000E+01+
*       -1.666666667E+01               0
GRID*             106610               05.2400000000E+035.0000000000E+01+
*       1.6666666667E+01               0
GRID*             106611               05.2400000000E+035.0000000000E+01+
*       -1.666666667E+01               0
GRID*             106612               05.2500000000E+035.0000000000E+01+
*       1.6666666667E+01               0
GRID*             106613               05.2500000000E+035.0000000000E+01+
*       -1.666666667E+01               0
GRID*             106614               05.2600000000E+035.0000000000E+01+
*       1.6666666667E+01               0
GRID*             106615               05.2600000000E+035.0000000000E+01+
*       -1.666666667E+01               0
GRID*             106616               05.2700000000E+035.0000000000E+01+
*       1.6666666667E+01               0
GRID*             106617               05.2700000000E+035.0000000000E+01+
*       -1.666666667E+01               0
GRID*             106618               05.2800000000E+035.0000000000E+01+
*       1.6666666667E+01               0
GRID*             106619               05.2800000000E+035.0000000000E+01+
*       -1.666666667E+01               0
GRID*             106620               05.2900000000E+035.0000000000E+01+
*       1.6666666667E+01               0
GRID*             106621               05.2900000000E+035.0000000000E+01+
*       -1.666666667E+01               0
GRID*             106622               05.3000000000E+035.0000000000E+01+
*       1.6666666667E+01               0
GRID*             106623               05.3000000000E+035.0000000000E+01+
*       -1.666666667E+01               0
GRID*             106624               05.3100000000E+035.0000000000E+01+
*       1.6666666667E+01               0
GRID*             106625               05.3100000000E+035.0000000000E+01+
*       -1.666666667E+01               0
GRID*             106626               05.3200000000E+035.0000000000E+01+
*       1.6666666667E+01               0
GRID*             106627               05.3200000000E+035.0000000000E+01+
*       -1.666666667E+01               0
GRID*             106628               05.3300000000E+035.0000000000E+01+
*       1.6666666667E+01               0
GRID*             106629               05.3300000000E+035.0000000000E+01+
*       -1.666666667E+01               0
GRID*             106630               05.3400000000E+035.0000000000E+01+
*       1.6666666667E+01               0
GRID*             106631               05.3400000000E+035.0000000000E+01+
*       -1.666666667E+01               0
GRID*             106632               05.3500000000E+035.0000000000E+01+
*       1.6666666667E+01               0
GRID*             106633               05.3500000000E+035.0000000000E+01+
*       -1.666666667E+01               0
GRID*             106634               05.3600000000E+035.0000000000E+01+
*       1.6666666667E+01               0
GRID*             106635               05.3600000000E+035.0000000000E+01+
*       -1.666666667E+01               0
GRID*             106636               05.3700000000E+035.0000000000E+01+
*       1.6666666667E+01               0
GRID*             106637               05.3700000000E+035.0000000000E+01+
*       -1.666666667E+01               0
GRID*             106638               05.3800000000E+035.0000000000E+01+
*       1.6666666667E+01               0
GRID*             106639               05.3800000000E+035.0000000000E+01+
*       -1.666666667E+01               0
GRID*             106640               05.3900000000E+035.0000000000E+01+
*       1.6666666667E+01               0
GRID*             106641               05.3900000000E+035.0000000000E+01+
*       -1.666666667E+01               0
GRID*             106642               05.4000000000E+035.0000000000E+01+
*       1.6666666667E+01               0
GRID*             106643               05.4000000000E+035.0000000000E+01+
*       -1.666666667E+01               0
GRID*             106644               05.4100000000E+035.0000000000E+01+
*       1.6666666667E+01               0
GRID*             106645               05.4100000000E+035.0000000000E+01+
*       -1.666666667E+01               0
GRID*             106646               05.4200000000E+035.0000000000E+01+
*       1.6666666667E+01               0
GRID*             106647               05.4200000000E+035.0000000000E+01+
*       -1.666666667E+01               0
GRID*             106648               05.4300000000E+035.0000000000E+01+
*       1.6666666667E+01               0
GRID*             106649               05.4300000000E+035.0000000000E+01+
*       -1.666666667E+01               0
GRID*             106650               05.4400000000E+035.0000000000E+01+
*       1.6666666667E+01               0
GRID*             106651               05.4400000000E+035.0000000000E+01+
*       -1.666666667E+01               0
GRID*             106652               05.4500000000E+035.0000000000E+01+
*       1.6666666667E+01               0
GRID*             106653               05.4500000000E+035.0000000000E+01+
*       -1.666666667E+01               0
GRID*             106654               05.4600000000E+035.0000000000E+01+
*       1.6666666667E+01               0
GRID*             106655               05.4600000000E+035.0000000000E+01+
*       -1.666666667E+01               0
GRID*             106656               05.4700000000E+035.0000000000E+01+
*       1.6666666667E+01               0
GRID*             106657               05.4700000000E+035.0000000000E+01+
*       -1.666666667E+01               0
GRID*             106658               05.4800000000E+035.0000000000E+01+
*       1.6666666667E+01               0
GRID*             106659               05.4800000000E+035.0000000000E+01+
*       -1.666666667E+01               0
GRID*             106660               05.4900000000E+035.0000000000E+01+
*       1.6666666667E+01               0
GRID*             106661               05.4900000000E+035.0000000000E+01+
*       -1.666666667E+01               0
GRID*             106662               05.5000000000E+035.0000000000E+01+
*       1.6666666667E+01               0
GRID*             106663               05.5000000000E+035.0000000000E+01+
*       -1.666666667E+01               0
GRID*             106664               05.5100000000E+035.0000000000E+01+
*       1.6666666667E+01               0
GRID*             106665               05.5100000000E+035.0000000000E+01+
*       -1.666666667E+01               0
GRID*             106666               05.5200000000E+035.0000000000E+01+
*       1.6666666667E+01               0
GRID*             106667               05.5200000000E+035.0000000000E+01+
*       -1.666666667E+01               0
GRID*             106668               05.5300000000E+035.0000000000E+01+
*       1.6666666667E+01               0
GRID*             106669               05.5300000000E+035.0000000000E+01+
*       -1.666666667E+01               0
GRID*             106670               05.5400000000E+035.0000000000E+01+
*       1.6666666667E+01               0
GRID*             106671               05.5400000000E+035.0000000000E+01+
*       -1.666666667E+01               0
GRID*             106672               05.5500000000E+035.0000000000E+01+
*       1.6666666667E+01               0
GRID*             106673               05.5500000000E+035.0000000000E+01+
*       -1.666666667E+01               0
GRID*             106674               05.5600000000E+035.0000000000E+01+
*       1.6666666667E+01               0
GRID*             106675               05.5600000000E+035.0000000000E+01+
*       -1.666666667E+01               0
GRID*             106676               05.5700000000E+035.0000000000E+01+
*       1.6666666667E+01               0
GRID*             106677               05.5700000000E+035.0000000000E+01+
*       -1.666666667E+01               0
GRID*             106678               05.5800000000E+035.0000000000E+01+
*       1.6666666667E+01               0
GRID*             106679               05.5800000000E+035.0000000000E+01+
*       -1.666666667E+01               0
GRID*             106680               05.5900000000E+035.0000000000E+01+
*       1.6666666667E+01               0
GRID*             106681               05.5900000000E+035.0000000000E+01+
*       -1.666666667E+01               0
GRID*             106682               05.6000000000E+035.0000000000E+01+
*       1.6666666667E+01               0
GRID*             106683               05.6000000000E+035.0000000000E+01+
*       -1.666666667E+01               0
GRID*             106684               05.6100000000E+035.0000000000E+01+
*       1.6666666667E+01               0
GRID*             106685               05.6100000000E+035.0000000000E+01+
*       -1.666666667E+01               0
GRID*             106686               05.6200000000E+035.0000000000E+01+
*       1.6666666667E+01               0
GRID*             106687               05.6200000000E+035.0000000000E+01+
*       -1.666666667E+01               0
GRID*             106688               05.6300000000E+035.0000000000E+01+
*       1.6666666667E+01               0
GRID*             106689               05.6300000000E+035.0000000000E+01+
*       -1.666666667E+01               0
GRID*             106690               05.6400000000E+035.0000000000E+01+
*       1.6666666667E+01               0
GRID*             106691               05.6400000000E+035.0000000000E+01+
*       -1.666666667E+01               0
GRID*             106692               05.6500000000E+035.0000000000E+01+
*       1.6666666667E+01               0
GRID*             106693               05.6500000000E+035.0000000000E+01+
*       -1.666666667E+01               0
GRID*             106694               05.6600000000E+035.0000000000E+01+
*       1.6666666667E+01               0
GRID*             106695               05.6600000000E+035.0000000000E+01+
*       -1.666666667E+01               0
GRID*             106696               05.6700000000E+035.0000000000E+01+
*       1.6666666667E+01               0
GRID*             106697               05.6700000000E+035.0000000000E+01+
*       -1.666666667E+01               0
GRID*             106698               05.6800000000E+035.0000000000E+01+
*       1.6666666667E+01               0
GRID*             106699               05.6800000000E+035.0000000000E+01+
*       -1.666666667E+01               0
GRID*             106700               05.6900000000E+035.0000000000E+01+
*       1.6666666667E+01               0
GRID*             106701               05.6900000000E+035.0000000000E+01+
*       -1.666666667E+01               0
GRID*             106702               05.7000000000E+035.0000000000E+01+
*       1.6666666667E+01               0
GRID*             106703               05.7000000000E+035.0000000000E+01+
*       -1.666666667E+01               0
GRID*             106704               05.7100000000E+035.0000000000E+01+
*       1.6666666667E+01               0
GRID*             106705               05.7100000000E+035.0000000000E+01+
*       -1.666666667E+01               0
GRID*             106706               05.7200000000E+035.0000000000E+01+
*       1.6666666667E+01               0
GRID*             106707               05.7200000000E+035.0000000000E+01+
*       -1.666666667E+01               0
GRID*             106708               05.7300000000E+035.0000000000E+01+
*       1.6666666667E+01               0
GRID*             106709               05.7300000000E+035.0000000000E+01+
*       -1.666666667E+01               0
GRID*             106710               05.7400000000E+035.0000000000E+01+
*       1.6666666667E+01               0
GRID*             106711               05.7400000000E+035.0000000000E+01+
*       -1.666666667E+01               0
GRID*             106712               05.7500000000E+035.0000000000E+01+
*       1.6666666667E+01               0
GRID*             106713               05.7500000000E+035.0000000000E+01+
*       -1.666666667E+01               0
GRID*             106714               05.7600000000E+035.0000000000E+01+
*       1.6666666667E+01               0
GRID*             106715               05.7600000000E+035.0000000000E+01+
*       -1.666666667E+01               0
GRID*             106716               05.7700000000E+035.0000000000E+01+
*       1.6666666667E+01               0
GRID*             106717               05.7700000000E+035.0000000000E+01+
*       -1.666666667E+01               0
GRID*             106718               05.7800000000E+035.0000000000E+01+
*       1.6666666667E+01               0
GRID*             106719               05.7800000000E+035.0000000000E+01+
*       -1.666666667E+01               0
GRID*             106720               05.7900000000E+035.0000000000E+01+
*       1.6666666667E+01               0
GRID*             106721               05.7900000000E+035.0000000000E+01+
*       -1.666666667E+01               0
GRID*             106722               05.8000000000E+035.0000000000E+01+
*       1.6666666667E+01               0
GRID*             106723               05.8000000000E+035.0000000000E+01+
*       -1.666666667E+01               0
GRID*             106724               05.8100000000E+035.0000000000E+01+
*       1.6666666667E+01               0
GRID*             106725               05.8100000000E+035.0000000000E+01+
*       -1.666666667E+01               0
GRID*             106726               05.8200000000E+035.0000000000E+01+
*       1.6666666667E+01               0
GRID*             106727               05.8200000000E+035.0000000000E+01+
*       -1.666666667E+01               0
GRID*             106728               05.8300000000E+035.0000000000E+01+
*       1.6666666667E+01               0
GRID*             106729               05.8300000000E+035.0000000000E+01+
*       -1.666666667E+01               0
GRID*             106730               05.8400000000E+035.0000000000E+01+
*       1.6666666667E+01               0
GRID*             106731               05.8400000000E+035.0000000000E+01+
*       -1.666666667E+01               0
GRID*             106732               05.8500000000E+035.0000000000E+01+
*       1.6666666667E+01               0
GRID*             106733               05.8500000000E+035.0000000000E+01+
*       -1.666666667E+01               0
GRID*             106734               05.8600000000E+035.0000000000E+01+
*       1.6666666667E+01               0
GRID*             106735               05.8600000000E+035.0000000000E+01+
*       -1.666666667E+01               0
GRID*             106736               05.8700000000E+035.0000000000E+01+
*       1.6666666667E+01               0
GRID*             106737               05.8700000000E+035.0000000000E+01+
*       -1.666666667E+01               0
GRID*             106738               05.8800000000E+035.0000000000E+01+
*       1.6666666667E+01               0
GRID*             106739               05.8800000000E+035.0000000000E+01+
*       -1.666666667E+01               0
GRID*             106740               05.8900000000E+035.0000000000E+01+
*       1.6666666667E+01               0
GRID*             106741               05.8900000000E+035.0000000000E+01+
*       -1.666666667E+01               0
GRID*             106742               05.9000000000E+035.0000000000E+01+
*       1.6666666667E+01               0
GRID*             106743               05.9000000000E+035.0000000000E+01+
*       -1.666666667E+01               0
GRID*             106744               05.9100000000E+035.0000000000E+01+
*       1.6666666667E+01               0
GRID*             106745               05.9100000000E+035.0000000000E+01+
*       -1.666666667E+01               0
GRID*             106746               05.9200000000E+035.0000000000E+01+
*       1.6666666667E+01               0
GRID*             106747               05.9200000000E+035.0000000000E+01+
*       -1.666666667E+01               0
GRID*             106748               05.9300000000E+035.0000000000E+01+
*       1.6666666667E+01               0
GRID*             106749               05.9300000000E+035.0000000000E+01+
*       -1.666666667E+01               0
GRID*             106750               05.9400000000E+035.0000000000E+01+
*       1.6666666667E+01               0
GRID*             106751               05.9400000000E+035.0000000000E+01+
*       -1.666666667E+01               0
GRID*             106752               05.9500000000E+035.0000000000E+01+
*       1.6666666667E+01               0
GRID*             106753               05.9500000000E+035.0000000000E+01+
*       -1.666666667E+01               0
GRID*             106754               05.9600000000E+035.0000000000E+01+
*       1.6666666667E+01               0
GRID*             106755               05.9600000000E+035.0000000000E+01+
*       -1.666666667E+01               0
GRID*             106756               05.9700000000E+035.0000000000E+01+
*       1.6666666667E+01               0
GRID*             106757               05.9700000000E+035.0000000000E+01+
*       -1.666666667E+01               0
GRID*             106758               05.9800000000E+035.0000000000E+01+
*       1.6666666667E+01               0
GRID*             106759               05.9800000000E+035.0000000000E+01+
*       -1.666666667E+01               0
GRID*             106760               05.9900000000E+035.0000000000E+01+
*       1.6666666667E+01               0
GRID*             106761               05.9900000000E+035.0000000000E+01+
*       -1.666666667E+01               0
GRID*             106762               06.0000000000E+035.0000000000E+01+
*       1.6666666667E+01               0
GRID*             106763               06.0000000000E+035.0000000000E+01+
*       -1.666666667E+01               0
GRID*             106764               06.0100000000E+035.0000000000E+01+
*       1.6666666667E+01               0
GRID*             106765               06.0100000000E+035.0000000000E+01+
*       -1.666666667E+01               0
GRID*             106766               06.0200000000E+035.0000000000E+01+
*       1.6666666667E+01               0
GRID*             106767               06.0200000000E+035.0000000000E+01+
*       -1.666666667E+01               0
GRID*             106768               06.0300000000E+035.0000000000E+01+
*       1.6666666667E+01               0
GRID*             106769               06.0300000000E+035.0000000000E+01+
*       -1.666666667E+01               0
GRID*             106770               06.0400000000E+035.0000000000E+01+
*       1.6666666667E+01               0
GRID*             106771               06.0400000000E+035.0000000000E+01+
*       -1.666666667E+01               0
GRID*             106772               06.0500000000E+035.0000000000E+01+
*       1.6666666667E+01               0
GRID*             106773               06.0500000000E+035.0000000000E+01+
*       -1.666666667E+01               0
GRID*             106774               06.0600000000E+035.0000000000E+01+
*       1.6666666667E+01               0
GRID*             106775               06.0600000000E+035.0000000000E+01+
*       -1.666666667E+01               0
GRID*             106776               06.0700000000E+035.0000000000E+01+
*       1.6666666667E+01               0
GRID*             106777               06.0700000000E+035.0000000000E+01+
*       -1.666666667E+01               0
GRID*             106778               06.0800000000E+035.0000000000E+01+
*       1.6666666667E+01               0
GRID*             106779               06.0800000000E+035.0000000000E+01+
*       -1.666666667E+01               0
GRID*             106780               06.0900000000E+035.0000000000E+01+
*       1.6666666667E+01               0
GRID*             106781               06.0900000000E+035.0000000000E+01+
*       -1.666666667E+01               0
GRID*             106782               06.1000000000E+035.0000000000E+01+
*       1.6666666667E+01               0
GRID*             106783               06.1000000000E+035.0000000000E+01+
*       -1.666666667E+01               0
GRID*             106784               06.1100000000E+035.0000000000E+01+
*       1.6666666667E+01               0
GRID*             106785               06.1100000000E+035.0000000000E+01+
*       -1.666666667E+01               0
GRID*             106786               06.1200000000E+035.0000000000E+01+
*       1.6666666667E+01               0
GRID*             106787               06.1200000000E+035.0000000000E+01+
*       -1.666666667E+01               0
GRID*             106788               06.1300000000E+035.0000000000E+01+
*       1.6666666667E+01               0
GRID*             106789               06.1300000000E+035.0000000000E+01+
*       -1.666666667E+01               0
GRID*             106790               06.1400000000E+035.0000000000E+01+
*       1.6666666667E+01               0
GRID*             106791               06.1400000000E+035.0000000000E+01+
*       -1.666666667E+01               0
GRID*             106792               06.1500000000E+035.0000000000E+01+
*       1.6666666667E+01               0
GRID*             106793               06.1500000000E+035.0000000000E+01+
*       -1.666666667E+01               0
GRID*             106794               06.1600000000E+035.0000000000E+01+
*       1.6666666667E+01               0
GRID*             106795               06.1600000000E+035.0000000000E+01+
*       -1.666666667E+01               0
GRID*             106796               06.1700000000E+035.0000000000E+01+
*       1.6666666667E+01               0
GRID*             106797               06.1700000000E+035.0000000000E+01+
*       -1.666666667E+01               0
GRID*             106798               06.1800000000E+035.0000000000E+01+
*       1.6666666667E+01               0
GRID*             106799               06.1800000000E+035.0000000000E+01+
*       -1.666666667E+01               0
GRID*             106800               06.1900000000E+035.0000000000E+01+
*       1.6666666667E+01               0
GRID*             106801               06.1900000000E+035.0000000000E+01+
*       -1.666666667E+01               0
GRID*             106802               06.2000000000E+035.0000000000E+01+
*       1.6666666667E+01               0
GRID*             106803               06.2000000000E+035.0000000000E+01+
*       -1.666666667E+01               0
GRID*             106804               06.2100000000E+035.0000000000E+01+
*       1.6666666667E+01               0
GRID*             106805               06.2100000000E+035.0000000000E+01+
*       -1.666666667E+01               0
GRID*             106806               06.2200000000E+035.0000000000E+01+
*       1.6666666667E+01               0
GRID*             106807               06.2200000000E+035.0000000000E+01+
*       -1.666666667E+01               0
GRID*             106808               06.2300000000E+035.0000000000E+01+
*       1.6666666667E+01               0
GRID*             106809               06.2300000000E+035.0000000000E+01+
*       -1.666666667E+01               0
GRID*             106810               06.2400000000E+035.0000000000E+01+
*       1.6666666667E+01               0
GRID*             106811               06.2400000000E+035.0000000000E+01+
*       -1.666666667E+01               0
GRID*             106812               06.2500000000E+035.0000000000E+01+
*       1.6666666667E+01               0
GRID*             106813               06.2500000000E+035.0000000000E+01+
*       -1.666666667E+01               0
GRID*             106814               06.2600000000E+035.0000000000E+01+
*       1.6666666667E+01               0
GRID*             106815               06.2600000000E+035.0000000000E+01+
*       -1.666666667E+01               0
GRID*             106816               06.2700000000E+035.0000000000E+01+
*       1.6666666667E+01               0
GRID*             106817               06.2700000000E+035.0000000000E+01+
*       -1.666666667E+01               0
GRID*             106818               06.2800000000E+035.0000000000E+01+
*       1.6666666667E+01               0
GRID*             106819               06.2800000000E+035.0000000000E+01+
*       -1.666666667E+01               0
GRID*             106820               06.2900000000E+035.0000000000E+01+
*       1.6666666667E+01               0
GRID*             106821               06.2900000000E+035.0000000000E+01+
*       -1.666666667E+01               0
GRID*             106822               06.3000000000E+035.0000000000E+01+
*       1.6666666667E+01               0
GRID*             106823               06.3000000000E+035.0000000000E+01+
*       -1.666666667E+01               0
GRID*             106824               06.3100000000E+035.0000000000E+01+
*       1.6666666667E+01               0
GRID*             106825               06.3100000000E+035.0000000000E+01+
*       -1.666666667E+01               0
GRID*             106826               06.3200000000E+035.0000000000E+01+
*       1.6666666667E+01               0
GRID*             106827               06.3200000000E+035.0000000000E+01+
*       -1.666666667E+01               0
GRID*             106828               06.3300000000E+035.0000000000E+01+
*       1.6666666667E+01               0
GRID*             106829               06.3300000000E+035.0000000000E+01+
*       -1.666666667E+01               0
GRID*             106830               06.3400000000E+035.0000000000E+01+
*       1.6666666667E+01               0
GRID*             106831               06.3400000000E+035.0000000000E+01+
*       -1.666666667E+01               0
GRID*             106832               06.3500000000E+035.0000000000E+01+
*       1.6666666667E+01               0
GRID*             106833               06.3500000000E+035.0000000000E+01+
*       -1.666666667E+01               0
GRID*             106834               06.3600000000E+035.0000000000E+01+
*       1.6666666667E+01               0
GRID*             106835               06.3600000000E+035.0000000000E+01+
*       -1.666666667E+01               0
GRID*             106836               06.3700000000E+035.0000000000E+01+
*       1.6666666667E+01               0
GRID*             106837               06.3700000000E+035.0000000000E+01+
*       -1.666666667E+01               0
GRID*             106838               06.3800000000E+035.0000000000E+01+
*       1.6666666667E+01               0
GRID*             106839               06.3800000000E+035.0000000000E+01+
*       -1.666666667E+01               0
GRID*             106840               06.3900000000E+035.0000000000E+01+
*       1.6666666667E+01               0
GRID*             106841               06.3900000000E+035.0000000000E+01+
*       -1.666666667E+01               0
GRID*             106842               06.4000000000E+035.0000000000E+01+
*       1.6666666667E+01               0
GRID*             106843               06.4000000000E+035.0000000000E+01+
*       -1.666666667E+01               0
GRID*             106844               06.4100000000E+035.0000000000E+01+
*       1.6666666667E+01               0
GRID*             106845               06.4100000000E+035.0000000000E+01+
*       -1.666666667E+01               0
GRID*             106846               06.4200000000E+035.0000000000E+01+
*       1.6666666667E+01               0
GRID*             106847               06.4200000000E+035.0000000000E+01+
*       -1.666666667E+01               0
GRID*             106848               06.4300000000E+035.0000000000E+01+
*       1.6666666667E+01               0
GRID*             106849               06.4300000000E+035.0000000000E+01+
*       -1.666666667E+01               0
GRID*             106850               06.4400000000E+035.0000000000E+01+
*       1.6666666667E+01               0
GRID*             106851               06.4400000000E+035.0000000000E+01+
*       -1.666666667E+01               0
GRID*             106852               06.4500000000E+035.0000000000E+01+
*       1.6666666667E+01               0
GRID*             106853               06.4500000000E+035.0000000000E+01+
*       -1.666666667E+01               0
GRID*             106854               06.4600000000E+035.0000000000E+01+
*       1.6666666667E+01               0
GRID*             106855               06.4600000000E+035.0000000000E+01+
*       -1.666666667E+01               0
GRID*             106856               06.4700000000E+035.0000000000E+01+
*       1.6666666667E+01               0
GRID*             106857               06.4700000000E+035.0000000000E+01+
*       -1.666666667E+01               0
GRID*             106858               06.4800000000E+035.0000000000E+01+
*       1.6666666667E+01               0
GRID*             106859               06.4800000000E+035.0000000000E+01+
*       -1.666666667E+01               0
GRID*             106860               06.4900000000E+035.0000000000E+01+
*       1.6666666667E+01               0
GRID*             106861               06.4900000000E+035.0000000000E+01+
*       -1.666666667E+01               0
GRID*             106862               06.5000000000E+035.0000000000E+01+
*       1.6666666667E+01               0
GRID*             106863               06.5000000000E+035.0000000000E+01+
*       -1.666666667E+01               0
GRID*             106864               06.5100000000E+035.0000000000E+01+
*       1.6666666667E+01               0
GRID*             106865               06.5100000000E+035.0000000000E+01+
*       -1.666666667E+01               0
GRID*             106866               06.5200000000E+035.0000000000E+01+
*       1.6666666667E+01               0
GRID*             106867               06.5200000000E+035.0000000000E+01+
*       -1.666666667E+01               0
GRID*             106868               06.5300000000E+035.0000000000E+01+
*       1.6666666667E+01               0
GRID*             106869               06.5300000000E+035.0000000000E+01+
*       -1.666666667E+01               0
GRID*             106870               06.5400000000E+035.0000000000E+01+
*       1.6666666667E+01               0
GRID*             106871               06.5400000000E+035.0000000000E+01+
*       -1.666666667E+01               0
GRID*             106872               06.5500000000E+035.0000000000E+01+
*       1.6666666667E+01               0
GRID*             106873               06.5500000000E+035.0000000000E+01+
*       -1.666666667E+01               0
GRID*             106874               06.5600000000E+035.0000000000E+01+
*       1.6666666667E+01               0
GRID*             106875               06.5600000000E+035.0000000000E+01+
*       -1.666666667E+01               0
GRID*             106876               06.5700000000E+035.0000000000E+01+
*       1.6666666667E+01               0
GRID*             106877               06.5700000000E+035.0000000000E+01+
*       -1.666666667E+01               0
GRID*             106878               06.5800000000E+035.0000000000E+01+
*       1.6666666667E+01               0
GRID*             106879               06.5800000000E+035.0000000000E+01+
*       -1.666666667E+01               0
GRID*             106880               06.5900000000E+035.0000000000E+01+
*       1.6666666667E+01               0
GRID*             106881               06.5900000000E+035.0000000000E+01+
*       -1.666666667E+01               0
GRID*             106882               06.6000000000E+035.0000000000E+01+
*       1.6666666667E+01               0
GRID*             106883               06.6000000000E+035.0000000000E+01+
*       -1.666666667E+01               0
GRID*             106884               06.6100000000E+035.0000000000E+01+
*       1.6666666667E+01               0
GRID*             106885               06.6100000000E+035.0000000000E+01+
*       -1.666666667E+01               0
GRID*             106886               06.6200000000E+035.0000000000E+01+
*       1.6666666667E+01               0
GRID*             106887               06.6200000000E+035.0000000000E+01+
*       -1.666666667E+01               0
GRID*             106888               06.6300000000E+035.0000000000E+01+
*       1.6666666667E+01               0
GRID*             106889               06.6300000000E+035.0000000000E+01+
*       -1.666666667E+01               0
GRID*             106890               06.6400000000E+035.0000000000E+01+
*       1.6666666667E+01               0
GRID*             106891               06.6400000000E+035.0000000000E+01+
*       -1.666666667E+01               0
GRID*             106892               06.6500000000E+035.0000000000E+01+
*       1.6666666667E+01               0
GRID*             106893               06.6500000000E+035.0000000000E+01+
*       -1.666666667E+01               0
GRID*             106894               06.6600000000E+035.0000000000E+01+
*       1.6666666667E+01               0
GRID*             106895               06.6600000000E+035.0000000000E+01+
*       -1.666666667E+01               0
GRID*             106896               06.6700000000E+035.0000000000E+01+
*       1.6666666667E+01               0
GRID*             106897               06.6700000000E+035.0000000000E+01+
*       -1.666666667E+01               0
GRID*             106898               06.6800000000E+035.0000000000E+01+
*       1.6666666667E+01               0
GRID*             106899               06.6800000000E+035.0000000000E+01+
*       -1.666666667E+01               0
GRID*             106900               06.6900000000E+035.0000000000E+01+
*       1.6666666667E+01               0
GRID*             106901               06.6900000000E+035.0000000000E+01+
*       -1.666666667E+01               0
GRID*             106902               06.7000000000E+035.0000000000E+01+
*       1.6666666667E+01               0
GRID*             106903               06.7000000000E+035.0000000000E+01+
*       -1.666666667E+01               0
GRID*             106904               06.7100000000E+035.0000000000E+01+
*       1.6666666667E+01               0
GRID*             106905               06.7100000000E+035.0000000000E+01+
*       -1.666666667E+01               0
GRID*             106906               06.7200000000E+035.0000000000E+01+
*       1.6666666667E+01               0
GRID*             106907               06.7200000000E+035.0000000000E+01+
*       -1.666666667E+01               0
GRID*             106908               06.7300000000E+035.0000000000E+01+
*       1.6666666667E+01               0
GRID*             106909               06.7300000000E+035.0000000000E+01+
*       -1.666666667E+01               0
GRID*             106910               06.7400000000E+035.0000000000E+01+
*       1.6666666667E+01               0
GRID*             106911               06.7400000000E+035.0000000000E+01+
*       -1.666666667E+01               0
GRID*             106912               06.7500000000E+035.0000000000E+01+
*       1.6666666667E+01               0
GRID*             106913               06.7500000000E+035.0000000000E+01+
*       -1.666666667E+01               0
GRID*             106914               06.7600000000E+035.0000000000E+01+
*       1.6666666667E+01               0
GRID*             106915               06.7600000000E+035.0000000000E+01+
*       -1.666666667E+01               0
GRID*             106916               06.7700000000E+035.0000000000E+01+
*       1.6666666667E+01               0
GRID*             106917               06.7700000000E+035.0000000000E+01+
*       -1.666666667E+01               0
GRID*             106918               06.7800000000E+035.0000000000E+01+
*       1.6666666667E+01               0
GRID*             106919               06.7800000000E+035.0000000000E+01+
*       -1.666666667E+01               0
GRID*             106920               06.7900000000E+035.0000000000E+01+
*       1.6666666667E+01               0
GRID*             106921               06.7900000000E+035.0000000000E+01+
*       -1.666666667E+01               0
GRID*             106922               06.8000000000E+035.0000000000E+01+
*       1.6666666667E+01               0
GRID*             106923               06.8000000000E+035.0000000000E+01+
*       -1.666666667E+01               0
GRID*             106924               06.8100000000E+035.0000000000E+01+
*       1.6666666667E+01               0
GRID*             106925               06.8100000000E+035.0000000000E+01+
*       -1.666666667E+01               0
GRID*             106926               06.8200000000E+035.0000000000E+01+
*       1.6666666667E+01               0
GRID*             106927               06.8200000000E+035.0000000000E+01+
*       -1.666666667E+01               0
GRID*             106928               06.8300000000E+035.0000000000E+01+
*       1.6666666667E+01               0
GRID*             106929               06.8300000000E+035.0000000000E+01+
*       -1.666666667E+01               0
GRID*             106930               06.8400000000E+035.0000000000E+01+
*       1.6666666667E+01               0
GRID*             106931               06.8400000000E+035.0000000000E+01+
*       -1.666666667E+01               0
GRID*             106932               06.8500000000E+035.0000000000E+01+
*       1.6666666667E+01               0
GRID*             106933               06.8500000000E+035.0000000000E+01+
*       -1.666666667E+01               0
GRID*             106934               06.8600000000E+035.0000000000E+01+
*       1.6666666667E+01               0
GRID*             106935               06.8600000000E+035.0000000000E+01+
*       -1.666666667E+01               0
GRID*             106936               06.8700000000E+035.0000000000E+01+
*       1.6666666667E+01               0
GRID*             106937               06.8700000000E+035.0000000000E+01+
*       -1.666666667E+01               0
GRID*             106938               06.8800000000E+035.0000000000E+01+
*       1.6666666667E+01               0
GRID*             106939               06.8800000000E+035.0000000000E+01+
*       -1.666666667E+01               0
GRID*             106940               06.8900000000E+035.0000000000E+01+
*       1.6666666667E+01               0
GRID*             106941               06.8900000000E+035.0000000000E+01+
*       -1.666666667E+01               0
GRID*             106942               06.9000000000E+035.0000000000E+01+
*       1.6666666667E+01               0
GRID*             106943               06.9000000000E+035.0000000000E+01+
*       -1.666666667E+01               0
GRID*             106944               06.9100000000E+035.0000000000E+01+
*       1.6666666667E+01               0
GRID*             106945               06.9100000000E+035.0000000000E+01+
*       -1.666666667E+01               0
GRID*             106946               06.9200000000E+035.0000000000E+01+
*       1.6666666667E+01               0
GRID*             106947               06.9200000000E+035.0000000000E+01+
*       -1.666666667E+01               0
GRID*             106948               06.9300000000E+035.0000000000E+01+
*       1.6666666667E+01               0
GRID*             106949               06.9300000000E+035.0000000000E+01+
*       -1.666666667E+01               0
GRID*             106950               06.9400000000E+035.0000000000E+01+
*       1.6666666667E+01               0
GRID*             106951               06.9400000000E+035.0000000000E+01+
*       -1.666666667E+01               0
GRID*             106952               06.9500000000E+035.0000000000E+01+
*       1.6666666667E+01               0
GRID*             106953               06.9500000000E+035.0000000000E+01+
*       -1.666666667E+01               0
GRID*             106954               06.9600000000E+035.0000000000E+01+
*       1.6666666667E+01               0
GRID*             106955               06.9600000000E+035.0000000000E+01+
*       -1.666666667E+01               0
GRID*             106956               06.9700000000E+035.0000000000E+01+
*       1.6666666667E+01               0
GRID*             106957               06.9700000000E+035.0000000000E+01+
*       -1.666666667E+01               0
GRID*             106958               06.9800000000E+035.0000000000E+01+
*       1.6666666667E+01               0
GRID*             106959               06.9800000000E+035.0000000000E+01+
*       -1.666666667E+01               0
GRID*             106960               06.9900000000E+035.0000000000E+01+
*       1.6666666667E+01               0
GRID*             106961               06.9900000000E+035.0000000000E+01+
*       -1.666666667E+01               0
GRID*             106962               07.0000000000E+031.6666666667E+01+
*       1.6666666667E+01               0
GRID*             106963               07.0000000000E+031.6666666667E+01+
*       -1.666666667E+01               0
GRID*             106964               07.0000000000E+03-1.666666667E+01+
*       -1.666666667E+01               0
GRID*             106965               07.0000000000E+03-1.666666667E+01+
*       1.6666666667E+01               0
GRID*             106966               04.0100000000E+031.6666666667E+01+
*       1.6666666667E+01               0
GRID*             106967               04.0100000000E+031.6666666667E+01+
*       -1.666666667E+01               0
GRID*             106968               04.0100000000E+03-1.666666667E+01+
*       -1.666666667E+01               0
GRID*             106969               04.0100000000E+03-1.666666667E+01+
*       1.6666666667E+01               0
GRID*             106970               04.0200000000E+031.6666666667E+01+
*       1.6666666667E+01               0
GRID*             106971               04.0200000000E+031.6666666667E+01+
*       -1.666666667E+01               0
GRID*             106972               04.0200000000E+03-1.666666667E+01+
*       -1.666666667E+01               0
GRID*             106973               04.0200000000E+03-1.666666667E+01+
*       1.6666666667E+01               0
GRID*             106974               04.0300000000E+031.6666666667E+01+
*       1.6666666667E+01               0
GRID*             106975               04.0300000000E+031.6666666667E+01+
*       -1.666666667E+01               0
GRID*             106976               04.0300000000E+03-1.666666667E+01+
*       -1.666666667E+01               0
GRID*             106977               04.0300000000E+03-1.666666667E+01+
*       1.6666666667E+01               0
GRID*             106978               04.0400000000E+031.6666666667E+01+
*       1.6666666667E+01               0
GRID*             106979               04.0400000000E+031.6666666667E+01+
*       -1.666666667E+01               0
GRID*             106980               04.0400000000E+03-1.666666667E+01+
*       -1.666666667E+01               0
GRID*             106981               04.0400000000E+03-1.666666667E+01+
*       1.6666666667E+01               0
GRID*             106982               04.0500000000E+031.6666666667E+01+
*       1.6666666667E+01               0
GRID*             106983               04.0500000000E+031.6666666667E+01+
*       -1.666666667E+01               0
GRID*             106984               04.0500000000E+03-1.666666667E+01+
*       -1.666666667E+01               0
GRID*             106985               04.0500000000E+03-1.666666667E+01+
*       1.6666666667E+01               0
GRID*             106986               04.0600000000E+031.6666666667E+01+
*       1.6666666667E+01               0
GRID*             106987               04.0600000000E+031.6666666667E+01+
*       -1.666666667E+01               0
GRID*             106988               04.0600000000E+03-1.666666667E+01+
*       -1.666666667E+01               0
GRID*             106989               04.0600000000E+03-1.666666667E+01+
*       1.6666666667E+01               0
GRID*             106990               04.0700000000E+031.6666666667E+01+
*       1.6666666667E+01               0
GRID*             106991               04.0700000000E+031.6666666667E+01+
*       -1.666666667E+01               0
GRID*             106992               04.0700000000E+03-1.666666667E+01+
*       -1.666666667E+01               0
GRID*             106993               04.0700000000E+03-1.666666667E+01+
*       1.6666666667E+01               0
GRID*             106994               04.0800000000E+031.6666666667E+01+
*       1.6666666667E+01               0
GRID*             106995               04.0800000000E+031.6666666667E+01+
*       -1.666666667E+01               0
GRID*             106996               04.0800000000E+03-1.666666667E+01+
*       -1.666666667E+01               0
GRID*             106997               04.0800000000E+03-1.666666667E+01+
*       1.6666666667E+01               0
GRID*             106998               04.0900000000E+031.6666666667E+01+
*       1.6666666667E+01               0
GRID*             106999               04.0900000000E+031.6666666667E+01+
*       -1.666666667E+01               0
GRID*             107000               04.0900000000E+03-1.666666667E+01+
*       -1.666666667E+01               0
GRID*             107001               04.0900000000E+03-1.666666667E+01+
*       1.6666666667E+01               0
GRID*             107002               04.1000000000E+031.6666666667E+01+
*       1.6666666667E+01               0
GRID*             107003               04.1000000000E+031.6666666667E+01+
*       -1.666666667E+01               0
GRID*             107004               04.1000000000E+03-1.666666667E+01+
*       -1.666666667E+01               0
GRID*             107005               04.1000000000E+03-1.666666667E+01+
*       1.6666666667E+01               0
GRID*             107006               04.1100000000E+031.6666666667E+01+
*       1.6666666667E+01               0
GRID*             107007               04.1100000000E+031.6666666667E+01+
*       -1.666666667E+01               0
GRID*             107008               04.1100000000E+03-1.666666667E+01+
*       -1.666666667E+01               0
GRID*             107009               04.1100000000E+03-1.666666667E+01+
*       1.6666666667E+01               0
GRID*             107010               04.1200000000E+031.6666666667E+01+
*       1.6666666667E+01               0
GRID*             107011               04.1200000000E+031.6666666667E+01+
*       -1.666666667E+01               0
GRID*             107012               04.1200000000E+03-1.666666667E+01+
*       -1.666666667E+01               0
GRID*             107013               04.1200000000E+03-1.666666667E+01+
*       1.6666666667E+01               0
GRID*             107014               04.1300000000E+031.6666666667E+01+
*       1.6666666667E+01               0
GRID*             107015               04.1300000000E+031.6666666667E+01+
*       -1.666666667E+01               0
GRID*             107016               04.1300000000E+03-1.666666667E+01+
*       -1.666666667E+01               0
GRID*             107017               04.1300000000E+03-1.666666667E+01+
*       1.6666666667E+01               0
GRID*             107018               04.1400000000E+031.6666666667E+01+
*       1.6666666667E+01               0
GRID*             107019               04.1400000000E+031.6666666667E+01+
*       -1.666666667E+01               0
GRID*             107020               04.1400000000E+03-1.666666667E+01+
*       -1.666666667E+01               0
GRID*             107021               04.1400000000E+03-1.666666667E+01+
*       1.6666666667E+01               0
GRID*             107022               04.1500000000E+031.6666666667E+01+
*       1.6666666667E+01               0
GRID*             107023               04.1500000000E+031.6666666667E+01+
*       -1.666666667E+01               0
GRID*             107024               04.1500000000E+03-1.666666667E+01+
*       -1.666666667E+01               0
GRID*             107025               04.1500000000E+03-1.666666667E+01+
*       1.6666666667E+01               0
GRID*             107026               04.1600000000E+031.6666666667E+01+
*       1.6666666667E+01               0
GRID*             107027               04.1600000000E+031.6666666667E+01+
*       -1.666666667E+01               0
GRID*             107028               04.1600000000E+03-1.666666667E+01+
*       -1.666666667E+01               0
GRID*             107029               04.1600000000E+03-1.666666667E+01+
*       1.6666666667E+01               0
GRID*             107030               04.1700000000E+031.6666666667E+01+
*       1.6666666667E+01               0
GRID*             107031               04.1700000000E+031.6666666667E+01+
*       -1.666666667E+01               0
GRID*             107032               04.1700000000E+03-1.666666667E+01+
*       -1.666666667E+01               0
GRID*             107033               04.1700000000E+03-1.666666667E+01+
*       1.6666666667E+01               0
GRID*             107034               04.1800000000E+031.6666666667E+01+
*       1.6666666667E+01               0
GRID*             107035               04.1800000000E+031.6666666667E+01+
*       -1.666666667E+01               0
GRID*             107036               04.1800000000E+03-1.666666667E+01+
*       -1.666666667E+01               0
GRID*             107037               04.1800000000E+03-1.666666667E+01+
*       1.6666666667E+01               0
GRID*             107038               04.1900000000E+031.6666666667E+01+
*       1.6666666667E+01               0
GRID*             107039               04.1900000000E+031.6666666667E+01+
*       -1.666666667E+01               0
GRID*             107040               04.1900000000E+03-1.666666667E+01+
*       -1.666666667E+01               0
GRID*             107041               04.1900000000E+03-1.666666667E+01+
*       1.6666666667E+01               0
GRID*             107042               04.2000000000E+031.6666666667E+01+
*       1.6666666667E+01               0
GRID*             107043               04.2000000000E+031.6666666667E+01+
*       -1.666666667E+01               0
GRID*             107044               04.2000000000E+03-1.666666667E+01+
*       -1.666666667E+01               0
GRID*             107045               04.2000000000E+03-1.666666667E+01+
*       1.6666666667E+01               0
GRID*             107046               04.2100000000E+031.6666666667E+01+
*       1.6666666667E+01               0
GRID*             107047               04.2100000000E+031.6666666667E+01+
*       -1.666666667E+01               0
GRID*             107048               04.2100000000E+03-1.666666667E+01+
*       -1.666666667E+01               0
GRID*             107049               04.2100000000E+03-1.666666667E+01+
*       1.6666666667E+01               0
GRID*             107050               04.2200000000E+031.6666666667E+01+
*       1.6666666667E+01               0
GRID*             107051               04.2200000000E+031.6666666667E+01+
*       -1.666666667E+01               0
GRID*             107052               04.2200000000E+03-1.666666667E+01+
*       -1.666666667E+01               0
GRID*             107053               04.2200000000E+03-1.666666667E+01+
*       1.6666666667E+01               0
GRID*             107054               04.2300000000E+031.6666666667E+01+
*       1.6666666667E+01               0
GRID*             107055               04.2300000000E+031.6666666667E+01+
*       -1.666666667E+01               0
GRID*             107056               04.2300000000E+03-1.666666667E+01+
*       -1.666666667E+01               0
GRID*             107057               04.2300000000E+03-1.666666667E+01+
*       1.6666666667E+01               0
GRID*             107058               04.2400000000E+031.6666666667E+01+
*       1.6666666667E+01               0
GRID*             107059               04.2400000000E+031.6666666667E+01+
*       -1.666666667E+01               0
GRID*             107060               04.2400000000E+03-1.666666667E+01+
*       -1.666666667E+01               0
GRID*             107061               04.2400000000E+03-1.666666667E+01+
*       1.6666666667E+01               0
GRID*             107062               04.2500000000E+031.6666666667E+01+
*       1.6666666667E+01               0
GRID*             107063               04.2500000000E+031.6666666667E+01+
*       -1.666666667E+01               0
GRID*             107064               04.2500000000E+03-1.666666667E+01+
*       -1.666666667E+01               0
GRID*             107065               04.2500000000E+03-1.666666667E+01+
*       1.6666666667E+01               0
GRID*             107066               04.2600000000E+031.6666666667E+01+
*       1.6666666667E+01               0
GRID*             107067               04.2600000000E+031.6666666667E+01+
*       -1.666666667E+01               0
GRID*             107068               04.2600000000E+03-1.666666667E+01+
*       -1.666666667E+01               0
GRID*             107069               04.2600000000E+03-1.666666667E+01+
*       1.6666666667E+01               0
GRID*             107070               04.2700000000E+031.6666666667E+01+
*       1.6666666667E+01               0
GRID*             107071               04.2700000000E+031.6666666667E+01+
*       -1.666666667E+01               0
GRID*             107072               04.2700000000E+03-1.666666667E+01+
*       -1.666666667E+01               0
GRID*             107073               04.2700000000E+03-1.666666667E+01+
*       1.6666666667E+01               0
GRID*             107074               04.2800000000E+031.6666666667E+01+
*       1.6666666667E+01               0
GRID*             107075               04.2800000000E+031.6666666667E+01+
*       -1.666666667E+01               0
GRID*             107076               04.2800000000E+03-1.666666667E+01+
*       -1.666666667E+01               0
GRID*             107077               04.2800000000E+03-1.666666667E+01+
*       1.6666666667E+01               0
GRID*             107078               04.2900000000E+031.6666666667E+01+
*       1.6666666667E+01               0
GRID*             107079               04.2900000000E+031.6666666667E+01+
*       -1.666666667E+01               0
GRID*             107080               04.2900000000E+03-1.666666667E+01+
*       -1.666666667E+01               0
GRID*             107081               04.2900000000E+03-1.666666667E+01+
*       1.6666666667E+01               0
GRID*             107082               04.3000000000E+031.6666666667E+01+
*       1.6666666667E+01               0
GRID*             107083               04.3000000000E+031.6666666667E+01+
*       -1.666666667E+01               0
GRID*             107084               04.3000000000E+03-1.666666667E+01+
*       -1.666666667E+01               0
GRID*             107085               04.3000000000E+03-1.666666667E+01+
*       1.6666666667E+01               0
GRID*             107086               04.3100000000E+031.6666666667E+01+
*       1.6666666667E+01               0
GRID*             107087               04.3100000000E+031.6666666667E+01+
*       -1.666666667E+01               0
GRID*             107088               04.3100000000E+03-1.666666667E+01+
*       -1.666666667E+01               0
GRID*             107089               04.3100000000E+03-1.666666667E+01+
*       1.6666666667E+01               0
GRID*             107090               04.3200000000E+031.6666666667E+01+
*       1.6666666667E+01               0
GRID*             107091               04.3200000000E+031.6666666667E+01+
*       -1.666666667E+01               0
GRID*             107092               04.3200000000E+03-1.666666667E+01+
*       -1.666666667E+01               0
GRID*             107093               04.3200000000E+03-1.666666667E+01+
*       1.6666666667E+01               0
GRID*             107094               04.3300000000E+031.6666666667E+01+
*       1.6666666667E+01               0
GRID*             107095               04.3300000000E+031.6666666667E+01+
*       -1.666666667E+01               0
GRID*             107096               04.3300000000E+03-1.666666667E+01+
*       -1.666666667E+01               0
GRID*             107097               04.3300000000E+03-1.666666667E+01+
*       1.6666666667E+01               0
GRID*             107098               04.3400000000E+031.6666666667E+01+
*       1.6666666667E+01               0
GRID*             107099               04.3400000000E+031.6666666667E+01+
*       -1.666666667E+01               0
GRID*             107100               04.3400000000E+03-1.666666667E+01+
*       -1.666666667E+01               0
GRID*             107101               04.3400000000E+03-1.666666667E+01+
*       1.6666666667E+01               0
GRID*             107102               04.3500000000E+031.6666666667E+01+
*       1.6666666667E+01               0
GRID*             107103               04.3500000000E+031.6666666667E+01+
*       -1.666666667E+01               0
GRID*             107104               04.3500000000E+03-1.666666667E+01+
*       -1.666666667E+01               0
GRID*             107105               04.3500000000E+03-1.666666667E+01+
*       1.6666666667E+01               0
GRID*             107106               04.3600000000E+031.6666666667E+01+
*       1.6666666667E+01               0
GRID*             107107               04.3600000000E+031.6666666667E+01+
*       -1.666666667E+01               0
GRID*             107108               04.3600000000E+03-1.666666667E+01+
*       -1.666666667E+01               0
GRID*             107109               04.3600000000E+03-1.666666667E+01+
*       1.6666666667E+01               0
GRID*             107110               04.3700000000E+031.6666666667E+01+
*       1.6666666667E+01               0
GRID*             107111               04.3700000000E+031.6666666667E+01+
*       -1.666666667E+01               0
GRID*             107112               04.3700000000E+03-1.666666667E+01+
*       -1.666666667E+01               0
GRID*             107113               04.3700000000E+03-1.666666667E+01+
*       1.6666666667E+01               0
GRID*             107114               04.3800000000E+031.6666666667E+01+
*       1.6666666667E+01               0
GRID*             107115               04.3800000000E+031.6666666667E+01+
*       -1.666666667E+01               0
GRID*             107116               04.3800000000E+03-1.666666667E+01+
*       -1.666666667E+01               0
GRID*             107117               04.3800000000E+03-1.666666667E+01+
*       1.6666666667E+01               0
GRID*             107118               04.3900000000E+031.6666666667E+01+
*       1.6666666667E+01               0
GRID*             107119               04.3900000000E+031.6666666667E+01+
*       -1.666666667E+01               0
GRID*             107120               04.3900000000E+03-1.666666667E+01+
*       -1.666666667E+01               0
GRID*             107121               04.3900000000E+03-1.666666667E+01+
*       1.6666666667E+01               0
GRID*             107122               04.4000000000E+031.6666666667E+01+
*       1.6666666667E+01               0
GRID*             107123               04.4000000000E+031.6666666667E+01+
*       -1.666666667E+01               0
GRID*             107124               04.4000000000E+03-1.666666667E+01+
*       -1.666666667E+01               0
GRID*             107125               04.4000000000E+03-1.666666667E+01+
*       1.6666666667E+01               0
GRID*             107126               04.4100000000E+031.6666666667E+01+
*       1.6666666667E+01               0
GRID*             107127               04.4100000000E+031.6666666667E+01+
*       -1.666666667E+01               0
GRID*             107128               04.4100000000E+03-1.666666667E+01+
*       -1.666666667E+01               0
GRID*             107129               04.4100000000E+03-1.666666667E+01+
*       1.6666666667E+01               0
GRID*             107130               04.4200000000E+031.6666666667E+01+
*       1.6666666667E+01               0
GRID*             107131               04.4200000000E+031.6666666667E+01+
*       -1.666666667E+01               0
GRID*             107132               04.4200000000E+03-1.666666667E+01+
*       -1.666666667E+01               0
GRID*             107133               04.4200000000E+03-1.666666667E+01+
*       1.6666666667E+01               0
GRID*             107134               04.4300000000E+031.6666666667E+01+
*       1.6666666667E+01               0
GRID*             107135               04.4300000000E+031.6666666667E+01+
*       -1.666666667E+01               0
GRID*             107136               04.4300000000E+03-1.666666667E+01+
*       -1.666666667E+01               0
GRID*             107137               04.4300000000E+03-1.666666667E+01+
*       1.6666666667E+01               0
GRID*             107138               04.4400000000E+031.6666666667E+01+
*       1.6666666667E+01               0
GRID*             107139               04.4400000000E+031.6666666667E+01+
*       -1.666666667E+01               0
GRID*             107140               04.4400000000E+03-1.666666667E+01+
*       -1.666666667E+01               0
GRID*             107141               04.4400000000E+03-1.666666667E+01+
*       1.6666666667E+01               0
GRID*             107142               04.4500000000E+031.6666666667E+01+
*       1.6666666667E+01               0
GRID*             107143               04.4500000000E+031.6666666667E+01+
*       -1.666666667E+01               0
GRID*             107144               04.4500000000E+03-1.666666667E+01+
*       -1.666666667E+01               0
GRID*             107145               04.4500000000E+03-1.666666667E+01+
*       1.6666666667E+01               0
GRID*             107146               04.4600000000E+031.6666666667E+01+
*       1.6666666667E+01               0
GRID*             107147               04.4600000000E+031.6666666667E+01+
*       -1.666666667E+01               0
GRID*             107148               04.4600000000E+03-1.666666667E+01+
*       -1.666666667E+01               0
GRID*             107149               04.4600000000E+03-1.666666667E+01+
*       1.6666666667E+01               0
GRID*             107150               04.4700000000E+031.6666666667E+01+
*       1.6666666667E+01               0
GRID*             107151               04.4700000000E+031.6666666667E+01+
*       -1.666666667E+01               0
GRID*             107152               04.4700000000E+03-1.666666667E+01+
*       -1.666666667E+01               0
GRID*             107153               04.4700000000E+03-1.666666667E+01+
*       1.6666666667E+01               0
GRID*             107154               04.4800000000E+031.6666666667E+01+
*       1.6666666667E+01               0
GRID*             107155               04.4800000000E+031.6666666667E+01+
*       -1.666666667E+01               0
GRID*             107156               04.4800000000E+03-1.666666667E+01+
*       -1.666666667E+01               0
GRID*             107157               04.4800000000E+03-1.666666667E+01+
*       1.6666666667E+01               0
GRID*             107158               04.4900000000E+031.6666666667E+01+
*       1.6666666667E+01               0
GRID*             107159               04.4900000000E+031.6666666667E+01+
*       -1.666666667E+01               0
GRID*             107160               04.4900000000E+03-1.666666667E+01+
*       -1.666666667E+01               0
GRID*             107161               04.4900000000E+03-1.666666667E+01+
*       1.6666666667E+01               0
GRID*             107162               04.5000000000E+031.6666666667E+01+
*       1.6666666667E+01               0
GRID*             107163               04.5000000000E+031.6666666667E+01+
*       -1.666666667E+01               0
GRID*             107164               04.5000000000E+03-1.666666667E+01+
*       -1.666666667E+01               0
GRID*             107165               04.5000000000E+03-1.666666667E+01+
*       1.6666666667E+01               0
GRID*             107166               04.5100000000E+031.6666666667E+01+
*       1.6666666667E+01               0
GRID*             107167               04.5100000000E+031.6666666667E+01+
*       -1.666666667E+01               0
GRID*             107168               04.5100000000E+03-1.666666667E+01+
*       -1.666666667E+01               0
GRID*             107169               04.5100000000E+03-1.666666667E+01+
*       1.6666666667E+01               0
GRID*             107170               04.5200000000E+031.6666666667E+01+
*       1.6666666667E+01               0
GRID*             107171               04.5200000000E+031.6666666667E+01+
*       -1.666666667E+01               0
GRID*             107172               04.5200000000E+03-1.666666667E+01+
*       -1.666666667E+01               0
GRID*             107173               04.5200000000E+03-1.666666667E+01+
*       1.6666666667E+01               0
GRID*             107174               04.5300000000E+031.6666666667E+01+
*       1.6666666667E+01               0
GRID*             107175               04.5300000000E+031.6666666667E+01+
*       -1.666666667E+01               0
GRID*             107176               04.5300000000E+03-1.666666667E+01+
*       -1.666666667E+01               0
GRID*             107177               04.5300000000E+03-1.666666667E+01+
*       1.6666666667E+01               0
GRID*             107178               04.5400000000E+031.6666666667E+01+
*       1.6666666667E+01               0
GRID*             107179               04.5400000000E+031.6666666667E+01+
*       -1.666666667E+01               0
GRID*             107180               04.5400000000E+03-1.666666667E+01+
*       -1.666666667E+01               0
GRID*             107181               04.5400000000E+03-1.666666667E+01+
*       1.6666666667E+01               0
GRID*             107182               04.5500000000E+031.6666666667E+01+
*       1.6666666667E+01               0
GRID*             107183               04.5500000000E+031.6666666667E+01+
*       -1.666666667E+01               0
GRID*             107184               04.5500000000E+03-1.666666667E+01+
*       -1.666666667E+01               0
GRID*             107185               04.5500000000E+03-1.666666667E+01+
*       1.6666666667E+01               0
GRID*             107186               04.5600000000E+031.6666666667E+01+
*       1.6666666667E+01               0
GRID*             107187               04.5600000000E+031.6666666667E+01+
*       -1.666666667E+01               0
GRID*             107188               04.5600000000E+03-1.666666667E+01+
*       -1.666666667E+01               0
GRID*             107189               04.5600000000E+03-1.666666667E+01+
*       1.6666666667E+01               0
GRID*             107190               04.5700000000E+031.6666666667E+01+
*       1.6666666667E+01               0
GRID*             107191               04.5700000000E+031.6666666667E+01+
*       -1.666666667E+01               0
GRID*             107192               04.5700000000E+03-1.666666667E+01+
*       -1.666666667E+01               0
GRID*             107193               04.5700000000E+03-1.666666667E+01+
*       1.6666666667E+01               0
GRID*             107194               04.5800000000E+031.6666666667E+01+
*       1.6666666667E+01               0
GRID*             107195               04.5800000000E+031.6666666667E+01+
*       -1.666666667E+01               0
GRID*             107196               04.5800000000E+03-1.666666667E+01+
*       -1.666666667E+01               0
GRID*             107197               04.5800000000E+03-1.666666667E+01+
*       1.6666666667E+01               0
GRID*             107198               04.5900000000E+031.6666666667E+01+
*       1.6666666667E+01               0
GRID*             107199               04.5900000000E+031.6666666667E+01+
*       -1.666666667E+01               0
GRID*             107200               04.5900000000E+03-1.666666667E+01+
*       -1.666666667E+01               0
GRID*             107201               04.5900000000E+03-1.666666667E+01+
*       1.6666666667E+01               0
GRID*             107202               04.6000000000E+031.6666666667E+01+
*       1.6666666667E+01               0
GRID*             107203               04.6000000000E+031.6666666667E+01+
*       -1.666666667E+01               0
GRID*             107204               04.6000000000E+03-1.666666667E+01+
*       -1.666666667E+01               0
GRID*             107205               04.6000000000E+03-1.666666667E+01+
*       1.6666666667E+01               0
GRID*             107206               04.6100000000E+031.6666666667E+01+
*       1.6666666667E+01               0
GRID*             107207               04.6100000000E+031.6666666667E+01+
*       -1.666666667E+01               0
GRID*             107208               04.6100000000E+03-1.666666667E+01+
*       -1.666666667E+01               0
GRID*             107209               04.6100000000E+03-1.666666667E+01+
*       1.6666666667E+01               0
GRID*             107210               04.6200000000E+031.6666666667E+01+
*       1.6666666667E+01               0
GRID*             107211               04.6200000000E+031.6666666667E+01+
*       -1.666666667E+01               0
GRID*             107212               04.6200000000E+03-1.666666667E+01+
*       -1.666666667E+01               0
GRID*             107213               04.6200000000E+03-1.666666667E+01+
*       1.6666666667E+01               0
GRID*             107214               04.6300000000E+031.6666666667E+01+
*       1.6666666667E+01               0
GRID*             107215               04.6300000000E+031.6666666667E+01+
*       -1.666666667E+01               0
GRID*             107216               04.6300000000E+03-1.666666667E+01+
*       -1.666666667E+01               0
GRID*             107217               04.6300000000E+03-1.666666667E+01+
*       1.6666666667E+01               0
GRID*             107218               04.6400000000E+031.6666666667E+01+
*       1.6666666667E+01               0
GRID*             107219               04.6400000000E+031.6666666667E+01+
*       -1.666666667E+01               0
GRID*             107220               04.6400000000E+03-1.666666667E+01+
*       -1.666666667E+01               0
GRID*             107221               04.6400000000E+03-1.666666667E+01+
*       1.6666666667E+01               0
GRID*             107222               04.6500000000E+031.6666666667E+01+
*       1.6666666667E+01               0
GRID*             107223               04.6500000000E+031.6666666667E+01+
*       -1.666666667E+01               0
GRID*             107224               04.6500000000E+03-1.666666667E+01+
*       -1.666666667E+01               0
GRID*             107225               04.6500000000E+03-1.666666667E+01+
*       1.6666666667E+01               0
GRID*             107226               04.6600000000E+031.6666666667E+01+
*       1.6666666667E+01               0
GRID*             107227               04.6600000000E+031.6666666667E+01+
*       -1.666666667E+01               0
GRID*             107228               04.6600000000E+03-1.666666667E+01+
*       -1.666666667E+01               0
GRID*             107229               04.6600000000E+03-1.666666667E+01+
*       1.6666666667E+01               0
GRID*             107230               04.6700000000E+031.6666666667E+01+
*       1.6666666667E+01               0
GRID*             107231               04.6700000000E+031.6666666667E+01+
*       -1.666666667E+01               0
GRID*             107232               04.6700000000E+03-1.666666667E+01+
*       -1.666666667E+01               0
GRID*             107233               04.6700000000E+03-1.666666667E+01+
*       1.6666666667E+01               0
GRID*             107234               04.6800000000E+031.6666666667E+01+
*       1.6666666667E+01               0
GRID*             107235               04.6800000000E+031.6666666667E+01+
*       -1.666666667E+01               0
GRID*             107236               04.6800000000E+03-1.666666667E+01+
*       -1.666666667E+01               0
GRID*             107237               04.6800000000E+03-1.666666667E+01+
*       1.6666666667E+01               0
GRID*             107238               04.6900000000E+031.6666666667E+01+
*       1.6666666667E+01               0
GRID*             107239               04.6900000000E+031.6666666667E+01+
*       -1.666666667E+01               0
GRID*             107240               04.6900000000E+03-1.666666667E+01+
*       -1.666666667E+01               0
GRID*             107241               04.6900000000E+03-1.666666667E+01+
*       1.6666666667E+01               0
GRID*             107242               04.7000000000E+031.6666666667E+01+
*       1.6666666667E+01               0
GRID*             107243               04.7000000000E+031.6666666667E+01+
*       -1.666666667E+01               0
GRID*             107244               04.7000000000E+03-1.666666667E+01+
*       -1.666666667E+01               0
GRID*             107245               04.7000000000E+03-1.666666667E+01+
*       1.6666666667E+01               0
GRID*             107246               04.7100000000E+031.6666666667E+01+
*       1.6666666667E+01               0
GRID*             107247               04.7100000000E+031.6666666667E+01+
*       -1.666666667E+01               0
GRID*             107248               04.7100000000E+03-1.666666667E+01+
*       -1.666666667E+01               0
GRID*             107249               04.7100000000E+03-1.666666667E+01+
*       1.6666666667E+01               0
GRID*             107250               04.7200000000E+031.6666666667E+01+
*       1.6666666667E+01               0
GRID*             107251               04.7200000000E+031.6666666667E+01+
*       -1.666666667E+01               0
GRID*             107252               04.7200000000E+03-1.666666667E+01+
*       -1.666666667E+01               0
GRID*             107253               04.7200000000E+03-1.666666667E+01+
*       1.6666666667E+01               0
GRID*             107254               04.7300000000E+031.6666666667E+01+
*       1.6666666667E+01               0
GRID*             107255               04.7300000000E+031.6666666667E+01+
*       -1.666666667E+01               0
GRID*             107256               04.7300000000E+03-1.666666667E+01+
*       -1.666666667E+01               0
GRID*             107257               04.7300000000E+03-1.666666667E+01+
*       1.6666666667E+01               0
GRID*             107258               04.7400000000E+031.6666666667E+01+
*       1.6666666667E+01               0
GRID*             107259               04.7400000000E+031.6666666667E+01+
*       -1.666666667E+01               0
GRID*             107260               04.7400000000E+03-1.666666667E+01+
*       -1.666666667E+01               0
GRID*             107261               04.7400000000E+03-1.666666667E+01+
*       1.6666666667E+01               0
GRID*             107262               04.7500000000E+031.6666666667E+01+
*       1.6666666667E+01               0
GRID*             107263               04.7500000000E+031.6666666667E+01+
*       -1.666666667E+01               0
GRID*             107264               04.7500000000E+03-1.666666667E+01+
*       -1.666666667E+01               0
GRID*             107265               04.7500000000E+03-1.666666667E+01+
*       1.6666666667E+01               0
GRID*             107266               04.7600000000E+031.6666666667E+01+
*       1.6666666667E+01               0
GRID*             107267               04.7600000000E+031.6666666667E+01+
*       -1.666666667E+01               0
GRID*             107268               04.7600000000E+03-1.666666667E+01+
*       -1.666666667E+01               0
GRID*             107269               04.7600000000E+03-1.666666667E+01+
*       1.6666666667E+01               0
GRID*             107270               04.7700000000E+031.6666666667E+01+
*       1.6666666667E+01               0
GRID*             107271               04.7700000000E+031.6666666667E+01+
*       -1.666666667E+01               0
GRID*             107272               04.7700000000E+03-1.666666667E+01+
*       -1.666666667E+01               0
GRID*             107273               04.7700000000E+03-1.666666667E+01+
*       1.6666666667E+01               0
GRID*             107274               04.7800000000E+031.6666666667E+01+
*       1.6666666667E+01               0
GRID*             107275               04.7800000000E+031.6666666667E+01+
*       -1.666666667E+01               0
GRID*             107276               04.7800000000E+03-1.666666667E+01+
*       -1.666666667E+01               0
GRID*             107277               04.7800000000E+03-1.666666667E+01+
*       1.6666666667E+01               0
GRID*             107278               04.7900000000E+031.6666666667E+01+
*       1.6666666667E+01               0
GRID*             107279               04.7900000000E+031.6666666667E+01+
*       -1.666666667E+01               0
GRID*             107280               04.7900000000E+03-1.666666667E+01+
*       -1.666666667E+01               0
GRID*             107281               04.7900000000E+03-1.666666667E+01+
*       1.6666666667E+01               0
GRID*             107282               04.8000000000E+031.6666666667E+01+
*       1.6666666667E+01               0
GRID*             107283               04.8000000000E+031.6666666667E+01+
*       -1.666666667E+01               0
GRID*             107284               04.8000000000E+03-1.666666667E+01+
*       -1.666666667E+01               0
GRID*             107285               04.8000000000E+03-1.666666667E+01+
*       1.6666666667E+01               0
GRID*             107286               04.8100000000E+031.6666666667E+01+
*       1.6666666667E+01               0
GRID*             107287               04.8100000000E+031.6666666667E+01+
*       -1.666666667E+01               0
GRID*             107288               04.8100000000E+03-1.666666667E+01+
*       -1.666666667E+01               0
GRID*             107289               04.8100000000E+03-1.666666667E+01+
*       1.6666666667E+01               0
GRID*             107290               04.8200000000E+031.6666666667E+01+
*       1.6666666667E+01               0
GRID*             107291               04.8200000000E+031.6666666667E+01+
*       -1.666666667E+01               0
GRID*             107292               04.8200000000E+03-1.666666667E+01+
*       -1.666666667E+01               0
GRID*             107293               04.8200000000E+03-1.666666667E+01+
*       1.6666666667E+01               0
GRID*             107294               04.8300000000E+031.6666666667E+01+
*       1.6666666667E+01               0
GRID*             107295               04.8300000000E+031.6666666667E+01+
*       -1.666666667E+01               0
GRID*             107296               04.8300000000E+03-1.666666667E+01+
*       -1.666666667E+01               0
GRID*             107297               04.8300000000E+03-1.666666667E+01+
*       1.6666666667E+01               0
GRID*             107298               04.8400000000E+031.6666666667E+01+
*       1.6666666667E+01               0
GRID*             107299               04.8400000000E+031.6666666667E+01+
*       -1.666666667E+01               0
GRID*             107300               04.8400000000E+03-1.666666667E+01+
*       -1.666666667E+01               0
GRID*             107301               04.8400000000E+03-1.666666667E+01+
*       1.6666666667E+01               0
GRID*             107302               04.8500000000E+031.6666666667E+01+
*       1.6666666667E+01               0
GRID*             107303               04.8500000000E+031.6666666667E+01+
*       -1.666666667E+01               0
GRID*             107304               04.8500000000E+03-1.666666667E+01+
*       -1.666666667E+01               0
GRID*             107305               04.8500000000E+03-1.666666667E+01+
*       1.6666666667E+01               0
GRID*             107306               04.8600000000E+031.6666666667E+01+
*       1.6666666667E+01               0
GRID*             107307               04.8600000000E+031.6666666667E+01+
*       -1.666666667E+01               0
GRID*             107308               04.8600000000E+03-1.666666667E+01+
*       -1.666666667E+01               0
GRID*             107309               04.8600000000E+03-1.666666667E+01+
*       1.6666666667E+01               0
GRID*             107310               04.8700000000E+031.6666666667E+01+
*       1.6666666667E+01               0
GRID*             107311               04.8700000000E+031.6666666667E+01+
*       -1.666666667E+01               0
GRID*             107312               04.8700000000E+03-1.666666667E+01+
*       -1.666666667E+01               0
GRID*             107313               04.8700000000E+03-1.666666667E+01+
*       1.6666666667E+01               0
GRID*             107314               04.8800000000E+031.6666666667E+01+
*       1.6666666667E+01               0
GRID*             107315               04.8800000000E+031.6666666667E+01+
*       -1.666666667E+01               0
GRID*             107316               04.8800000000E+03-1.666666667E+01+
*       -1.666666667E+01               0
GRID*             107317               04.8800000000E+03-1.666666667E+01+
*       1.6666666667E+01               0
GRID*             107318               04.8900000000E+031.6666666667E+01+
*       1.6666666667E+01               0
GRID*             107319               04.8900000000E+031.6666666667E+01+
*       -1.666666667E+01               0
GRID*             107320               04.8900000000E+03-1.666666667E+01+
*       -1.666666667E+01               0
GRID*             107321               04.8900000000E+03-1.666666667E+01+
*       1.6666666667E+01               0
GRID*             107322               04.9000000000E+031.6666666667E+01+
*       1.6666666667E+01               0
GRID*             107323               04.9000000000E+031.6666666667E+01+
*       -1.666666667E+01               0
GRID*             107324               04.9000000000E+03-1.666666667E+01+
*       -1.666666667E+01               0
GRID*             107325               04.9000000000E+03-1.666666667E+01+
*       1.6666666667E+01               0
GRID*             107326               04.9100000000E+031.6666666667E+01+
*       1.6666666667E+01               0
GRID*             107327               04.9100000000E+031.6666666667E+01+
*       -1.666666667E+01               0
GRID*             107328               04.9100000000E+03-1.666666667E+01+
*       -1.666666667E+01               0
GRID*             107329               04.9100000000E+03-1.666666667E+01+
*       1.6666666667E+01               0
GRID*             107330               04.9200000000E+031.6666666667E+01+
*       1.6666666667E+01               0
GRID*             107331               04.9200000000E+031.6666666667E+01+
*       -1.666666667E+01               0
GRID*             107332               04.9200000000E+03-1.666666667E+01+
*       -1.666666667E+01               0
GRID*             107333               04.9200000000E+03-1.666666667E+01+
*       1.6666666667E+01               0
GRID*             107334               04.9300000000E+031.6666666667E+01+
*       1.6666666667E+01               0
GRID*             107335               04.9300000000E+031.6666666667E+01+
*       -1.666666667E+01               0
GRID*             107336               04.9300000000E+03-1.666666667E+01+
*       -1.666666667E+01               0
GRID*             107337               04.9300000000E+03-1.666666667E+01+
*       1.6666666667E+01               0
GRID*             107338               04.9400000000E+031.6666666667E+01+
*       1.6666666667E+01               0
GRID*             107339               04.9400000000E+031.6666666667E+01+
*       -1.666666667E+01               0
GRID*             107340               04.9400000000E+03-1.666666667E+01+
*       -1.666666667E+01               0
GRID*             107341               04.9400000000E+03-1.666666667E+01+
*       1.6666666667E+01               0
GRID*             107342               04.9500000000E+031.6666666667E+01+
*       1.6666666667E+01               0
GRID*             107343               04.9500000000E+031.6666666667E+01+
*       -1.666666667E+01               0
GRID*             107344               04.9500000000E+03-1.666666667E+01+
*       -1.666666667E+01               0
GRID*             107345               04.9500000000E+03-1.666666667E+01+
*       1.6666666667E+01               0
GRID*             107346               04.9600000000E+031.6666666667E+01+
*       1.6666666667E+01               0
GRID*             107347               04.9600000000E+031.6666666667E+01+
*       -1.666666667E+01               0
GRID*             107348               04.9600000000E+03-1.666666667E+01+
*       -1.666666667E+01               0
GRID*             107349               04.9600000000E+03-1.666666667E+01+
*       1.6666666667E+01               0
GRID*             107350               04.9700000000E+031.6666666667E+01+
*       1.6666666667E+01               0
GRID*             107351               04.9700000000E+031.6666666667E+01+
*       -1.666666667E+01               0
GRID*             107352               04.9700000000E+03-1.666666667E+01+
*       -1.666666667E+01               0
GRID*             107353               04.9700000000E+03-1.666666667E+01+
*       1.6666666667E+01               0
GRID*             107354               04.9800000000E+031.6666666667E+01+
*       1.6666666667E+01               0
GRID*             107355               04.9800000000E+031.6666666667E+01+
*       -1.666666667E+01               0
GRID*             107356               04.9800000000E+03-1.666666667E+01+
*       -1.666666667E+01               0
GRID*             107357               04.9800000000E+03-1.666666667E+01+
*       1.6666666667E+01               0
GRID*             107358               04.9900000000E+031.6666666667E+01+
*       1.6666666667E+01               0
GRID*             107359               04.9900000000E+031.6666666667E+01+
*       -1.666666667E+01               0
GRID*             107360               04.9900000000E+03-1.666666667E+01+
*       -1.666666667E+01               0
GRID*             107361               04.9900000000E+03-1.666666667E+01+
*       1.6666666667E+01               0
GRID*             107362               05.0000000000E+031.6666666667E+01+
*       1.6666666667E+01               0
GRID*             107363               05.0000000000E+031.6666666667E+01+
*       -1.666666667E+01               0
GRID*             107364               05.0000000000E+03-1.666666667E+01+
*       -1.666666667E+01               0
GRID*             107365               05.0000000000E+03-1.666666667E+01+
*       1.6666666667E+01               0
GRID*             107366               05.0100000000E+031.6666666667E+01+
*       1.6666666667E+01               0
GRID*             107367               05.0100000000E+031.6666666667E+01+
*       -1.666666667E+01               0
GRID*             107368               05.0100000000E+03-1.666666667E+01+
*       -1.666666667E+01               0
GRID*             107369               05.0100000000E+03-1.666666667E+01+
*       1.6666666667E+01               0
GRID*             107370               05.0200000000E+031.6666666667E+01+
*       1.6666666667E+01               0
GRID*             107371               05.0200000000E+031.6666666667E+01+
*       -1.666666667E+01               0
GRID*             107372               05.0200000000E+03-1.666666667E+01+
*       -1.666666667E+01               0
GRID*             107373               05.0200000000E+03-1.666666667E+01+
*       1.6666666667E+01               0
GRID*             107374               05.0300000000E+031.6666666667E+01+
*       1.6666666667E+01               0
GRID*             107375               05.0300000000E+031.6666666667E+01+
*       -1.666666667E+01               0
GRID*             107376               05.0300000000E+03-1.666666667E+01+
*       -1.666666667E+01               0
GRID*             107377               05.0300000000E+03-1.666666667E+01+
*       1.6666666667E+01               0
GRID*             107378               05.0400000000E+031.6666666667E+01+
*       1.6666666667E+01               0
GRID*             107379               05.0400000000E+031.6666666667E+01+
*       -1.666666667E+01               0
GRID*             107380               05.0400000000E+03-1.666666667E+01+
*       -1.666666667E+01               0
GRID*             107381               05.0400000000E+03-1.666666667E+01+
*       1.6666666667E+01               0
GRID*             107382               05.0500000000E+031.6666666667E+01+
*       1.6666666667E+01               0
GRID*             107383               05.0500000000E+031.6666666667E+01+
*       -1.666666667E+01               0
GRID*             107384               05.0500000000E+03-1.666666667E+01+
*       -1.666666667E+01               0
GRID*             107385               05.0500000000E+03-1.666666667E+01+
*       1.6666666667E+01               0
GRID*             107386               05.0600000000E+031.6666666667E+01+
*       1.6666666667E+01               0
GRID*             107387               05.0600000000E+031.6666666667E+01+
*       -1.666666667E+01               0
GRID*             107388               05.0600000000E+03-1.666666667E+01+
*       -1.666666667E+01               0
GRID*             107389               05.0600000000E+03-1.666666667E+01+
*       1.6666666667E+01               0
GRID*             107390               05.0700000000E+031.6666666667E+01+
*       1.6666666667E+01               0
GRID*             107391               05.0700000000E+031.6666666667E+01+
*       -1.666666667E+01               0
GRID*             107392               05.0700000000E+03-1.666666667E+01+
*       -1.666666667E+01               0
GRID*             107393               05.0700000000E+03-1.666666667E+01+
*       1.6666666667E+01               0
GRID*             107394               05.0800000000E+031.6666666667E+01+
*       1.6666666667E+01               0
GRID*             107395               05.0800000000E+031.6666666667E+01+
*       -1.666666667E+01               0
GRID*             107396               05.0800000000E+03-1.666666667E+01+
*       -1.666666667E+01               0
GRID*             107397               05.0800000000E+03-1.666666667E+01+
*       1.6666666667E+01               0
GRID*             107398               05.0900000000E+031.6666666667E+01+
*       1.6666666667E+01               0
GRID*             107399               05.0900000000E+031.6666666667E+01+
*       -1.666666667E+01               0
GRID*             107400               05.0900000000E+03-1.666666667E+01+
*       -1.666666667E+01               0
GRID*             107401               05.0900000000E+03-1.666666667E+01+
*       1.6666666667E+01               0
GRID*             107402               05.1000000000E+031.6666666667E+01+
*       1.6666666667E+01               0
GRID*             107403               05.1000000000E+031.6666666667E+01+
*       -1.666666667E+01               0
GRID*             107404               05.1000000000E+03-1.666666667E+01+
*       -1.666666667E+01               0
GRID*             107405               05.1000000000E+03-1.666666667E+01+
*       1.6666666667E+01               0
GRID*             107406               05.1100000000E+031.6666666667E+01+
*       1.6666666667E+01               0
GRID*             107407               05.1100000000E+031.6666666667E+01+
*       -1.666666667E+01               0
GRID*             107408               05.1100000000E+03-1.666666667E+01+
*       -1.666666667E+01               0
GRID*             107409               05.1100000000E+03-1.666666667E+01+
*       1.6666666667E+01               0
GRID*             107410               05.1200000000E+031.6666666667E+01+
*       1.6666666667E+01               0
GRID*             107411               05.1200000000E+031.6666666667E+01+
*       -1.666666667E+01               0
GRID*             107412               05.1200000000E+03-1.666666667E+01+
*       -1.666666667E+01               0
GRID*             107413               05.1200000000E+03-1.666666667E+01+
*       1.6666666667E+01               0
GRID*             107414               05.1300000000E+031.6666666667E+01+
*       1.6666666667E+01               0
GRID*             107415               05.1300000000E+031.6666666667E+01+
*       -1.666666667E+01               0
GRID*             107416               05.1300000000E+03-1.666666667E+01+
*       -1.666666667E+01               0
GRID*             107417               05.1300000000E+03-1.666666667E+01+
*       1.6666666667E+01               0
GRID*             107418               05.1400000000E+031.6666666667E+01+
*       1.6666666667E+01               0
GRID*             107419               05.1400000000E+031.6666666667E+01+
*       -1.666666667E+01               0
GRID*             107420               05.1400000000E+03-1.666666667E+01+
*       -1.666666667E+01               0
GRID*             107421               05.1400000000E+03-1.666666667E+01+
*       1.6666666667E+01               0
GRID*             107422               05.1500000000E+031.6666666667E+01+
*       1.6666666667E+01               0
GRID*             107423               05.1500000000E+031.6666666667E+01+
*       -1.666666667E+01               0
GRID*             107424               05.1500000000E+03-1.666666667E+01+
*       -1.666666667E+01               0
GRID*             107425               05.1500000000E+03-1.666666667E+01+
*       1.6666666667E+01               0
GRID*             107426               05.1600000000E+031.6666666667E+01+
*       1.6666666667E+01               0
GRID*             107427               05.1600000000E+031.6666666667E+01+
*       -1.666666667E+01               0
GRID*             107428               05.1600000000E+03-1.666666667E+01+
*       -1.666666667E+01               0
GRID*             107429               05.1600000000E+03-1.666666667E+01+
*       1.6666666667E+01               0
GRID*             107430               05.1700000000E+031.6666666667E+01+
*       1.6666666667E+01               0
GRID*             107431               05.1700000000E+031.6666666667E+01+
*       -1.666666667E+01               0
GRID*             107432               05.1700000000E+03-1.666666667E+01+
*       -1.666666667E+01               0
GRID*             107433               05.1700000000E+03-1.666666667E+01+
*       1.6666666667E+01               0
GRID*             107434               05.1800000000E+031.6666666667E+01+
*       1.6666666667E+01               0
GRID*             107435               05.1800000000E+031.6666666667E+01+
*       -1.666666667E+01               0
GRID*             107436               05.1800000000E+03-1.666666667E+01+
*       -1.666666667E+01               0
GRID*             107437               05.1800000000E+03-1.666666667E+01+
*       1.6666666667E+01               0
GRID*             107438               05.1900000000E+031.6666666667E+01+
*       1.6666666667E+01               0
GRID*             107439               05.1900000000E+031.6666666667E+01+
*       -1.666666667E+01               0
GRID*             107440               05.1900000000E+03-1.666666667E+01+
*       -1.666666667E+01               0
GRID*             107441               05.1900000000E+03-1.666666667E+01+
*       1.6666666667E+01               0
GRID*             107442               05.2000000000E+031.6666666667E+01+
*       1.6666666667E+01               0
GRID*             107443               05.2000000000E+031.6666666667E+01+
*       -1.666666667E+01               0
GRID*             107444               05.2000000000E+03-1.666666667E+01+
*       -1.666666667E+01               0
GRID*             107445               05.2000000000E+03-1.666666667E+01+
*       1.6666666667E+01               0
GRID*             107446               05.2100000000E+031.6666666667E+01+
*       1.6666666667E+01               0
GRID*             107447               05.2100000000E+031.6666666667E+01+
*       -1.666666667E+01               0
GRID*             107448               05.2100000000E+03-1.666666667E+01+
*       -1.666666667E+01               0
GRID*             107449               05.2100000000E+03-1.666666667E+01+
*       1.6666666667E+01               0
GRID*             107450               05.2200000000E+031.6666666667E+01+
*       1.6666666667E+01               0
GRID*             107451               05.2200000000E+031.6666666667E+01+
*       -1.666666667E+01               0
GRID*             107452               05.2200000000E+03-1.666666667E+01+
*       -1.666666667E+01               0
GRID*             107453               05.2200000000E+03-1.666666667E+01+
*       1.6666666667E+01               0
GRID*             107454               05.2300000000E+031.6666666667E+01+
*       1.6666666667E+01               0
GRID*             107455               05.2300000000E+031.6666666667E+01+
*       -1.666666667E+01               0
GRID*             107456               05.2300000000E+03-1.666666667E+01+
*       -1.666666667E+01               0
GRID*             107457               05.2300000000E+03-1.666666667E+01+
*       1.6666666667E+01               0
GRID*             107458               05.2400000000E+031.6666666667E+01+
*       1.6666666667E+01               0
GRID*             107459               05.2400000000E+031.6666666667E+01+
*       -1.666666667E+01               0
GRID*             107460               05.2400000000E+03-1.666666667E+01+
*       -1.666666667E+01               0
GRID*             107461               05.2400000000E+03-1.666666667E+01+
*       1.6666666667E+01               0
GRID*             107462               05.2500000000E+031.6666666667E+01+
*       1.6666666667E+01               0
GRID*             107463               05.2500000000E+031.6666666667E+01+
*       -1.666666667E+01               0
GRID*             107464               05.2500000000E+03-1.666666667E+01+
*       -1.666666667E+01               0
GRID*             107465               05.2500000000E+03-1.666666667E+01+
*       1.6666666667E+01               0
GRID*             107466               05.2600000000E+031.6666666667E+01+
*       1.6666666667E+01               0
GRID*             107467               05.2600000000E+031.6666666667E+01+
*       -1.666666667E+01               0
GRID*             107468               05.2600000000E+03-1.666666667E+01+
*       -1.666666667E+01               0
GRID*             107469               05.2600000000E+03-1.666666667E+01+
*       1.6666666667E+01               0
GRID*             107470               05.2700000000E+031.6666666667E+01+
*       1.6666666667E+01               0
GRID*             107471               05.2700000000E+031.6666666667E+01+
*       -1.666666667E+01               0
GRID*             107472               05.2700000000E+03-1.666666667E+01+
*       -1.666666667E+01               0
GRID*             107473               05.2700000000E+03-1.666666667E+01+
*       1.6666666667E+01               0
GRID*             107474               05.2800000000E+031.6666666667E+01+
*       1.6666666667E+01               0
GRID*             107475               05.2800000000E+031.6666666667E+01+
*       -1.666666667E+01               0
GRID*             107476               05.2800000000E+03-1.666666667E+01+
*       -1.666666667E+01               0
GRID*             107477               05.2800000000E+03-1.666666667E+01+
*       1.6666666667E+01               0
GRID*             107478               05.2900000000E+031.6666666667E+01+
*       1.6666666667E+01               0
GRID*             107479               05.2900000000E+031.6666666667E+01+
*       -1.666666667E+01               0
GRID*             107480               05.2900000000E+03-1.666666667E+01+
*       -1.666666667E+01               0
GRID*             107481               05.2900000000E+03-1.666666667E+01+
*       1.6666666667E+01               0
GRID*             107482               05.3000000000E+031.6666666667E+01+
*       1.6666666667E+01               0
GRID*             107483               05.3000000000E+031.6666666667E+01+
*       -1.666666667E+01               0
GRID*             107484               05.3000000000E+03-1.666666667E+01+
*       -1.666666667E+01               0
GRID*             107485               05.3000000000E+03-1.666666667E+01+
*       1.6666666667E+01               0
GRID*             107486               05.3100000000E+031.6666666667E+01+
*       1.6666666667E+01               0
GRID*             107487               05.3100000000E+031.6666666667E+01+
*       -1.666666667E+01               0
GRID*             107488               05.3100000000E+03-1.666666667E+01+
*       -1.666666667E+01               0
GRID*             107489               05.3100000000E+03-1.666666667E+01+
*       1.6666666667E+01               0
GRID*             107490               05.3200000000E+031.6666666667E+01+
*       1.6666666667E+01               0
GRID*             107491               05.3200000000E+031.6666666667E+01+
*       -1.666666667E+01               0
GRID*             107492               05.3200000000E+03-1.666666667E+01+
*       -1.666666667E+01               0
GRID*             107493               05.3200000000E+03-1.666666667E+01+
*       1.6666666667E+01               0
GRID*             107494               05.3300000000E+031.6666666667E+01+
*       1.6666666667E+01               0
GRID*             107495               05.3300000000E+031.6666666667E+01+
*       -1.666666667E+01               0
GRID*             107496               05.3300000000E+03-1.666666667E+01+
*       -1.666666667E+01               0
GRID*             107497               05.3300000000E+03-1.666666667E+01+
*       1.6666666667E+01               0
GRID*             107498               05.3400000000E+031.6666666667E+01+
*       1.6666666667E+01               0
GRID*             107499               05.3400000000E+031.6666666667E+01+
*       -1.666666667E+01               0
GRID*             107500               05.3400000000E+03-1.666666667E+01+
*       -1.666666667E+01               0
GRID*             107501               05.3400000000E+03-1.666666667E+01+
*       1.6666666667E+01               0
GRID*             107502               05.3500000000E+031.6666666667E+01+
*       1.6666666667E+01               0
GRID*             107503               05.3500000000E+031.6666666667E+01+
*       -1.666666667E+01               0
GRID*             107504               05.3500000000E+03-1.666666667E+01+
*       -1.666666667E+01               0
GRID*             107505               05.3500000000E+03-1.666666667E+01+
*       1.6666666667E+01               0
GRID*             107506               05.3600000000E+031.6666666667E+01+
*       1.6666666667E+01               0
GRID*             107507               05.3600000000E+031.6666666667E+01+
*       -1.666666667E+01               0
GRID*             107508               05.3600000000E+03-1.666666667E+01+
*       -1.666666667E+01               0
GRID*             107509               05.3600000000E+03-1.666666667E+01+
*       1.6666666667E+01               0
GRID*             107510               05.3700000000E+031.6666666667E+01+
*       1.6666666667E+01               0
GRID*             107511               05.3700000000E+031.6666666667E+01+
*       -1.666666667E+01               0
GRID*             107512               05.3700000000E+03-1.666666667E+01+
*       -1.666666667E+01               0
GRID*             107513               05.3700000000E+03-1.666666667E+01+
*       1.6666666667E+01               0
GRID*             107514               05.3800000000E+031.6666666667E+01+
*       1.6666666667E+01               0
GRID*             107515               05.3800000000E+031.6666666667E+01+
*       -1.666666667E+01               0
GRID*             107516               05.3800000000E+03-1.666666667E+01+
*       -1.666666667E+01               0
GRID*             107517               05.3800000000E+03-1.666666667E+01+
*       1.6666666667E+01               0
GRID*             107518               05.3900000000E+031.6666666667E+01+
*       1.6666666667E+01               0
GRID*             107519               05.3900000000E+031.6666666667E+01+
*       -1.666666667E+01               0
GRID*             107520               05.3900000000E+03-1.666666667E+01+
*       -1.666666667E+01               0
GRID*             107521               05.3900000000E+03-1.666666667E+01+
*       1.6666666667E+01               0
GRID*             107522               05.4000000000E+031.6666666667E+01+
*       1.6666666667E+01               0
GRID*             107523               05.4000000000E+031.6666666667E+01+
*       -1.666666667E+01               0
GRID*             107524               05.4000000000E+03-1.666666667E+01+
*       -1.666666667E+01               0
GRID*             107525               05.4000000000E+03-1.666666667E+01+
*       1.6666666667E+01               0
GRID*             107526               05.4100000000E+031.6666666667E+01+
*       1.6666666667E+01               0
GRID*             107527               05.4100000000E+031.6666666667E+01+
*       -1.666666667E+01               0
GRID*             107528               05.4100000000E+03-1.666666667E+01+
*       -1.666666667E+01               0
GRID*             107529               05.4100000000E+03-1.666666667E+01+
*       1.6666666667E+01               0
GRID*             107530               05.4200000000E+031.6666666667E+01+
*       1.6666666667E+01               0
GRID*             107531               05.4200000000E+031.6666666667E+01+
*       -1.666666667E+01               0
GRID*             107532               05.4200000000E+03-1.666666667E+01+
*       -1.666666667E+01               0
GRID*             107533               05.4200000000E+03-1.666666667E+01+
*       1.6666666667E+01               0
GRID*             107534               05.4300000000E+031.6666666667E+01+
*       1.6666666667E+01               0
GRID*             107535               05.4300000000E+031.6666666667E+01+
*       -1.666666667E+01               0
GRID*             107536               05.4300000000E+03-1.666666667E+01+
*       -1.666666667E+01               0
GRID*             107537               05.4300000000E+03-1.666666667E+01+
*       1.6666666667E+01               0
GRID*             107538               05.4400000000E+031.6666666667E+01+
*       1.6666666667E+01               0
GRID*             107539               05.4400000000E+031.6666666667E+01+
*       -1.666666667E+01               0
GRID*             107540               05.4400000000E+03-1.666666667E+01+
*       -1.666666667E+01               0
GRID*             107541               05.4400000000E+03-1.666666667E+01+
*       1.6666666667E+01               0
GRID*             107542               05.4500000000E+031.6666666667E+01+
*       1.6666666667E+01               0
GRID*             107543               05.4500000000E+031.6666666667E+01+
*       -1.666666667E+01               0
GRID*             107544               05.4500000000E+03-1.666666667E+01+
*       -1.666666667E+01               0
GRID*             107545               05.4500000000E+03-1.666666667E+01+
*       1.6666666667E+01               0
GRID*             107546               05.4600000000E+031.6666666667E+01+
*       1.6666666667E+01               0
GRID*             107547               05.4600000000E+031.6666666667E+01+
*       -1.666666667E+01               0
GRID*             107548               05.4600000000E+03-1.666666667E+01+
*       -1.666666667E+01               0
GRID*             107549               05.4600000000E+03-1.666666667E+01+
*       1.6666666667E+01               0
GRID*             107550               05.4700000000E+031.6666666667E+01+
*       1.6666666667E+01               0
GRID*             107551               05.4700000000E+031.6666666667E+01+
*       -1.666666667E+01               0
GRID*             107552               05.4700000000E+03-1.666666667E+01+
*       -1.666666667E+01               0
GRID*             107553               05.4700000000E+03-1.666666667E+01+
*       1.6666666667E+01               0
GRID*             107554               05.4800000000E+031.6666666667E+01+
*       1.6666666667E+01               0
GRID*             107555               05.4800000000E+031.6666666667E+01+
*       -1.666666667E+01               0
GRID*             107556               05.4800000000E+03-1.666666667E+01+
*       -1.666666667E+01               0
GRID*             107557               05.4800000000E+03-1.666666667E+01+
*       1.6666666667E+01               0
GRID*             107558               05.4900000000E+031.6666666667E+01+
*       1.6666666667E+01               0
GRID*             107559               05.4900000000E+031.6666666667E+01+
*       -1.666666667E+01               0
GRID*             107560               05.4900000000E+03-1.666666667E+01+
*       -1.666666667E+01               0
GRID*             107561               05.4900000000E+03-1.666666667E+01+
*       1.6666666667E+01               0
GRID*             107562               05.5000000000E+031.6666666667E+01+
*       1.6666666667E+01               0
GRID*             107563               05.5000000000E+031.6666666667E+01+
*       -1.666666667E+01               0
GRID*             107564               05.5000000000E+03-1.666666667E+01+
*       -1.666666667E+01               0
GRID*             107565               05.5000000000E+03-1.666666667E+01+
*       1.6666666667E+01               0
GRID*             107566               05.5100000000E+031.6666666667E+01+
*       1.6666666667E+01               0
GRID*             107567               05.5100000000E+031.6666666667E+01+
*       -1.666666667E+01               0
GRID*             107568               05.5100000000E+03-1.666666667E+01+
*       -1.666666667E+01               0
GRID*             107569               05.5100000000E+03-1.666666667E+01+
*       1.6666666667E+01               0
GRID*             107570               05.5200000000E+031.6666666667E+01+
*       1.6666666667E+01               0
GRID*             107571               05.5200000000E+031.6666666667E+01+
*       -1.666666667E+01               0
GRID*             107572               05.5200000000E+03-1.666666667E+01+
*       -1.666666667E+01               0
GRID*             107573               05.5200000000E+03-1.666666667E+01+
*       1.6666666667E+01               0
GRID*             107574               05.5300000000E+031.6666666667E+01+
*       1.6666666667E+01               0
GRID*             107575               05.5300000000E+031.6666666667E+01+
*       -1.666666667E+01               0
GRID*             107576               05.5300000000E+03-1.666666667E+01+
*       -1.666666667E+01               0
GRID*             107577               05.5300000000E+03-1.666666667E+01+
*       1.6666666667E+01               0
GRID*             107578               05.5400000000E+031.6666666667E+01+
*       1.6666666667E+01               0
GRID*             107579               05.5400000000E+031.6666666667E+01+
*       -1.666666667E+01               0
GRID*             107580               05.5400000000E+03-1.666666667E+01+
*       -1.666666667E+01               0
GRID*             107581               05.5400000000E+03-1.666666667E+01+
*       1.6666666667E+01               0
GRID*             107582               05.5500000000E+031.6666666667E+01+
*       1.6666666667E+01               0
GRID*             107583               05.5500000000E+031.6666666667E+01+
*       -1.666666667E+01               0
GRID*             107584               05.5500000000E+03-1.666666667E+01+
*       -1.666666667E+01               0
GRID*             107585               05.5500000000E+03-1.666666667E+01+
*       1.6666666667E+01               0
GRID*             107586               05.5600000000E+031.6666666667E+01+
*       1.6666666667E+01               0
GRID*             107587               05.5600000000E+031.6666666667E+01+
*       -1.666666667E+01               0
GRID*             107588               05.5600000000E+03-1.666666667E+01+
*       -1.666666667E+01               0
GRID*             107589               05.5600000000E+03-1.666666667E+01+
*       1.6666666667E+01               0
GRID*             107590               05.5700000000E+031.6666666667E+01+
*       1.6666666667E+01               0
GRID*             107591               05.5700000000E+031.6666666667E+01+
*       -1.666666667E+01               0
GRID*             107592               05.5700000000E+03-1.666666667E+01+
*       -1.666666667E+01               0
GRID*             107593               05.5700000000E+03-1.666666667E+01+
*       1.6666666667E+01               0
GRID*             107594               05.5800000000E+031.6666666667E+01+
*       1.6666666667E+01               0
GRID*             107595               05.5800000000E+031.6666666667E+01+
*       -1.666666667E+01               0
GRID*             107596               05.5800000000E+03-1.666666667E+01+
*       -1.666666667E+01               0
GRID*             107597               05.5800000000E+03-1.666666667E+01+
*       1.6666666667E+01               0
GRID*             107598               05.5900000000E+031.6666666667E+01+
*       1.6666666667E+01               0
GRID*             107599               05.5900000000E+031.6666666667E+01+
*       -1.666666667E+01               0
GRID*             107600               05.5900000000E+03-1.666666667E+01+
*       -1.666666667E+01               0
GRID*             107601               05.5900000000E+03-1.666666667E+01+
*       1.6666666667E+01               0
GRID*             107602               05.6000000000E+031.6666666667E+01+
*       1.6666666667E+01               0
GRID*             107603               05.6000000000E+031.6666666667E+01+
*       -1.666666667E+01               0
GRID*             107604               05.6000000000E+03-1.666666667E+01+
*       -1.666666667E+01               0
GRID*             107605               05.6000000000E+03-1.666666667E+01+
*       1.6666666667E+01               0
GRID*             107606               05.6100000000E+031.6666666667E+01+
*       1.6666666667E+01               0
GRID*             107607               05.6100000000E+031.6666666667E+01+
*       -1.666666667E+01               0
GRID*             107608               05.6100000000E+03-1.666666667E+01+
*       -1.666666667E+01               0
GRID*             107609               05.6100000000E+03-1.666666667E+01+
*       1.6666666667E+01               0
GRID*             107610               05.6200000000E+031.6666666667E+01+
*       1.6666666667E+01               0
GRID*             107611               05.6200000000E+031.6666666667E+01+
*       -1.666666667E+01               0
GRID*             107612               05.6200000000E+03-1.666666667E+01+
*       -1.666666667E+01               0
GRID*             107613               05.6200000000E+03-1.666666667E+01+
*       1.6666666667E+01               0
GRID*             107614               05.6300000000E+031.6666666667E+01+
*       1.6666666667E+01               0
GRID*             107615               05.6300000000E+031.6666666667E+01+
*       -1.666666667E+01               0
GRID*             107616               05.6300000000E+03-1.666666667E+01+
*       -1.666666667E+01               0
GRID*             107617               05.6300000000E+03-1.666666667E+01+
*       1.6666666667E+01               0
GRID*             107618               05.6400000000E+031.6666666667E+01+
*       1.6666666667E+01               0
GRID*             107619               05.6400000000E+031.6666666667E+01+
*       -1.666666667E+01               0
GRID*             107620               05.6400000000E+03-1.666666667E+01+
*       -1.666666667E+01               0
GRID*             107621               05.6400000000E+03-1.666666667E+01+
*       1.6666666667E+01               0
GRID*             107622               05.6500000000E+031.6666666667E+01+
*       1.6666666667E+01               0
GRID*             107623               05.6500000000E+031.6666666667E+01+
*       -1.666666667E+01               0
GRID*             107624               05.6500000000E+03-1.666666667E+01+
*       -1.666666667E+01               0
GRID*             107625               05.6500000000E+03-1.666666667E+01+
*       1.6666666667E+01               0
GRID*             107626               05.6600000000E+031.6666666667E+01+
*       1.6666666667E+01               0
GRID*             107627               05.6600000000E+031.6666666667E+01+
*       -1.666666667E+01               0
GRID*             107628               05.6600000000E+03-1.666666667E+01+
*       -1.666666667E+01               0
GRID*             107629               05.6600000000E+03-1.666666667E+01+
*       1.6666666667E+01               0
GRID*             107630               05.6700000000E+031.6666666667E+01+
*       1.6666666667E+01               0
GRID*             107631               05.6700000000E+031.6666666667E+01+
*       -1.666666667E+01               0
GRID*             107632               05.6700000000E+03-1.666666667E+01+
*       -1.666666667E+01               0
GRID*             107633               05.6700000000E+03-1.666666667E+01+
*       1.6666666667E+01               0
GRID*             107634               05.6800000000E+031.6666666667E+01+
*       1.6666666667E+01               0
GRID*             107635               05.6800000000E+031.6666666667E+01+
*       -1.666666667E+01               0
GRID*             107636               05.6800000000E+03-1.666666667E+01+
*       -1.666666667E+01               0
GRID*             107637               05.6800000000E+03-1.666666667E+01+
*       1.6666666667E+01               0
GRID*             107638               05.6900000000E+031.6666666667E+01+
*       1.6666666667E+01               0
GRID*             107639               05.6900000000E+031.6666666667E+01+
*       -1.666666667E+01               0
GRID*             107640               05.6900000000E+03-1.666666667E+01+
*       -1.666666667E+01               0
GRID*             107641               05.6900000000E+03-1.666666667E+01+
*       1.6666666667E+01               0
GRID*             107642               05.7000000000E+031.6666666667E+01+
*       1.6666666667E+01               0
GRID*             107643               05.7000000000E+031.6666666667E+01+
*       -1.666666667E+01               0
GRID*             107644               05.7000000000E+03-1.666666667E+01+
*       -1.666666667E+01               0
GRID*             107645               05.7000000000E+03-1.666666667E+01+
*       1.6666666667E+01               0
GRID*             107646               05.7100000000E+031.6666666667E+01+
*       1.6666666667E+01               0
GRID*             107647               05.7100000000E+031.6666666667E+01+
*       -1.666666667E+01               0
GRID*             107648               05.7100000000E+03-1.666666667E+01+
*       -1.666666667E+01               0
GRID*             107649               05.7100000000E+03-1.666666667E+01+
*       1.6666666667E+01               0
GRID*             107650               05.7200000000E+031.6666666667E+01+
*       1.6666666667E+01               0
GRID*             107651               05.7200000000E+031.6666666667E+01+
*       -1.666666667E+01               0
GRID*             107652               05.7200000000E+03-1.666666667E+01+
*       -1.666666667E+01               0
GRID*             107653               05.7200000000E+03-1.666666667E+01+
*       1.6666666667E+01               0
GRID*             107654               05.7300000000E+031.6666666667E+01+
*       1.6666666667E+01               0
GRID*             107655               05.7300000000E+031.6666666667E+01+
*       -1.666666667E+01               0
GRID*             107656               05.7300000000E+03-1.666666667E+01+
*       -1.666666667E+01               0
GRID*             107657               05.7300000000E+03-1.666666667E+01+
*       1.6666666667E+01               0
GRID*             107658               05.7400000000E+031.6666666667E+01+
*       1.6666666667E+01               0
GRID*             107659               05.7400000000E+031.6666666667E+01+
*       -1.666666667E+01               0
GRID*             107660               05.7400000000E+03-1.666666667E+01+
*       -1.666666667E+01               0
GRID*             107661               05.7400000000E+03-1.666666667E+01+
*       1.6666666667E+01               0
GRID*             107662               05.7500000000E+031.6666666667E+01+
*       1.6666666667E+01               0
GRID*             107663               05.7500000000E+031.6666666667E+01+
*       -1.666666667E+01               0
GRID*             107664               05.7500000000E+03-1.666666667E+01+
*       -1.666666667E+01               0
GRID*             107665               05.7500000000E+03-1.666666667E+01+
*       1.6666666667E+01               0
GRID*             107666               05.7600000000E+031.6666666667E+01+
*       1.6666666667E+01               0
GRID*             107667               05.7600000000E+031.6666666667E+01+
*       -1.666666667E+01               0
GRID*             107668               05.7600000000E+03-1.666666667E+01+
*       -1.666666667E+01               0
GRID*             107669               05.7600000000E+03-1.666666667E+01+
*       1.6666666667E+01               0
GRID*             107670               05.7700000000E+031.6666666667E+01+
*       1.6666666667E+01               0
GRID*             107671               05.7700000000E+031.6666666667E+01+
*       -1.666666667E+01               0
GRID*             107672               05.7700000000E+03-1.666666667E+01+
*       -1.666666667E+01               0
GRID*             107673               05.7700000000E+03-1.666666667E+01+
*       1.6666666667E+01               0
GRID*             107674               05.7800000000E+031.6666666667E+01+
*       1.6666666667E+01               0
GRID*             107675               05.7800000000E+031.6666666667E+01+
*       -1.666666667E+01               0
GRID*             107676               05.7800000000E+03-1.666666667E+01+
*       -1.666666667E+01               0
GRID*             107677               05.7800000000E+03-1.666666667E+01+
*       1.6666666667E+01               0
GRID*             107678               05.7900000000E+031.6666666667E+01+
*       1.6666666667E+01               0
GRID*             107679               05.7900000000E+031.6666666667E+01+
*       -1.666666667E+01               0
GRID*             107680               05.7900000000E+03-1.666666667E+01+
*       -1.666666667E+01               0
GRID*             107681               05.7900000000E+03-1.666666667E+01+
*       1.6666666667E+01               0
GRID*             107682               05.8000000000E+031.6666666667E+01+
*       1.6666666667E+01               0
GRID*             107683               05.8000000000E+031.6666666667E+01+
*       -1.666666667E+01               0
GRID*             107684               05.8000000000E+03-1.666666667E+01+
*       -1.666666667E+01               0
GRID*             107685               05.8000000000E+03-1.666666667E+01+
*       1.6666666667E+01               0
GRID*             107686               05.8100000000E+031.6666666667E+01+
*       1.6666666667E+01               0
GRID*             107687               05.8100000000E+031.6666666667E+01+
*       -1.666666667E+01               0
GRID*             107688               05.8100000000E+03-1.666666667E+01+
*       -1.666666667E+01               0
GRID*             107689               05.8100000000E+03-1.666666667E+01+
*       1.6666666667E+01               0
GRID*             107690               05.8200000000E+031.6666666667E+01+
*       1.6666666667E+01               0
GRID*             107691               05.8200000000E+031.6666666667E+01+
*       -1.666666667E+01               0
GRID*             107692               05.8200000000E+03-1.666666667E+01+
*       -1.666666667E+01               0
GRID*             107693               05.8200000000E+03-1.666666667E+01+
*       1.6666666667E+01               0
GRID*             107694               05.8300000000E+031.6666666667E+01+
*       1.6666666667E+01               0
GRID*             107695               05.8300000000E+031.6666666667E+01+
*       -1.666666667E+01               0
GRID*             107696               05.8300000000E+03-1.666666667E+01+
*       -1.666666667E+01               0
GRID*             107697               05.8300000000E+03-1.666666667E+01+
*       1.6666666667E+01               0
GRID*             107698               05.8400000000E+031.6666666667E+01+
*       1.6666666667E+01               0
GRID*             107699               05.8400000000E+031.6666666667E+01+
*       -1.666666667E+01               0
GRID*             107700               05.8400000000E+03-1.666666667E+01+
*       -1.666666667E+01               0
GRID*             107701               05.8400000000E+03-1.666666667E+01+
*       1.6666666667E+01               0
GRID*             107702               05.8500000000E+031.6666666667E+01+
*       1.6666666667E+01               0
GRID*             107703               05.8500000000E+031.6666666667E+01+
*       -1.666666667E+01               0
GRID*             107704               05.8500000000E+03-1.666666667E+01+
*       -1.666666667E+01               0
GRID*             107705               05.8500000000E+03-1.666666667E+01+
*       1.6666666667E+01               0
GRID*             107706               05.8600000000E+031.6666666667E+01+
*       1.6666666667E+01               0
GRID*             107707               05.8600000000E+031.6666666667E+01+
*       -1.666666667E+01               0
GRID*             107708               05.8600000000E+03-1.666666667E+01+
*       -1.666666667E+01               0
GRID*             107709               05.8600000000E+03-1.666666667E+01+
*       1.6666666667E+01               0
GRID*             107710               05.8700000000E+031.6666666667E+01+
*       1.6666666667E+01               0
GRID*             107711               05.8700000000E+031.6666666667E+01+
*       -1.666666667E+01               0
GRID*             107712               05.8700000000E+03-1.666666667E+01+
*       -1.666666667E+01               0
GRID*             107713               05.8700000000E+03-1.666666667E+01+
*       1.6666666667E+01               0
GRID*             107714               05.8800000000E+031.6666666667E+01+
*       1.6666666667E+01               0
GRID*             107715               05.8800000000E+031.6666666667E+01+
*       -1.666666667E+01               0
GRID*             107716               05.8800000000E+03-1.666666667E+01+
*       -1.666666667E+01               0
GRID*             107717               05.8800000000E+03-1.666666667E+01+
*       1.6666666667E+01               0
GRID*             107718               05.8900000000E+031.6666666667E+01+
*       1.6666666667E+01               0
GRID*             107719               05.8900000000E+031.6666666667E+01+
*       -1.666666667E+01               0
GRID*             107720               05.8900000000E+03-1.666666667E+01+
*       -1.666666667E+01               0
GRID*             107721               05.8900000000E+03-1.666666667E+01+
*       1.6666666667E+01               0
GRID*             107722               05.9000000000E+031.6666666667E+01+
*       1.6666666667E+01               0
GRID*             107723               05.9000000000E+031.6666666667E+01+
*       -1.666666667E+01               0
GRID*             107724               05.9000000000E+03-1.666666667E+01+
*       -1.666666667E+01               0
GRID*             107725               05.9000000000E+03-1.666666667E+01+
*       1.6666666667E+01               0
GRID*             107726               05.9100000000E+031.6666666667E+01+
*       1.6666666667E+01               0
GRID*             107727               05.9100000000E+031.6666666667E+01+
*       -1.666666667E+01               0
GRID*             107728               05.9100000000E+03-1.666666667E+01+
*       -1.666666667E+01               0
GRID*             107729               05.9100000000E+03-1.666666667E+01+
*       1.6666666667E+01               0
GRID*             107730               05.9200000000E+031.6666666667E+01+
*       1.6666666667E+01               0
GRID*             107731               05.9200000000E+031.6666666667E+01+
*       -1.666666667E+01               0
GRID*             107732               05.9200000000E+03-1.666666667E+01+
*       -1.666666667E+01               0
GRID*             107733               05.9200000000E+03-1.666666667E+01+
*       1.6666666667E+01               0
GRID*             107734               05.9300000000E+031.6666666667E+01+
*       1.6666666667E+01               0
GRID*             107735               05.9300000000E+031.6666666667E+01+
*       -1.666666667E+01               0
GRID*             107736               05.9300000000E+03-1.666666667E+01+
*       -1.666666667E+01               0
GRID*             107737               05.9300000000E+03-1.666666667E+01+
*       1.6666666667E+01               0
GRID*             107738               05.9400000000E+031.6666666667E+01+
*       1.6666666667E+01               0
GRID*             107739               05.9400000000E+031.6666666667E+01+
*       -1.666666667E+01               0
GRID*             107740               05.9400000000E+03-1.666666667E+01+
*       -1.666666667E+01               0
GRID*             107741               05.9400000000E+03-1.666666667E+01+
*       1.6666666667E+01               0
GRID*             107742               05.9500000000E+031.6666666667E+01+
*       1.6666666667E+01               0
GRID*             107743               05.9500000000E+031.6666666667E+01+
*       -1.666666667E+01               0
GRID*             107744               05.9500000000E+03-1.666666667E+01+
*       -1.666666667E+01               0
GRID*             107745               05.9500000000E+03-1.666666667E+01+
*       1.6666666667E+01               0
GRID*             107746               05.9600000000E+031.6666666667E+01+
*       1.6666666667E+01               0
GRID*             107747               05.9600000000E+031.6666666667E+01+
*       -1.666666667E+01               0
GRID*             107748               05.9600000000E+03-1.666666667E+01+
*       -1.666666667E+01               0
GRID*             107749               05.9600000000E+03-1.666666667E+01+
*       1.6666666667E+01               0
GRID*             107750               05.9700000000E+031.6666666667E+01+
*       1.6666666667E+01               0
GRID*             107751               05.9700000000E+031.6666666667E+01+
*       -1.666666667E+01               0
GRID*             107752               05.9700000000E+03-1.666666667E+01+
*       -1.666666667E+01               0
GRID*             107753               05.9700000000E+03-1.666666667E+01+
*       1.6666666667E+01               0
GRID*             107754               05.9800000000E+031.6666666667E+01+
*       1.6666666667E+01               0
GRID*             107755               05.9800000000E+031.6666666667E+01+
*       -1.666666667E+01               0
GRID*             107756               05.9800000000E+03-1.666666667E+01+
*       -1.666666667E+01               0
GRID*             107757               05.9800000000E+03-1.666666667E+01+
*       1.6666666667E+01               0
GRID*             107758               05.9900000000E+031.6666666667E+01+
*       1.6666666667E+01               0
GRID*             107759               05.9900000000E+031.6666666667E+01+
*       -1.666666667E+01               0
GRID*             107760               05.9900000000E+03-1.666666667E+01+
*       -1.666666667E+01               0
GRID*             107761               05.9900000000E+03-1.666666667E+01+
*       1.6666666667E+01               0
GRID*             107762               06.0000000000E+031.6666666667E+01+
*       1.6666666667E+01               0
GRID*             107763               06.0000000000E+031.6666666667E+01+
*       -1.666666667E+01               0
GRID*             107764               06.0000000000E+03-1.666666667E+01+
*       -1.666666667E+01               0
GRID*             107765               06.0000000000E+03-1.666666667E+01+
*       1.6666666667E+01               0
GRID*             107766               06.0100000000E+031.6666666667E+01+
*       1.6666666667E+01               0
GRID*             107767               06.0100000000E+031.6666666667E+01+
*       -1.666666667E+01               0
GRID*             107768               06.0100000000E+03-1.666666667E+01+
*       -1.666666667E+01               0
GRID*             107769               06.0100000000E+03-1.666666667E+01+
*       1.6666666667E+01               0
GRID*             107770               06.0200000000E+031.6666666667E+01+
*       1.6666666667E+01               0
GRID*             107771               06.0200000000E+031.6666666667E+01+
*       -1.666666667E+01               0
GRID*             107772               06.0200000000E+03-1.666666667E+01+
*       -1.666666667E+01               0
GRID*             107773               06.0200000000E+03-1.666666667E+01+
*       1.6666666667E+01               0
GRID*             107774               06.0300000000E+031.6666666667E+01+
*       1.6666666667E+01               0
GRID*             107775               06.0300000000E+031.6666666667E+01+
*       -1.666666667E+01               0
GRID*             107776               06.0300000000E+03-1.666666667E+01+
*       -1.666666667E+01               0
GRID*             107777               06.0300000000E+03-1.666666667E+01+
*       1.6666666667E+01               0
GRID*             107778               06.0400000000E+031.6666666667E+01+
*       1.6666666667E+01               0
GRID*             107779               06.0400000000E+031.6666666667E+01+
*       -1.666666667E+01               0
GRID*             107780               06.0400000000E+03-1.666666667E+01+
*       -1.666666667E+01               0
GRID*             107781               06.0400000000E+03-1.666666667E+01+
*       1.6666666667E+01               0
GRID*             107782               06.0500000000E+031.6666666667E+01+
*       1.6666666667E+01               0
GRID*             107783               06.0500000000E+031.6666666667E+01+
*       -1.666666667E+01               0
GRID*             107784               06.0500000000E+03-1.666666667E+01+
*       -1.666666667E+01               0
GRID*             107785               06.0500000000E+03-1.666666667E+01+
*       1.6666666667E+01               0
GRID*             107786               06.0600000000E+031.6666666667E+01+
*       1.6666666667E+01               0
GRID*             107787               06.0600000000E+031.6666666667E+01+
*       -1.666666667E+01               0
GRID*             107788               06.0600000000E+03-1.666666667E+01+
*       -1.666666667E+01               0
GRID*             107789               06.0600000000E+03-1.666666667E+01+
*       1.6666666667E+01               0
GRID*             107790               06.0700000000E+031.6666666667E+01+
*       1.6666666667E+01               0
GRID*             107791               06.0700000000E+031.6666666667E+01+
*       -1.666666667E+01               0
GRID*             107792               06.0700000000E+03-1.666666667E+01+
*       -1.666666667E+01               0
GRID*             107793               06.0700000000E+03-1.666666667E+01+
*       1.6666666667E+01               0
GRID*             107794               06.0800000000E+031.6666666667E+01+
*       1.6666666667E+01               0
GRID*             107795               06.0800000000E+031.6666666667E+01+
*       -1.666666667E+01               0
GRID*             107796               06.0800000000E+03-1.666666667E+01+
*       -1.666666667E+01               0
GRID*             107797               06.0800000000E+03-1.666666667E+01+
*       1.6666666667E+01               0
GRID*             107798               06.0900000000E+031.6666666667E+01+
*       1.6666666667E+01               0
GRID*             107799               06.0900000000E+031.6666666667E+01+
*       -1.666666667E+01               0
GRID*             107800               06.0900000000E+03-1.666666667E+01+
*       -1.666666667E+01               0
GRID*             107801               06.0900000000E+03-1.666666667E+01+
*       1.6666666667E+01               0
GRID*             107802               06.1000000000E+031.6666666667E+01+
*       1.6666666667E+01               0
GRID*             107803               06.1000000000E+031.6666666667E+01+
*       -1.666666667E+01               0
GRID*             107804               06.1000000000E+03-1.666666667E+01+
*       -1.666666667E+01               0
GRID*             107805               06.1000000000E+03-1.666666667E+01+
*       1.6666666667E+01               0
GRID*             107806               06.1100000000E+031.6666666667E+01+
*       1.6666666667E+01               0
GRID*             107807               06.1100000000E+031.6666666667E+01+
*       -1.666666667E+01               0
GRID*             107808               06.1100000000E+03-1.666666667E+01+
*       -1.666666667E+01               0
GRID*             107809               06.1100000000E+03-1.666666667E+01+
*       1.6666666667E+01               0
GRID*             107810               06.1200000000E+031.6666666667E+01+
*       1.6666666667E+01               0
GRID*             107811               06.1200000000E+031.6666666667E+01+
*       -1.666666667E+01               0
GRID*             107812               06.1200000000E+03-1.666666667E+01+
*       -1.666666667E+01               0
GRID*             107813               06.1200000000E+03-1.666666667E+01+
*       1.6666666667E+01               0
GRID*             107814               06.1300000000E+031.6666666667E+01+
*       1.6666666667E+01               0
GRID*             107815               06.1300000000E+031.6666666667E+01+
*       -1.666666667E+01               0
GRID*             107816               06.1300000000E+03-1.666666667E+01+
*       -1.666666667E+01               0
GRID*             107817               06.1300000000E+03-1.666666667E+01+
*       1.6666666667E+01               0
GRID*             107818               06.1400000000E+031.6666666667E+01+
*       1.6666666667E+01               0
GRID*             107819               06.1400000000E+031.6666666667E+01+
*       -1.666666667E+01               0
GRID*             107820               06.1400000000E+03-1.666666667E+01+
*       -1.666666667E+01               0
GRID*             107821               06.1400000000E+03-1.666666667E+01+
*       1.6666666667E+01               0
GRID*             107822               06.1500000000E+031.6666666667E+01+
*       1.6666666667E+01               0
GRID*             107823               06.1500000000E+031.6666666667E+01+
*       -1.666666667E+01               0
GRID*             107824               06.1500000000E+03-1.666666667E+01+
*       -1.666666667E+01               0
GRID*             107825               06.1500000000E+03-1.666666667E+01+
*       1.6666666667E+01               0
GRID*             107826               06.1600000000E+031.6666666667E+01+
*       1.6666666667E+01               0
GRID*             107827               06.1600000000E+031.6666666667E+01+
*       -1.666666667E+01               0
GRID*             107828               06.1600000000E+03-1.666666667E+01+
*       -1.666666667E+01               0
GRID*             107829               06.1600000000E+03-1.666666667E+01+
*       1.6666666667E+01               0
GRID*             107830               06.1700000000E+031.6666666667E+01+
*       1.6666666667E+01               0
GRID*             107831               06.1700000000E+031.6666666667E+01+
*       -1.666666667E+01               0
GRID*             107832               06.1700000000E+03-1.666666667E+01+
*       -1.666666667E+01               0
GRID*             107833               06.1700000000E+03-1.666666667E+01+
*       1.6666666667E+01               0
GRID*             107834               06.1800000000E+031.6666666667E+01+
*       1.6666666667E+01               0
GRID*             107835               06.1800000000E+031.6666666667E+01+
*       -1.666666667E+01               0
GRID*             107836               06.1800000000E+03-1.666666667E+01+
*       -1.666666667E+01               0
GRID*             107837               06.1800000000E+03-1.666666667E+01+
*       1.6666666667E+01               0
GRID*             107838               06.1900000000E+031.6666666667E+01+
*       1.6666666667E+01               0
GRID*             107839               06.1900000000E+031.6666666667E+01+
*       -1.666666667E+01               0
GRID*             107840               06.1900000000E+03-1.666666667E+01+
*       -1.666666667E+01               0
GRID*             107841               06.1900000000E+03-1.666666667E+01+
*       1.6666666667E+01               0
GRID*             107842               06.2000000000E+031.6666666667E+01+
*       1.6666666667E+01               0
GRID*             107843               06.2000000000E+031.6666666667E+01+
*       -1.666666667E+01               0
GRID*             107844               06.2000000000E+03-1.666666667E+01+
*       -1.666666667E+01               0
GRID*             107845               06.2000000000E+03-1.666666667E+01+
*       1.6666666667E+01               0
GRID*             107846               06.2100000000E+031.6666666667E+01+
*       1.6666666667E+01               0
GRID*             107847               06.2100000000E+031.6666666667E+01+
*       -1.666666667E+01               0
GRID*             107848               06.2100000000E+03-1.666666667E+01+
*       -1.666666667E+01               0
GRID*             107849               06.2100000000E+03-1.666666667E+01+
*       1.6666666667E+01               0
GRID*             107850               06.2200000000E+031.6666666667E+01+
*       1.6666666667E+01               0
GRID*             107851               06.2200000000E+031.6666666667E+01+
*       -1.666666667E+01               0
GRID*             107852               06.2200000000E+03-1.666666667E+01+
*       -1.666666667E+01               0
GRID*             107853               06.2200000000E+03-1.666666667E+01+
*       1.6666666667E+01               0
GRID*             107854               06.2300000000E+031.6666666667E+01+
*       1.6666666667E+01               0
GRID*             107855               06.2300000000E+031.6666666667E+01+
*       -1.666666667E+01               0
GRID*             107856               06.2300000000E+03-1.666666667E+01+
*       -1.666666667E+01               0
GRID*             107857               06.2300000000E+03-1.666666667E+01+
*       1.6666666667E+01               0
GRID*             107858               06.2400000000E+031.6666666667E+01+
*       1.6666666667E+01               0
GRID*             107859               06.2400000000E+031.6666666667E+01+
*       -1.666666667E+01               0
GRID*             107860               06.2400000000E+03-1.666666667E+01+
*       -1.666666667E+01               0
GRID*             107861               06.2400000000E+03-1.666666667E+01+
*       1.6666666667E+01               0
GRID*             107862               06.2500000000E+031.6666666667E+01+
*       1.6666666667E+01               0
GRID*             107863               06.2500000000E+031.6666666667E+01+
*       -1.666666667E+01               0
GRID*             107864               06.2500000000E+03-1.666666667E+01+
*       -1.666666667E+01               0
GRID*             107865               06.2500000000E+03-1.666666667E+01+
*       1.6666666667E+01               0
GRID*             107866               06.2600000000E+031.6666666667E+01+
*       1.6666666667E+01               0
GRID*             107867               06.2600000000E+031.6666666667E+01+
*       -1.666666667E+01               0
GRID*             107868               06.2600000000E+03-1.666666667E+01+
*       -1.666666667E+01               0
GRID*             107869               06.2600000000E+03-1.666666667E+01+
*       1.6666666667E+01               0
GRID*             107870               06.2700000000E+031.6666666667E+01+
*       1.6666666667E+01               0
GRID*             107871               06.2700000000E+031.6666666667E+01+
*       -1.666666667E+01               0
GRID*             107872               06.2700000000E+03-1.666666667E+01+
*       -1.666666667E+01               0
GRID*             107873               06.2700000000E+03-1.666666667E+01+
*       1.6666666667E+01               0
GRID*             107874               06.2800000000E+031.6666666667E+01+
*       1.6666666667E+01               0
GRID*             107875               06.2800000000E+031.6666666667E+01+
*       -1.666666667E+01               0
GRID*             107876               06.2800000000E+03-1.666666667E+01+
*       -1.666666667E+01               0
GRID*             107877               06.2800000000E+03-1.666666667E+01+
*       1.6666666667E+01               0
GRID*             107878               06.2900000000E+031.6666666667E+01+
*       1.6666666667E+01               0
GRID*             107879               06.2900000000E+031.6666666667E+01+
*       -1.666666667E+01               0
GRID*             107880               06.2900000000E+03-1.666666667E+01+
*       -1.666666667E+01               0
GRID*             107881               06.2900000000E+03-1.666666667E+01+
*       1.6666666667E+01               0
GRID*             107882               06.3000000000E+031.6666666667E+01+
*       1.6666666667E+01               0
GRID*             107883               06.3000000000E+031.6666666667E+01+
*       -1.666666667E+01               0
GRID*             107884               06.3000000000E+03-1.666666667E+01+
*       -1.666666667E+01               0
GRID*             107885               06.3000000000E+03-1.666666667E+01+
*       1.6666666667E+01               0
GRID*             107886               06.3100000000E+031.6666666667E+01+
*       1.6666666667E+01               0
GRID*             107887               06.3100000000E+031.6666666667E+01+
*       -1.666666667E+01               0
GRID*             107888               06.3100000000E+03-1.666666667E+01+
*       -1.666666667E+01               0
GRID*             107889               06.3100000000E+03-1.666666667E+01+
*       1.6666666667E+01               0
GRID*             107890               06.3200000000E+031.6666666667E+01+
*       1.6666666667E+01               0
GRID*             107891               06.3200000000E+031.6666666667E+01+
*       -1.666666667E+01               0
GRID*             107892               06.3200000000E+03-1.666666667E+01+
*       -1.666666667E+01               0
GRID*             107893               06.3200000000E+03-1.666666667E+01+
*       1.6666666667E+01               0
GRID*             107894               06.3300000000E+031.6666666667E+01+
*       1.6666666667E+01               0
GRID*             107895               06.3300000000E+031.6666666667E+01+
*       -1.666666667E+01               0
GRID*             107896               06.3300000000E+03-1.666666667E+01+
*       -1.666666667E+01               0
GRID*             107897               06.3300000000E+03-1.666666667E+01+
*       1.6666666667E+01               0
GRID*             107898               06.3400000000E+031.6666666667E+01+
*       1.6666666667E+01               0
GRID*             107899               06.3400000000E+031.6666666667E+01+
*       -1.666666667E+01               0
GRID*             107900               06.3400000000E+03-1.666666667E+01+
*       -1.666666667E+01               0
GRID*             107901               06.3400000000E+03-1.666666667E+01+
*       1.6666666667E+01               0
GRID*             107902               06.3500000000E+031.6666666667E+01+
*       1.6666666667E+01               0
GRID*             107903               06.3500000000E+031.6666666667E+01+
*       -1.666666667E+01               0
GRID*             107904               06.3500000000E+03-1.666666667E+01+
*       -1.666666667E+01               0
GRID*             107905               06.3500000000E+03-1.666666667E+01+
*       1.6666666667E+01               0
GRID*             107906               06.3600000000E+031.6666666667E+01+
*       1.6666666667E+01               0
GRID*             107907               06.3600000000E+031.6666666667E+01+
*       -1.666666667E+01               0
GRID*             107908               06.3600000000E+03-1.666666667E+01+
*       -1.666666667E+01               0
GRID*             107909               06.3600000000E+03-1.666666667E+01+
*       1.6666666667E+01               0
GRID*             107910               06.3700000000E+031.6666666667E+01+
*       1.6666666667E+01               0
GRID*             107911               06.3700000000E+031.6666666667E+01+
*       -1.666666667E+01               0
GRID*             107912               06.3700000000E+03-1.666666667E+01+
*       -1.666666667E+01               0
GRID*             107913               06.3700000000E+03-1.666666667E+01+
*       1.6666666667E+01               0
GRID*             107914               06.3800000000E+031.6666666667E+01+
*       1.6666666667E+01               0
GRID*             107915               06.3800000000E+031.6666666667E+01+
*       -1.666666667E+01               0
GRID*             107916               06.3800000000E+03-1.666666667E+01+
*       -1.666666667E+01               0
GRID*             107917               06.3800000000E+03-1.666666667E+01+
*       1.6666666667E+01               0
GRID*             107918               06.3900000000E+031.6666666667E+01+
*       1.6666666667E+01               0
GRID*             107919               06.3900000000E+031.6666666667E+01+
*       -1.666666667E+01               0
GRID*             107920               06.3900000000E+03-1.666666667E+01+
*       -1.666666667E+01               0
GRID*             107921               06.3900000000E+03-1.666666667E+01+
*       1.6666666667E+01               0
GRID*             107922               06.4000000000E+031.6666666667E+01+
*       1.6666666667E+01               0
GRID*             107923               06.4000000000E+031.6666666667E+01+
*       -1.666666667E+01               0
GRID*             107924               06.4000000000E+03-1.666666667E+01+
*       -1.666666667E+01               0
GRID*             107925               06.4000000000E+03-1.666666667E+01+
*       1.6666666667E+01               0
GRID*             107926               06.4100000000E+031.6666666667E+01+
*       1.6666666667E+01               0
GRID*             107927               06.4100000000E+031.6666666667E+01+
*       -1.666666667E+01               0
GRID*             107928               06.4100000000E+03-1.666666667E+01+
*       -1.666666667E+01               0
GRID*             107929               06.4100000000E+03-1.666666667E+01+
*       1.6666666667E+01               0
GRID*             107930               06.4200000000E+031.6666666667E+01+
*       1.6666666667E+01               0
GRID*             107931               06.4200000000E+031.6666666667E+01+
*       -1.666666667E+01               0
GRID*             107932               06.4200000000E+03-1.666666667E+01+
*       -1.666666667E+01               0
GRID*             107933               06.4200000000E+03-1.666666667E+01+
*       1.6666666667E+01               0
GRID*             107934               06.4300000000E+031.6666666667E+01+
*       1.6666666667E+01               0
GRID*             107935               06.4300000000E+031.6666666667E+01+
*       -1.666666667E+01               0
GRID*             107936               06.4300000000E+03-1.666666667E+01+
*       -1.666666667E+01               0
GRID*             107937               06.4300000000E+03-1.666666667E+01+
*       1.6666666667E+01               0
GRID*             107938               06.4400000000E+031.6666666667E+01+
*       1.6666666667E+01               0
GRID*             107939               06.4400000000E+031.6666666667E+01+
*       -1.666666667E+01               0
GRID*             107940               06.4400000000E+03-1.666666667E+01+
*       -1.666666667E+01               0
GRID*             107941               06.4400000000E+03-1.666666667E+01+
*       1.6666666667E+01               0
GRID*             107942               06.4500000000E+031.6666666667E+01+
*       1.6666666667E+01               0
GRID*             107943               06.4500000000E+031.6666666667E+01+
*       -1.666666667E+01               0
GRID*             107944               06.4500000000E+03-1.666666667E+01+
*       -1.666666667E+01               0
GRID*             107945               06.4500000000E+03-1.666666667E+01+
*       1.6666666667E+01               0
GRID*             107946               06.4600000000E+031.6666666667E+01+
*       1.6666666667E+01               0
GRID*             107947               06.4600000000E+031.6666666667E+01+
*       -1.666666667E+01               0
GRID*             107948               06.4600000000E+03-1.666666667E+01+
*       -1.666666667E+01               0
GRID*             107949               06.4600000000E+03-1.666666667E+01+
*       1.6666666667E+01               0
GRID*             107950               06.4700000000E+031.6666666667E+01+
*       1.6666666667E+01               0
GRID*             107951               06.4700000000E+031.6666666667E+01+
*       -1.666666667E+01               0
GRID*             107952               06.4700000000E+03-1.666666667E+01+
*       -1.666666667E+01               0
GRID*             107953               06.4700000000E+03-1.666666667E+01+
*       1.6666666667E+01               0
GRID*             107954               06.4800000000E+031.6666666667E+01+
*       1.6666666667E+01               0
GRID*             107955               06.4800000000E+031.6666666667E+01+
*       -1.666666667E+01               0
GRID*             107956               06.4800000000E+03-1.666666667E+01+
*       -1.666666667E+01               0
GRID*             107957               06.4800000000E+03-1.666666667E+01+
*       1.6666666667E+01               0
GRID*             107958               06.4900000000E+031.6666666667E+01+
*       1.6666666667E+01               0
GRID*             107959               06.4900000000E+031.6666666667E+01+
*       -1.666666667E+01               0
GRID*             107960               06.4900000000E+03-1.666666667E+01+
*       -1.666666667E+01               0
GRID*             107961               06.4900000000E+03-1.666666667E+01+
*       1.6666666667E+01               0
GRID*             107962               06.5000000000E+031.6666666667E+01+
*       1.6666666667E+01               0
GRID*             107963               06.5000000000E+031.6666666667E+01+
*       -1.666666667E+01               0
GRID*             107964               06.5000000000E+03-1.666666667E+01+
*       -1.666666667E+01               0
GRID*             107965               06.5000000000E+03-1.666666667E+01+
*       1.6666666667E+01               0
GRID*             107966               06.5100000000E+031.6666666667E+01+
*       1.6666666667E+01               0
GRID*             107967               06.5100000000E+031.6666666667E+01+
*       -1.666666667E+01               0
GRID*             107968               06.5100000000E+03-1.666666667E+01+
*       -1.666666667E+01               0
GRID*             107969               06.5100000000E+03-1.666666667E+01+
*       1.6666666667E+01               0
GRID*             107970               06.5200000000E+031.6666666667E+01+
*       1.6666666667E+01               0
GRID*             107971               06.5200000000E+031.6666666667E+01+
*       -1.666666667E+01               0
GRID*             107972               06.5200000000E+03-1.666666667E+01+
*       -1.666666667E+01               0
GRID*             107973               06.5200000000E+03-1.666666667E+01+
*       1.6666666667E+01               0
GRID*             107974               06.5300000000E+031.6666666667E+01+
*       1.6666666667E+01               0
GRID*             107975               06.5300000000E+031.6666666667E+01+
*       -1.666666667E+01               0
GRID*             107976               06.5300000000E+03-1.666666667E+01+
*       -1.666666667E+01               0
GRID*             107977               06.5300000000E+03-1.666666667E+01+
*       1.6666666667E+01               0
GRID*             107978               06.5400000000E+031.6666666667E+01+
*       1.6666666667E+01               0
GRID*             107979               06.5400000000E+031.6666666667E+01+
*       -1.666666667E+01               0
GRID*             107980               06.5400000000E+03-1.666666667E+01+
*       -1.666666667E+01               0
GRID*             107981               06.5400000000E+03-1.666666667E+01+
*       1.6666666667E+01               0
GRID*             107982               06.5500000000E+031.6666666667E+01+
*       1.6666666667E+01               0
GRID*             107983               06.5500000000E+031.6666666667E+01+
*       -1.666666667E+01               0
GRID*             107984               06.5500000000E+03-1.666666667E+01+
*       -1.666666667E+01               0
GRID*             107985               06.5500000000E+03-1.666666667E+01+
*       1.6666666667E+01               0
GRID*             107986               06.5600000000E+031.6666666667E+01+
*       1.6666666667E+01               0
GRID*             107987               06.5600000000E+031.6666666667E+01+
*       -1.666666667E+01               0
GRID*             107988               06.5600000000E+03-1.666666667E+01+
*       -1.666666667E+01               0
GRID*             107989               06.5600000000E+03-1.666666667E+01+
*       1.6666666667E+01               0
GRID*             107990               06.5700000000E+031.6666666667E+01+
*       1.6666666667E+01               0
GRID*             107991               06.5700000000E+031.6666666667E+01+
*       -1.666666667E+01               0
GRID*             107992               06.5700000000E+03-1.666666667E+01+
*       -1.666666667E+01               0
GRID*             107993               06.5700000000E+03-1.666666667E+01+
*       1.6666666667E+01               0
GRID*             107994               06.5800000000E+031.6666666667E+01+
*       1.6666666667E+01               0
GRID*             107995               06.5800000000E+031.6666666667E+01+
*       -1.666666667E+01               0
GRID*             107996               06.5800000000E+03-1.666666667E+01+
*       -1.666666667E+01               0
GRID*             107997               06.5800000000E+03-1.666666667E+01+
*       1.6666666667E+01               0
GRID*             107998               06.5900000000E+031.6666666667E+01+
*       1.6666666667E+01               0
GRID*             107999               06.5900000000E+031.6666666667E+01+
*       -1.666666667E+01               0
GRID*             108000               06.5900000000E+03-1.666666667E+01+
*       -1.666666667E+01               0
GRID*             108001               06.5900000000E+03-1.666666667E+01+
*       1.6666666667E+01               0
GRID*             108002               06.6000000000E+031.6666666667E+01+
*       1.6666666667E+01               0
GRID*             108003               06.6000000000E+031.6666666667E+01+
*       -1.666666667E+01               0
GRID*             108004               06.6000000000E+03-1.666666667E+01+
*       -1.666666667E+01               0
GRID*             108005               06.6000000000E+03-1.666666667E+01+
*       1.6666666667E+01               0
GRID*             108006               06.6100000000E+031.6666666667E+01+
*       1.6666666667E+01               0
GRID*             108007               06.6100000000E+031.6666666667E+01+
*       -1.666666667E+01               0
GRID*             108008               06.6100000000E+03-1.666666667E+01+
*       -1.666666667E+01               0
GRID*             108009               06.6100000000E+03-1.666666667E+01+
*       1.6666666667E+01               0
GRID*             108010               06.6200000000E+031.6666666667E+01+
*       1.6666666667E+01               0
GRID*             108011               06.6200000000E+031.6666666667E+01+
*       -1.666666667E+01               0
GRID*             108012               06.6200000000E+03-1.666666667E+01+
*       -1.666666667E+01               0
GRID*             108013               06.6200000000E+03-1.666666667E+01+
*       1.6666666667E+01               0
GRID*             108014               06.6300000000E+031.6666666667E+01+
*       1.6666666667E+01               0
GRID*             108015               06.6300000000E+031.6666666667E+01+
*       -1.666666667E+01               0
GRID*             108016               06.6300000000E+03-1.666666667E+01+
*       -1.666666667E+01               0
GRID*             108017               06.6300000000E+03-1.666666667E+01+
*       1.6666666667E+01               0
GRID*             108018               06.6400000000E+031.6666666667E+01+
*       1.6666666667E+01               0
GRID*             108019               06.6400000000E+031.6666666667E+01+
*       -1.666666667E+01               0
GRID*             108020               06.6400000000E+03-1.666666667E+01+
*       -1.666666667E+01               0
GRID*             108021               06.6400000000E+03-1.666666667E+01+
*       1.6666666667E+01               0
GRID*             108022               06.6500000000E+031.6666666667E+01+
*       1.6666666667E+01               0
GRID*             108023               06.6500000000E+031.6666666667E+01+
*       -1.666666667E+01               0
GRID*             108024               06.6500000000E+03-1.666666667E+01+
*       -1.666666667E+01               0
GRID*             108025               06.6500000000E+03-1.666666667E+01+
*       1.6666666667E+01               0
GRID*             108026               06.6600000000E+031.6666666667E+01+
*       1.6666666667E+01               0
GRID*             108027               06.6600000000E+031.6666666667E+01+
*       -1.666666667E+01               0
GRID*             108028               06.6600000000E+03-1.666666667E+01+
*       -1.666666667E+01               0
GRID*             108029               06.6600000000E+03-1.666666667E+01+
*       1.6666666667E+01               0
GRID*             108030               06.6700000000E+031.6666666667E+01+
*       1.6666666667E+01               0
GRID*             108031               06.6700000000E+031.6666666667E+01+
*       -1.666666667E+01               0
GRID*             108032               06.6700000000E+03-1.666666667E+01+
*       -1.666666667E+01               0
GRID*             108033               06.6700000000E+03-1.666666667E+01+
*       1.6666666667E+01               0
GRID*             108034               06.6800000000E+031.6666666667E+01+
*       1.6666666667E+01               0
GRID*             108035               06.6800000000E+031.6666666667E+01+
*       -1.666666667E+01               0
GRID*             108036               06.6800000000E+03-1.666666667E+01+
*       -1.666666667E+01               0
GRID*             108037               06.6800000000E+03-1.666666667E+01+
*       1.6666666667E+01               0
GRID*             108038               06.6900000000E+031.6666666667E+01+
*       1.6666666667E+01               0
GRID*             108039               06.6900000000E+031.6666666667E+01+
*       -1.666666667E+01               0
GRID*             108040               06.6900000000E+03-1.666666667E+01+
*       -1.666666667E+01               0
GRID*             108041               06.6900000000E+03-1.666666667E+01+
*       1.6666666667E+01               0
GRID*             108042               06.7000000000E+031.6666666667E+01+
*       1.6666666667E+01               0
GRID*             108043               06.7000000000E+031.6666666667E+01+
*       -1.666666667E+01               0
GRID*             108044               06.7000000000E+03-1.666666667E+01+
*       -1.666666667E+01               0
GRID*             108045               06.7000000000E+03-1.666666667E+01+
*       1.6666666667E+01               0
GRID*             108046               06.7100000000E+031.6666666667E+01+
*       1.6666666667E+01               0
GRID*             108047               06.7100000000E+031.6666666667E+01+
*       -1.666666667E+01               0
GRID*             108048               06.7100000000E+03-1.666666667E+01+
*       -1.666666667E+01               0
GRID*             108049               06.7100000000E+03-1.666666667E+01+
*       1.6666666667E+01               0
GRID*             108050               06.7200000000E+031.6666666667E+01+
*       1.6666666667E+01               0
GRID*             108051               06.7200000000E+031.6666666667E+01+
*       -1.666666667E+01               0
GRID*             108052               06.7200000000E+03-1.666666667E+01+
*       -1.666666667E+01               0
GRID*             108053               06.7200000000E+03-1.666666667E+01+
*       1.6666666667E+01               0
GRID*             108054               06.7300000000E+031.6666666667E+01+
*       1.6666666667E+01               0
GRID*             108055               06.7300000000E+031.6666666667E+01+
*       -1.666666667E+01               0
GRID*             108056               06.7300000000E+03-1.666666667E+01+
*       -1.666666667E+01               0
GRID*             108057               06.7300000000E+03-1.666666667E+01+
*       1.6666666667E+01               0
GRID*             108058               06.7400000000E+031.6666666667E+01+
*       1.6666666667E+01               0
GRID*             108059               06.7400000000E+031.6666666667E+01+
*       -1.666666667E+01               0
GRID*             108060               06.7400000000E+03-1.666666667E+01+
*       -1.666666667E+01               0
GRID*             108061               06.7400000000E+03-1.666666667E+01+
*       1.6666666667E+01               0
GRID*             108062               06.7500000000E+031.6666666667E+01+
*       1.6666666667E+01               0
GRID*             108063               06.7500000000E+031.6666666667E+01+
*       -1.666666667E+01               0
GRID*             108064               06.7500000000E+03-1.666666667E+01+
*       -1.666666667E+01               0
GRID*             108065               06.7500000000E+03-1.666666667E+01+
*       1.6666666667E+01               0
GRID*             108066               06.7600000000E+031.6666666667E+01+
*       1.6666666667E+01               0
GRID*             108067               06.7600000000E+031.6666666667E+01+
*       -1.666666667E+01               0
GRID*             108068               06.7600000000E+03-1.666666667E+01+
*       -1.666666667E+01               0
GRID*             108069               06.7600000000E+03-1.666666667E+01+
*       1.6666666667E+01               0
GRID*             108070               06.7700000000E+031.6666666667E+01+
*       1.6666666667E+01               0
GRID*             108071               06.7700000000E+031.6666666667E+01+
*       -1.666666667E+01               0
GRID*             108072               06.7700000000E+03-1.666666667E+01+
*       -1.666666667E+01               0
GRID*             108073               06.7700000000E+03-1.666666667E+01+
*       1.6666666667E+01               0
GRID*             108074               06.7800000000E+031.6666666667E+01+
*       1.6666666667E+01               0
GRID*             108075               06.7800000000E+031.6666666667E+01+
*       -1.666666667E+01               0
GRID*             108076               06.7800000000E+03-1.666666667E+01+
*       -1.666666667E+01               0
GRID*             108077               06.7800000000E+03-1.666666667E+01+
*       1.6666666667E+01               0
GRID*             108078               06.7900000000E+031.6666666667E+01+
*       1.6666666667E+01               0
GRID*             108079               06.7900000000E+031.6666666667E+01+
*       -1.666666667E+01               0
GRID*             108080               06.7900000000E+03-1.666666667E+01+
*       -1.666666667E+01               0
GRID*             108081               06.7900000000E+03-1.666666667E+01+
*       1.6666666667E+01               0
GRID*             108082               06.8000000000E+031.6666666667E+01+
*       1.6666666667E+01               0
GRID*             108083               06.8000000000E+031.6666666667E+01+
*       -1.666666667E+01               0
GRID*             108084               06.8000000000E+03-1.666666667E+01+
*       -1.666666667E+01               0
GRID*             108085               06.8000000000E+03-1.666666667E+01+
*       1.6666666667E+01               0
GRID*             108086               06.8100000000E+031.6666666667E+01+
*       1.6666666667E+01               0
GRID*             108087               06.8100000000E+031.6666666667E+01+
*       -1.666666667E+01               0
GRID*             108088               06.8100000000E+03-1.666666667E+01+
*       -1.666666667E+01               0
GRID*             108089               06.8100000000E+03-1.666666667E+01+
*       1.6666666667E+01               0
GRID*             108090               06.8200000000E+031.6666666667E+01+
*       1.6666666667E+01               0
GRID*             108091               06.8200000000E+031.6666666667E+01+
*       -1.666666667E+01               0
GRID*             108092               06.8200000000E+03-1.666666667E+01+
*       -1.666666667E+01               0
GRID*             108093               06.8200000000E+03-1.666666667E+01+
*       1.6666666667E+01               0
GRID*             108094               06.8300000000E+031.6666666667E+01+
*       1.6666666667E+01               0
GRID*             108095               06.8300000000E+031.6666666667E+01+
*       -1.666666667E+01               0
GRID*             108096               06.8300000000E+03-1.666666667E+01+
*       -1.666666667E+01               0
GRID*             108097               06.8300000000E+03-1.666666667E+01+
*       1.6666666667E+01               0
GRID*             108098               06.8400000000E+031.6666666667E+01+
*       1.6666666667E+01               0
GRID*             108099               06.8400000000E+031.6666666667E+01+
*       -1.666666667E+01               0
GRID*             108100               06.8400000000E+03-1.666666667E+01+
*       -1.666666667E+01               0
GRID*             108101               06.8400000000E+03-1.666666667E+01+
*       1.6666666667E+01               0
GRID*             108102               06.8500000000E+031.6666666667E+01+
*       1.6666666667E+01               0
GRID*             108103               06.8500000000E+031.6666666667E+01+
*       -1.666666667E+01               0
GRID*             108104               06.8500000000E+03-1.666666667E+01+
*       -1.666666667E+01               0
GRID*             108105               06.8500000000E+03-1.666666667E+01+
*       1.6666666667E+01               0
GRID*             108106               06.8600000000E+031.6666666667E+01+
*       1.6666666667E+01               0
GRID*             108107               06.8600000000E+031.6666666667E+01+
*       -1.666666667E+01               0
GRID*             108108               06.8600000000E+03-1.666666667E+01+
*       -1.666666667E+01               0
GRID*             108109               06.8600000000E+03-1.666666667E+01+
*       1.6666666667E+01               0
GRID*             108110               06.8700000000E+031.6666666667E+01+
*       1.6666666667E+01               0
GRID*             108111               06.8700000000E+031.6666666667E+01+
*       -1.666666667E+01               0
GRID*             108112               06.8700000000E+03-1.666666667E+01+
*       -1.666666667E+01               0
GRID*             108113               06.8700000000E+03-1.666666667E+01+
*       1.6666666667E+01               0
GRID*             108114               06.8800000000E+031.6666666667E+01+
*       1.6666666667E+01               0
GRID*             108115               06.8800000000E+031.6666666667E+01+
*       -1.666666667E+01               0
GRID*             108116               06.8800000000E+03-1.666666667E+01+
*       -1.666666667E+01               0
GRID*             108117               06.8800000000E+03-1.666666667E+01+
*       1.6666666667E+01               0
GRID*             108118               06.8900000000E+031.6666666667E+01+
*       1.6666666667E+01               0
GRID*             108119               06.8900000000E+031.6666666667E+01+
*       -1.666666667E+01               0
GRID*             108120               06.8900000000E+03-1.666666667E+01+
*       -1.666666667E+01               0
GRID*             108121               06.8900000000E+03-1.666666667E+01+
*       1.6666666667E+01               0
GRID*             108122               06.9000000000E+031.6666666667E+01+
*       1.6666666667E+01               0
GRID*             108123               06.9000000000E+031.6666666667E+01+
*       -1.666666667E+01               0
GRID*             108124               06.9000000000E+03-1.666666667E+01+
*       -1.666666667E+01               0
GRID*             108125               06.9000000000E+03-1.666666667E+01+
*       1.6666666667E+01               0
GRID*             108126               06.9100000000E+031.6666666667E+01+
*       1.6666666667E+01               0
GRID*             108127               06.9100000000E+031.6666666667E+01+
*       -1.666666667E+01               0
GRID*             108128               06.9100000000E+03-1.666666667E+01+
*       -1.666666667E+01               0
GRID*             108129               06.9100000000E+03-1.666666667E+01+
*       1.6666666667E+01               0
GRID*             108130               06.9200000000E+031.6666666667E+01+
*       1.6666666667E+01               0
GRID*             108131               06.9200000000E+031.6666666667E+01+
*       -1.666666667E+01               0
GRID*             108132               06.9200000000E+03-1.666666667E+01+
*       -1.666666667E+01               0
GRID*             108133               06.9200000000E+03-1.666666667E+01+
*       1.6666666667E+01               0
GRID*             108134               06.9300000000E+031.6666666667E+01+
*       1.6666666667E+01               0
GRID*             108135               06.9300000000E+031.6666666667E+01+
*       -1.666666667E+01               0
GRID*             108136               06.9300000000E+03-1.666666667E+01+
*       -1.666666667E+01               0
GRID*             108137               06.9300000000E+03-1.666666667E+01+
*       1.6666666667E+01               0
GRID*             108138               06.9400000000E+031.6666666667E+01+
*       1.6666666667E+01               0
GRID*             108139               06.9400000000E+031.6666666667E+01+
*       -1.666666667E+01               0
GRID*             108140               06.9400000000E+03-1.666666667E+01+
*       -1.666666667E+01               0
GRID*             108141               06.9400000000E+03-1.666666667E+01+
*       1.6666666667E+01               0
GRID*             108142               06.9500000000E+031.6666666667E+01+
*       1.6666666667E+01               0
GRID*             108143               06.9500000000E+031.6666666667E+01+
*       -1.666666667E+01               0
GRID*             108144               06.9500000000E+03-1.666666667E+01+
*       -1.666666667E+01               0
GRID*             108145               06.9500000000E+03-1.666666667E+01+
*       1.6666666667E+01               0
GRID*             108146               06.9600000000E+031.6666666667E+01+
*       1.6666666667E+01               0
GRID*             108147               06.9600000000E+031.6666666667E+01+
*       -1.666666667E+01               0
GRID*             108148               06.9600000000E+03-1.666666667E+01+
*       -1.666666667E+01               0
GRID*             108149               06.9600000000E+03-1.666666667E+01+
*       1.6666666667E+01               0
GRID*             108150               06.9700000000E+031.6666666667E+01+
*       1.6666666667E+01               0
GRID*             108151               06.9700000000E+031.6666666667E+01+
*       -1.666666667E+01               0
GRID*             108152               06.9700000000E+03-1.666666667E+01+
*       -1.666666667E+01               0
GRID*             108153               06.9700000000E+03-1.666666667E+01+
*       1.6666666667E+01               0
GRID*             108154               06.9800000000E+031.6666666667E+01+
*       1.6666666667E+01               0
GRID*             108155               06.9800000000E+031.6666666667E+01+
*       -1.666666667E+01               0
GRID*             108156               06.9800000000E+03-1.666666667E+01+
*       -1.666666667E+01               0
GRID*             108157               06.9800000000E+03-1.666666667E+01+
*       1.6666666667E+01               0
GRID*             108158               06.9900000000E+031.6666666667E+01+
*       1.6666666667E+01               0
GRID*             108159               06.9900000000E+031.6666666667E+01+
*       -1.666666667E+01               0
GRID*             108160               06.9900000000E+03-1.666666667E+01+
*       -1.666666667E+01               0
GRID*             108161               06.9900000000E+03-1.666666667E+01+
*       1.6666666667E+01               0
GRID*             108162               08.0000000000E+03-5.000000000E+01+
*       -5.000000000E+01               0
GRID*             108163               08.0000000000E+03-5.000000000E+01+
*       5.0000000000E+01               0
GRID*             108164               08.0000000000E+035.0000000000E+01+
*       -5.000000000E+01               0
GRID*             108165               08.0000000000E+035.0000000000E+01+
*       5.0000000000E+01               0
GRID*             108166               07.9900000000E+03-5.000000000E+01+
*       -5.000000000E+01               0
GRID*             108167               07.9800000000E+03-5.000000000E+01+
*       -5.000000000E+01               0
GRID*             108168               07.9700000000E+03-5.000000000E+01+
*       -5.000000000E+01               0
GRID*             108169               07.9600000000E+03-5.000000000E+01+
*       -5.000000000E+01               0
GRID*             108170               07.9500000000E+03-5.000000000E+01+
*       -5.000000000E+01               0
GRID*             108171               07.9400000000E+03-5.000000000E+01+
*       -5.000000000E+01               0
GRID*             108172               07.9300000000E+03-5.000000000E+01+
*       -5.000000000E+01               0
GRID*             108173               07.9200000000E+03-5.000000000E+01+
*       -5.000000000E+01               0
GRID*             108174               07.9100000000E+03-5.000000000E+01+
*       -5.000000000E+01               0
GRID*             108175               07.9000000000E+03-5.000000000E+01+
*       -5.000000000E+01               0
GRID*             108176               07.8900000000E+03-5.000000000E+01+
*       -5.000000000E+01               0
GRID*             108177               07.8800000000E+03-5.000000000E+01+
*       -5.000000000E+01               0
GRID*             108178               07.8700000000E+03-5.000000000E+01+
*       -5.000000000E+01               0
GRID*             108179               07.8600000000E+03-5.000000000E+01+
*       -5.000000000E+01               0
GRID*             108180               07.8500000000E+03-5.000000000E+01+
*       -5.000000000E+01               0
GRID*             108181               07.8400000000E+03-5.000000000E+01+
*       -5.000000000E+01               0
GRID*             108182               07.8300000000E+03-5.000000000E+01+
*       -5.000000000E+01               0
GRID*             108183               07.8200000000E+03-5.000000000E+01+
*       -5.000000000E+01               0
GRID*             108184               07.8100000000E+03-5.000000000E+01+
*       -5.000000000E+01               0
GRID*             108185               07.8000000000E+03-5.000000000E+01+
*       -5.000000000E+01               0
GRID*             108186               07.7900000000E+03-5.000000000E+01+
*       -5.000000000E+01               0
GRID*             108187               07.7800000000E+03-5.000000000E+01+
*       -5.000000000E+01               0
GRID*             108188               07.7700000000E+03-5.000000000E+01+
*       -5.000000000E+01               0
GRID*             108189               07.7600000000E+03-5.000000000E+01+
*       -5.000000000E+01               0
GRID*             108190               07.7500000000E+03-5.000000000E+01+
*       -5.000000000E+01               0
GRID*             108191               07.7400000000E+03-5.000000000E+01+
*       -5.000000000E+01               0
GRID*             108192               07.7300000000E+03-5.000000000E+01+
*       -5.000000000E+01               0
GRID*             108193               07.7200000000E+03-5.000000000E+01+
*       -5.000000000E+01               0
GRID*             108194               07.7100000000E+03-5.000000000E+01+
*       -5.000000000E+01               0
GRID*             108195               07.7000000000E+03-5.000000000E+01+
*       -5.000000000E+01               0
GRID*             108196               07.6900000000E+03-5.000000000E+01+
*       -5.000000000E+01               0
GRID*             108197               07.6800000000E+03-5.000000000E+01+
*       -5.000000000E+01               0
GRID*             108198               07.6700000000E+03-5.000000000E+01+
*       -5.000000000E+01               0
GRID*             108199               07.6600000000E+03-5.000000000E+01+
*       -5.000000000E+01               0
GRID*             108200               07.6500000000E+03-5.000000000E+01+
*       -5.000000000E+01               0
GRID*             108201               07.6400000000E+03-5.000000000E+01+
*       -5.000000000E+01               0
GRID*             108202               07.6300000000E+03-5.000000000E+01+
*       -5.000000000E+01               0
GRID*             108203               07.6200000000E+03-5.000000000E+01+
*       -5.000000000E+01               0
GRID*             108204               07.6100000000E+03-5.000000000E+01+
*       -5.000000000E+01               0
GRID*             108205               07.6000000000E+03-5.000000000E+01+
*       -5.000000000E+01               0
GRID*             108206               07.5900000000E+03-5.000000000E+01+
*       -5.000000000E+01               0
GRID*             108207               07.5800000000E+03-5.000000000E+01+
*       -5.000000000E+01               0
GRID*             108208               07.5700000000E+03-5.000000000E+01+
*       -5.000000000E+01               0
GRID*             108209               07.5600000000E+03-5.000000000E+01+
*       -5.000000000E+01               0
GRID*             108210               07.5500000000E+03-5.000000000E+01+
*       -5.000000000E+01               0
GRID*             108211               07.5400000000E+03-5.000000000E+01+
*       -5.000000000E+01               0
GRID*             108212               07.5300000000E+03-5.000000000E+01+
*       -5.000000000E+01               0
GRID*             108213               07.5200000000E+03-5.000000000E+01+
*       -5.000000000E+01               0
GRID*             108214               07.5100000000E+03-5.000000000E+01+
*       -5.000000000E+01               0
GRID*             108215               07.5000000000E+03-5.000000000E+01+
*       -5.000000000E+01               0
GRID*             108216               07.4900000000E+03-5.000000000E+01+
*       -5.000000000E+01               0
GRID*             108217               07.4800000000E+03-5.000000000E+01+
*       -5.000000000E+01               0
GRID*             108218               07.4700000000E+03-5.000000000E+01+
*       -5.000000000E+01               0
GRID*             108219               07.4600000000E+03-5.000000000E+01+
*       -5.000000000E+01               0
GRID*             108220               07.4500000000E+03-5.000000000E+01+
*       -5.000000000E+01               0
GRID*             108221               07.4400000000E+03-5.000000000E+01+
*       -5.000000000E+01               0
GRID*             108222               07.4300000000E+03-5.000000000E+01+
*       -5.000000000E+01               0
GRID*             108223               07.4200000000E+03-5.000000000E+01+
*       -5.000000000E+01               0
GRID*             108224               07.4100000000E+03-5.000000000E+01+
*       -5.000000000E+01               0
GRID*             108225               07.4000000000E+03-5.000000000E+01+
*       -5.000000000E+01               0
GRID*             108226               07.3900000000E+03-5.000000000E+01+
*       -5.000000000E+01               0
GRID*             108227               07.3800000000E+03-5.000000000E+01+
*       -5.000000000E+01               0
GRID*             108228               07.3700000000E+03-5.000000000E+01+
*       -5.000000000E+01               0
GRID*             108229               07.3600000000E+03-5.000000000E+01+
*       -5.000000000E+01               0
GRID*             108230               07.3500000000E+03-5.000000000E+01+
*       -5.000000000E+01               0
GRID*             108231               07.3400000000E+03-5.000000000E+01+
*       -5.000000000E+01               0
GRID*             108232               07.3300000000E+03-5.000000000E+01+
*       -5.000000000E+01               0
GRID*             108233               07.3200000000E+03-5.000000000E+01+
*       -5.000000000E+01               0
GRID*             108234               07.3100000000E+03-5.000000000E+01+
*       -5.000000000E+01               0
GRID*             108235               07.3000000000E+03-5.000000000E+01+
*       -5.000000000E+01               0
GRID*             108236               07.2900000000E+03-5.000000000E+01+
*       -5.000000000E+01               0
GRID*             108237               07.2800000000E+03-5.000000000E+01+
*       -5.000000000E+01               0
GRID*             108238               07.2700000000E+03-5.000000000E+01+
*       -5.000000000E+01               0
GRID*             108239               07.2600000000E+03-5.000000000E+01+
*       -5.000000000E+01               0
GRID*             108240               07.2500000000E+03-5.000000000E+01+
*       -5.000000000E+01               0
GRID*             108241               07.2400000000E+03-5.000000000E+01+
*       -5.000000000E+01               0
GRID*             108242               07.2300000000E+03-5.000000000E+01+
*       -5.000000000E+01               0
GRID*             108243               07.2200000000E+03-5.000000000E+01+
*       -5.000000000E+01               0
GRID*             108244               07.2100000000E+03-5.000000000E+01+
*       -5.000000000E+01               0
GRID*             108245               07.2000000000E+03-5.000000000E+01+
*       -5.000000000E+01               0
GRID*             108246               07.1900000000E+03-5.000000000E+01+
*       -5.000000000E+01               0
GRID*             108247               07.1800000000E+03-5.000000000E+01+
*       -5.000000000E+01               0
GRID*             108248               07.1700000000E+03-5.000000000E+01+
*       -5.000000000E+01               0
GRID*             108249               07.1600000000E+03-5.000000000E+01+
*       -5.000000000E+01               0
GRID*             108250               07.1500000000E+03-5.000000000E+01+
*       -5.000000000E+01               0
GRID*             108251               07.1400000000E+03-5.000000000E+01+
*       -5.000000000E+01               0
GRID*             108252               07.1300000000E+03-5.000000000E+01+
*       -5.000000000E+01               0
GRID*             108253               07.1200000000E+03-5.000000000E+01+
*       -5.000000000E+01               0
GRID*             108254               07.1100000000E+03-5.000000000E+01+
*       -5.000000000E+01               0
GRID*             108255               07.1000000000E+03-5.000000000E+01+
*       -5.000000000E+01               0
GRID*             108256               07.0900000000E+03-5.000000000E+01+
*       -5.000000000E+01               0
GRID*             108257               07.0800000000E+03-5.000000000E+01+
*       -5.000000000E+01               0
GRID*             108258               07.0700000000E+03-5.000000000E+01+
*       -5.000000000E+01               0
GRID*             108259               07.0600000000E+03-5.000000000E+01+
*       -5.000000000E+01               0
GRID*             108260               07.0500000000E+03-5.000000000E+01+
*       -5.000000000E+01               0
GRID*             108261               07.0400000000E+03-5.000000000E+01+
*       -5.000000000E+01               0
GRID*             108262               07.0300000000E+03-5.000000000E+01+
*       -5.000000000E+01               0
GRID*             108263               07.0200000000E+03-5.000000000E+01+
*       -5.000000000E+01               0
GRID*             108264               07.0100000000E+03-5.000000000E+01+
*       -5.000000000E+01               0
GRID*             108265               07.9900000000E+03-5.000000000E+01+
*       5.0000000000E+01               0
GRID*             108266               07.9800000000E+03-5.000000000E+01+
*       5.0000000000E+01               0
GRID*             108267               07.9700000000E+03-5.000000000E+01+
*       5.0000000000E+01               0
GRID*             108268               07.9600000000E+03-5.000000000E+01+
*       5.0000000000E+01               0
GRID*             108269               07.9500000000E+03-5.000000000E+01+
*       5.0000000000E+01               0
GRID*             108270               07.9400000000E+03-5.000000000E+01+
*       5.0000000000E+01               0
GRID*             108271               07.9300000000E+03-5.000000000E+01+
*       5.0000000000E+01               0
GRID*             108272               07.9200000000E+03-5.000000000E+01+
*       5.0000000000E+01               0
GRID*             108273               07.9100000000E+03-5.000000000E+01+
*       5.0000000000E+01               0
GRID*             108274               07.9000000000E+03-5.000000000E+01+
*       5.0000000000E+01               0
GRID*             108275               07.8900000000E+03-5.000000000E+01+
*       5.0000000000E+01               0
GRID*             108276               07.8800000000E+03-5.000000000E+01+
*       5.0000000000E+01               0
GRID*             108277               07.8700000000E+03-5.000000000E+01+
*       5.0000000000E+01               0
GRID*             108278               07.8600000000E+03-5.000000000E+01+
*       5.0000000000E+01               0
GRID*             108279               07.8500000000E+03-5.000000000E+01+
*       5.0000000000E+01               0
GRID*             108280               07.8400000000E+03-5.000000000E+01+
*       5.0000000000E+01               0
GRID*             108281               07.8300000000E+03-5.000000000E+01+
*       5.0000000000E+01               0
GRID*             108282               07.8200000000E+03-5.000000000E+01+
*       5.0000000000E+01               0
GRID*             108283               07.8100000000E+03-5.000000000E+01+
*       5.0000000000E+01               0
GRID*             108284               07.8000000000E+03-5.000000000E+01+
*       5.0000000000E+01               0
GRID*             108285               07.7900000000E+03-5.000000000E+01+
*       5.0000000000E+01               0
GRID*             108286               07.7800000000E+03-5.000000000E+01+
*       5.0000000000E+01               0
GRID*             108287               07.7700000000E+03-5.000000000E+01+
*       5.0000000000E+01               0
GRID*             108288               07.7600000000E+03-5.000000000E+01+
*       5.0000000000E+01               0
GRID*             108289               07.7500000000E+03-5.000000000E+01+
*       5.0000000000E+01               0
GRID*             108290               07.7400000000E+03-5.000000000E+01+
*       5.0000000000E+01               0
GRID*             108291               07.7300000000E+03-5.000000000E+01+
*       5.0000000000E+01               0
GRID*             108292               07.7200000000E+03-5.000000000E+01+
*       5.0000000000E+01               0
GRID*             108293               07.7100000000E+03-5.000000000E+01+
*       5.0000000000E+01               0
GRID*             108294               07.7000000000E+03-5.000000000E+01+
*       5.0000000000E+01               0
GRID*             108295               07.6900000000E+03-5.000000000E+01+
*       5.0000000000E+01               0
GRID*             108296               07.6800000000E+03-5.000000000E+01+
*       5.0000000000E+01               0
GRID*             108297               07.6700000000E+03-5.000000000E+01+
*       5.0000000000E+01               0
GRID*             108298               07.6600000000E+03-5.000000000E+01+
*       5.0000000000E+01               0
GRID*             108299               07.6500000000E+03-5.000000000E+01+
*       5.0000000000E+01               0
GRID*             108300               07.6400000000E+03-5.000000000E+01+
*       5.0000000000E+01               0
GRID*             108301               07.6300000000E+03-5.000000000E+01+
*       5.0000000000E+01               0
GRID*             108302               07.6200000000E+03-5.000000000E+01+
*       5.0000000000E+01               0
GRID*             108303               07.6100000000E+03-5.000000000E+01+
*       5.0000000000E+01               0
GRID*             108304               07.6000000000E+03-5.000000000E+01+
*       5.0000000000E+01               0
GRID*             108305               07.5900000000E+03-5.000000000E+01+
*       5.0000000000E+01               0
GRID*             108306               07.5800000000E+03-5.000000000E+01+
*       5.0000000000E+01               0
GRID*             108307               07.5700000000E+03-5.000000000E+01+
*       5.0000000000E+01               0
GRID*             108308               07.5600000000E+03-5.000000000E+01+
*       5.0000000000E+01               0
GRID*             108309               07.5500000000E+03-5.000000000E+01+
*       5.0000000000E+01               0
GRID*             108310               07.5400000000E+03-5.000000000E+01+
*       5.0000000000E+01               0
GRID*             108311               07.5300000000E+03-5.000000000E+01+
*       5.0000000000E+01               0
GRID*             108312               07.5200000000E+03-5.000000000E+01+
*       5.0000000000E+01               0
GRID*             108313               07.5100000000E+03-5.000000000E+01+
*       5.0000000000E+01               0
GRID*             108314               07.5000000000E+03-5.000000000E+01+
*       5.0000000000E+01               0
GRID*             108315               07.4900000000E+03-5.000000000E+01+
*       5.0000000000E+01               0
GRID*             108316               07.4800000000E+03-5.000000000E+01+
*       5.0000000000E+01               0
GRID*             108317               07.4700000000E+03-5.000000000E+01+
*       5.0000000000E+01               0
GRID*             108318               07.4600000000E+03-5.000000000E+01+
*       5.0000000000E+01               0
GRID*             108319               07.4500000000E+03-5.000000000E+01+
*       5.0000000000E+01               0
GRID*             108320               07.4400000000E+03-5.000000000E+01+
*       5.0000000000E+01               0
GRID*             108321               07.4300000000E+03-5.000000000E+01+
*       5.0000000000E+01               0
GRID*             108322               07.4200000000E+03-5.000000000E+01+
*       5.0000000000E+01               0
GRID*             108323               07.4100000000E+03-5.000000000E+01+
*       5.0000000000E+01               0
GRID*             108324               07.4000000000E+03-5.000000000E+01+
*       5.0000000000E+01               0
GRID*             108325               07.3900000000E+03-5.000000000E+01+
*       5.0000000000E+01               0
GRID*             108326               07.3800000000E+03-5.000000000E+01+
*       5.0000000000E+01               0
GRID*             108327               07.3700000000E+03-5.000000000E+01+
*       5.0000000000E+01               0
GRID*             108328               07.3600000000E+03-5.000000000E+01+
*       5.0000000000E+01               0
GRID*             108329               07.3500000000E+03-5.000000000E+01+
*       5.0000000000E+01               0
GRID*             108330               07.3400000000E+03-5.000000000E+01+
*       5.0000000000E+01               0
GRID*             108331               07.3300000000E+03-5.000000000E+01+
*       5.0000000000E+01               0
GRID*             108332               07.3200000000E+03-5.000000000E+01+
*       5.0000000000E+01               0
GRID*             108333               07.3100000000E+03-5.000000000E+01+
*       5.0000000000E+01               0
GRID*             108334               07.3000000000E+03-5.000000000E+01+
*       5.0000000000E+01               0
GRID*             108335               07.2900000000E+03-5.000000000E+01+
*       5.0000000000E+01               0
GRID*             108336               07.2800000000E+03-5.000000000E+01+
*       5.0000000000E+01               0
GRID*             108337               07.2700000000E+03-5.000000000E+01+
*       5.0000000000E+01               0
GRID*             108338               07.2600000000E+03-5.000000000E+01+
*       5.0000000000E+01               0
GRID*             108339               07.2500000000E+03-5.000000000E+01+
*       5.0000000000E+01               0
GRID*             108340               07.2400000000E+03-5.000000000E+01+
*       5.0000000000E+01               0
GRID*             108341               07.2300000000E+03-5.000000000E+01+
*       5.0000000000E+01               0
GRID*             108342               07.2200000000E+03-5.000000000E+01+
*       5.0000000000E+01               0
GRID*             108343               07.2100000000E+03-5.000000000E+01+
*       5.0000000000E+01               0
GRID*             108344               07.2000000000E+03-5.000000000E+01+
*       5.0000000000E+01               0
GRID*             108345               07.1900000000E+03-5.000000000E+01+
*       5.0000000000E+01               0
GRID*             108346               07.1800000000E+03-5.000000000E+01+
*       5.0000000000E+01               0
GRID*             108347               07.1700000000E+03-5.000000000E+01+
*       5.0000000000E+01               0
GRID*             108348               07.1600000000E+03-5.000000000E+01+
*       5.0000000000E+01               0
GRID*             108349               07.1500000000E+03-5.000000000E+01+
*       5.0000000000E+01               0
GRID*             108350               07.1400000000E+03-5.000000000E+01+
*       5.0000000000E+01               0
GRID*             108351               07.1300000000E+03-5.000000000E+01+
*       5.0000000000E+01               0
GRID*             108352               07.1200000000E+03-5.000000000E+01+
*       5.0000000000E+01               0
GRID*             108353               07.1100000000E+03-5.000000000E+01+
*       5.0000000000E+01               0
GRID*             108354               07.1000000000E+03-5.000000000E+01+
*       5.0000000000E+01               0
GRID*             108355               07.0900000000E+03-5.000000000E+01+
*       5.0000000000E+01               0
GRID*             108356               07.0800000000E+03-5.000000000E+01+
*       5.0000000000E+01               0
GRID*             108357               07.0700000000E+03-5.000000000E+01+
*       5.0000000000E+01               0
GRID*             108358               07.0600000000E+03-5.000000000E+01+
*       5.0000000000E+01               0
GRID*             108359               07.0500000000E+03-5.000000000E+01+
*       5.0000000000E+01               0
GRID*             108360               07.0400000000E+03-5.000000000E+01+
*       5.0000000000E+01               0
GRID*             108361               07.0300000000E+03-5.000000000E+01+
*       5.0000000000E+01               0
GRID*             108362               07.0200000000E+03-5.000000000E+01+
*       5.0000000000E+01               0
GRID*             108363               07.0100000000E+03-5.000000000E+01+
*       5.0000000000E+01               0
GRID*             108364               07.9900000000E+035.0000000000E+01+
*       -5.000000000E+01               0
GRID*             108365               07.9800000000E+035.0000000000E+01+
*       -5.000000000E+01               0
GRID*             108366               07.9700000000E+035.0000000000E+01+
*       -5.000000000E+01               0
GRID*             108367               07.9600000000E+035.0000000000E+01+
*       -5.000000000E+01               0
GRID*             108368               07.9500000000E+035.0000000000E+01+
*       -5.000000000E+01               0
GRID*             108369               07.9400000000E+035.0000000000E+01+
*       -5.000000000E+01               0
GRID*             108370               07.9300000000E+035.0000000000E+01+
*       -5.000000000E+01               0
GRID*             108371               07.9200000000E+035.0000000000E+01+
*       -5.000000000E+01               0
GRID*             108372               07.9100000000E+035.0000000000E+01+
*       -5.000000000E+01               0
GRID*             108373               07.9000000000E+035.0000000000E+01+
*       -5.000000000E+01               0
GRID*             108374               07.8900000000E+035.0000000000E+01+
*       -5.000000000E+01               0
GRID*             108375               07.8800000000E+035.0000000000E+01+
*       -5.000000000E+01               0
GRID*             108376               07.8700000000E+035.0000000000E+01+
*       -5.000000000E+01               0
GRID*             108377               07.8600000000E+035.0000000000E+01+
*       -5.000000000E+01               0
GRID*             108378               07.8500000000E+035.0000000000E+01+
*       -5.000000000E+01               0
GRID*             108379               07.8400000000E+035.0000000000E+01+
*       -5.000000000E+01               0
GRID*             108380               07.8300000000E+035.0000000000E+01+
*       -5.000000000E+01               0
GRID*             108381               07.8200000000E+035.0000000000E+01+
*       -5.000000000E+01               0
GRID*             108382               07.8100000000E+035.0000000000E+01+
*       -5.000000000E+01               0
GRID*             108383               07.8000000000E+035.0000000000E+01+
*       -5.000000000E+01               0
GRID*             108384               07.7900000000E+035.0000000000E+01+
*       -5.000000000E+01               0
GRID*             108385               07.7800000000E+035.0000000000E+01+
*       -5.000000000E+01               0
GRID*             108386               07.7700000000E+035.0000000000E+01+
*       -5.000000000E+01               0
GRID*             108387               07.7600000000E+035.0000000000E+01+
*       -5.000000000E+01               0
GRID*             108388               07.7500000000E+035.0000000000E+01+
*       -5.000000000E+01               0
GRID*             108389               07.7400000000E+035.0000000000E+01+
*       -5.000000000E+01               0
GRID*             108390               07.7300000000E+035.0000000000E+01+
*       -5.000000000E+01               0
GRID*             108391               07.7200000000E+035.0000000000E+01+
*       -5.000000000E+01               0
GRID*             108392               07.7100000000E+035.0000000000E+01+
*       -5.000000000E+01               0
GRID*             108393               07.7000000000E+035.0000000000E+01+
*       -5.000000000E+01               0
GRID*             108394               07.6900000000E+035.0000000000E+01+
*       -5.000000000E+01               0
GRID*             108395               07.6800000000E+035.0000000000E+01+
*       -5.000000000E+01               0
GRID*             108396               07.6700000000E+035.0000000000E+01+
*       -5.000000000E+01               0
GRID*             108397               07.6600000000E+035.0000000000E+01+
*       -5.000000000E+01               0
GRID*             108398               07.6500000000E+035.0000000000E+01+
*       -5.000000000E+01               0
GRID*             108399               07.6400000000E+035.0000000000E+01+
*       -5.000000000E+01               0
GRID*             108400               07.6300000000E+035.0000000000E+01+
*       -5.000000000E+01               0
GRID*             108401               07.6200000000E+035.0000000000E+01+
*       -5.000000000E+01               0
GRID*             108402               07.6100000000E+035.0000000000E+01+
*       -5.000000000E+01               0
GRID*             108403               07.6000000000E+035.0000000000E+01+
*       -5.000000000E+01               0
GRID*             108404               07.5900000000E+035.0000000000E+01+
*       -5.000000000E+01               0
GRID*             108405               07.5800000000E+035.0000000000E+01+
*       -5.000000000E+01               0
GRID*             108406               07.5700000000E+035.0000000000E+01+
*       -5.000000000E+01               0
GRID*             108407               07.5600000000E+035.0000000000E+01+
*       -5.000000000E+01               0
GRID*             108408               07.5500000000E+035.0000000000E+01+
*       -5.000000000E+01               0
GRID*             108409               07.5400000000E+035.0000000000E+01+
*       -5.000000000E+01               0
GRID*             108410               07.5300000000E+035.0000000000E+01+
*       -5.000000000E+01               0
GRID*             108411               07.5200000000E+035.0000000000E+01+
*       -5.000000000E+01               0
GRID*             108412               07.5100000000E+035.0000000000E+01+
*       -5.000000000E+01               0
GRID*             108413               07.5000000000E+035.0000000000E+01+
*       -5.000000000E+01               0
GRID*             108414               07.4900000000E+035.0000000000E+01+
*       -5.000000000E+01               0
GRID*             108415               07.4800000000E+035.0000000000E+01+
*       -5.000000000E+01               0
GRID*             108416               07.4700000000E+035.0000000000E+01+
*       -5.000000000E+01               0
GRID*             108417               07.4600000000E+035.0000000000E+01+
*       -5.000000000E+01               0
GRID*             108418               07.4500000000E+035.0000000000E+01+
*       -5.000000000E+01               0
GRID*             108419               07.4400000000E+035.0000000000E+01+
*       -5.000000000E+01               0
GRID*             108420               07.4300000000E+035.0000000000E+01+
*       -5.000000000E+01               0
GRID*             108421               07.4200000000E+035.0000000000E+01+
*       -5.000000000E+01               0
GRID*             108422               07.4100000000E+035.0000000000E+01+
*       -5.000000000E+01               0
GRID*             108423               07.4000000000E+035.0000000000E+01+
*       -5.000000000E+01               0
GRID*             108424               07.3900000000E+035.0000000000E+01+
*       -5.000000000E+01               0
GRID*             108425               07.3800000000E+035.0000000000E+01+
*       -5.000000000E+01               0
GRID*             108426               07.3700000000E+035.0000000000E+01+
*       -5.000000000E+01               0
GRID*             108427               07.3600000000E+035.0000000000E+01+
*       -5.000000000E+01               0
GRID*             108428               07.3500000000E+035.0000000000E+01+
*       -5.000000000E+01               0
GRID*             108429               07.3400000000E+035.0000000000E+01+
*       -5.000000000E+01               0
GRID*             108430               07.3300000000E+035.0000000000E+01+
*       -5.000000000E+01               0
GRID*             108431               07.3200000000E+035.0000000000E+01+
*       -5.000000000E+01               0
GRID*             108432               07.3100000000E+035.0000000000E+01+
*       -5.000000000E+01               0
GRID*             108433               07.3000000000E+035.0000000000E+01+
*       -5.000000000E+01               0
GRID*             108434               07.2900000000E+035.0000000000E+01+
*       -5.000000000E+01               0
GRID*             108435               07.2800000000E+035.0000000000E+01+
*       -5.000000000E+01               0
GRID*             108436               07.2700000000E+035.0000000000E+01+
*       -5.000000000E+01               0
GRID*             108437               07.2600000000E+035.0000000000E+01+
*       -5.000000000E+01               0
GRID*             108438               07.2500000000E+035.0000000000E+01+
*       -5.000000000E+01               0
GRID*             108439               07.2400000000E+035.0000000000E+01+
*       -5.000000000E+01               0
GRID*             108440               07.2300000000E+035.0000000000E+01+
*       -5.000000000E+01               0
GRID*             108441               07.2200000000E+035.0000000000E+01+
*       -5.000000000E+01               0
GRID*             108442               07.2100000000E+035.0000000000E+01+
*       -5.000000000E+01               0
GRID*             108443               07.2000000000E+035.0000000000E+01+
*       -5.000000000E+01               0
GRID*             108444               07.1900000000E+035.0000000000E+01+
*       -5.000000000E+01               0
GRID*             108445               07.1800000000E+035.0000000000E+01+
*       -5.000000000E+01               0
GRID*             108446               07.1700000000E+035.0000000000E+01+
*       -5.000000000E+01               0
GRID*             108447               07.1600000000E+035.0000000000E+01+
*       -5.000000000E+01               0
GRID*             108448               07.1500000000E+035.0000000000E+01+
*       -5.000000000E+01               0
GRID*             108449               07.1400000000E+035.0000000000E+01+
*       -5.000000000E+01               0
GRID*             108450               07.1300000000E+035.0000000000E+01+
*       -5.000000000E+01               0
GRID*             108451               07.1200000000E+035.0000000000E+01+
*       -5.000000000E+01               0
GRID*             108452               07.1100000000E+035.0000000000E+01+
*       -5.000000000E+01               0
GRID*             108453               07.1000000000E+035.0000000000E+01+
*       -5.000000000E+01               0
GRID*             108454               07.0900000000E+035.0000000000E+01+
*       -5.000000000E+01               0
GRID*             108455               07.0800000000E+035.0000000000E+01+
*       -5.000000000E+01               0
GRID*             108456               07.0700000000E+035.0000000000E+01+
*       -5.000000000E+01               0
GRID*             108457               07.0600000000E+035.0000000000E+01+
*       -5.000000000E+01               0
GRID*             108458               07.0500000000E+035.0000000000E+01+
*       -5.000000000E+01               0
GRID*             108459               07.0400000000E+035.0000000000E+01+
*       -5.000000000E+01               0
GRID*             108460               07.0300000000E+035.0000000000E+01+
*       -5.000000000E+01               0
GRID*             108461               07.0200000000E+035.0000000000E+01+
*       -5.000000000E+01               0
GRID*             108462               07.0100000000E+035.0000000000E+01+
*       -5.000000000E+01               0
GRID*             108463               07.9900000000E+035.0000000000E+01+
*       5.0000000000E+01               0
GRID*             108464               07.9800000000E+035.0000000000E+01+
*       5.0000000000E+01               0
GRID*             108465               07.9700000000E+035.0000000000E+01+
*       5.0000000000E+01               0
GRID*             108466               07.9600000000E+035.0000000000E+01+
*       5.0000000000E+01               0
GRID*             108467               07.9500000000E+035.0000000000E+01+
*       5.0000000000E+01               0
GRID*             108468               07.9400000000E+035.0000000000E+01+
*       5.0000000000E+01               0
GRID*             108469               07.9300000000E+035.0000000000E+01+
*       5.0000000000E+01               0
GRID*             108470               07.9200000000E+035.0000000000E+01+
*       5.0000000000E+01               0
GRID*             108471               07.9100000000E+035.0000000000E+01+
*       5.0000000000E+01               0
GRID*             108472               07.9000000000E+035.0000000000E+01+
*       5.0000000000E+01               0
GRID*             108473               07.8900000000E+035.0000000000E+01+
*       5.0000000000E+01               0
GRID*             108474               07.8800000000E+035.0000000000E+01+
*       5.0000000000E+01               0
GRID*             108475               07.8700000000E+035.0000000000E+01+
*       5.0000000000E+01               0
GRID*             108476               07.8600000000E+035.0000000000E+01+
*       5.0000000000E+01               0
GRID*             108477               07.8500000000E+035.0000000000E+01+
*       5.0000000000E+01               0
GRID*             108478               07.8400000000E+035.0000000000E+01+
*       5.0000000000E+01               0
GRID*             108479               07.8300000000E+035.0000000000E+01+
*       5.0000000000E+01               0
GRID*             108480               07.8200000000E+035.0000000000E+01+
*       5.0000000000E+01               0
GRID*             108481               07.8100000000E+035.0000000000E+01+
*       5.0000000000E+01               0
GRID*             108482               07.8000000000E+035.0000000000E+01+
*       5.0000000000E+01               0
GRID*             108483               07.7900000000E+035.0000000000E+01+
*       5.0000000000E+01               0
GRID*             108484               07.7800000000E+035.0000000000E+01+
*       5.0000000000E+01               0
GRID*             108485               07.7700000000E+035.0000000000E+01+
*       5.0000000000E+01               0
GRID*             108486               07.7600000000E+035.0000000000E+01+
*       5.0000000000E+01               0
GRID*             108487               07.7500000000E+035.0000000000E+01+
*       5.0000000000E+01               0
GRID*             108488               07.7400000000E+035.0000000000E+01+
*       5.0000000000E+01               0
GRID*             108489               07.7300000000E+035.0000000000E+01+
*       5.0000000000E+01               0
GRID*             108490               07.7200000000E+035.0000000000E+01+
*       5.0000000000E+01               0
GRID*             108491               07.7100000000E+035.0000000000E+01+
*       5.0000000000E+01               0
GRID*             108492               07.7000000000E+035.0000000000E+01+
*       5.0000000000E+01               0
GRID*             108493               07.6900000000E+035.0000000000E+01+
*       5.0000000000E+01               0
GRID*             108494               07.6800000000E+035.0000000000E+01+
*       5.0000000000E+01               0
GRID*             108495               07.6700000000E+035.0000000000E+01+
*       5.0000000000E+01               0
GRID*             108496               07.6600000000E+035.0000000000E+01+
*       5.0000000000E+01               0
GRID*             108497               07.6500000000E+035.0000000000E+01+
*       5.0000000000E+01               0
GRID*             108498               07.6400000000E+035.0000000000E+01+
*       5.0000000000E+01               0
GRID*             108499               07.6300000000E+035.0000000000E+01+
*       5.0000000000E+01               0
GRID*             108500               07.6200000000E+035.0000000000E+01+
*       5.0000000000E+01               0
GRID*             108501               07.6100000000E+035.0000000000E+01+
*       5.0000000000E+01               0
GRID*             108502               07.6000000000E+035.0000000000E+01+
*       5.0000000000E+01               0
GRID*             108503               07.5900000000E+035.0000000000E+01+
*       5.0000000000E+01               0
GRID*             108504               07.5800000000E+035.0000000000E+01+
*       5.0000000000E+01               0
GRID*             108505               07.5700000000E+035.0000000000E+01+
*       5.0000000000E+01               0
GRID*             108506               07.5600000000E+035.0000000000E+01+
*       5.0000000000E+01               0
GRID*             108507               07.5500000000E+035.0000000000E+01+
*       5.0000000000E+01               0
GRID*             108508               07.5400000000E+035.0000000000E+01+
*       5.0000000000E+01               0
GRID*             108509               07.5300000000E+035.0000000000E+01+
*       5.0000000000E+01               0
GRID*             108510               07.5200000000E+035.0000000000E+01+
*       5.0000000000E+01               0
GRID*             108511               07.5100000000E+035.0000000000E+01+
*       5.0000000000E+01               0
GRID*             108512               07.5000000000E+035.0000000000E+01+
*       5.0000000000E+01               0
GRID*             108513               07.4900000000E+035.0000000000E+01+
*       5.0000000000E+01               0
GRID*             108514               07.4800000000E+035.0000000000E+01+
*       5.0000000000E+01               0
GRID*             108515               07.4700000000E+035.0000000000E+01+
*       5.0000000000E+01               0
GRID*             108516               07.4600000000E+035.0000000000E+01+
*       5.0000000000E+01               0
GRID*             108517               07.4500000000E+035.0000000000E+01+
*       5.0000000000E+01               0
GRID*             108518               07.4400000000E+035.0000000000E+01+
*       5.0000000000E+01               0
GRID*             108519               07.4300000000E+035.0000000000E+01+
*       5.0000000000E+01               0
GRID*             108520               07.4200000000E+035.0000000000E+01+
*       5.0000000000E+01               0
GRID*             108521               07.4100000000E+035.0000000000E+01+
*       5.0000000000E+01               0
GRID*             108522               07.4000000000E+035.0000000000E+01+
*       5.0000000000E+01               0
GRID*             108523               07.3900000000E+035.0000000000E+01+
*       5.0000000000E+01               0
GRID*             108524               07.3800000000E+035.0000000000E+01+
*       5.0000000000E+01               0
GRID*             108525               07.3700000000E+035.0000000000E+01+
*       5.0000000000E+01               0
GRID*             108526               07.3600000000E+035.0000000000E+01+
*       5.0000000000E+01               0
GRID*             108527               07.3500000000E+035.0000000000E+01+
*       5.0000000000E+01               0
GRID*             108528               07.3400000000E+035.0000000000E+01+
*       5.0000000000E+01               0
GRID*             108529               07.3300000000E+035.0000000000E+01+
*       5.0000000000E+01               0
GRID*             108530               07.3200000000E+035.0000000000E+01+
*       5.0000000000E+01               0
GRID*             108531               07.3100000000E+035.0000000000E+01+
*       5.0000000000E+01               0
GRID*             108532               07.3000000000E+035.0000000000E+01+
*       5.0000000000E+01               0
GRID*             108533               07.2900000000E+035.0000000000E+01+
*       5.0000000000E+01               0
GRID*             108534               07.2800000000E+035.0000000000E+01+
*       5.0000000000E+01               0
GRID*             108535               07.2700000000E+035.0000000000E+01+
*       5.0000000000E+01               0
GRID*             108536               07.2600000000E+035.0000000000E+01+
*       5.0000000000E+01               0
GRID*             108537               07.2500000000E+035.0000000000E+01+
*       5.0000000000E+01               0
GRID*             108538               07.2400000000E+035.0000000000E+01+
*       5.0000000000E+01               0
GRID*             108539               07.2300000000E+035.0000000000E+01+
*       5.0000000000E+01               0
GRID*             108540               07.2200000000E+035.0000000000E+01+
*       5.0000000000E+01               0
GRID*             108541               07.2100000000E+035.0000000000E+01+
*       5.0000000000E+01               0
GRID*             108542               07.2000000000E+035.0000000000E+01+
*       5.0000000000E+01               0
GRID*             108543               07.1900000000E+035.0000000000E+01+
*       5.0000000000E+01               0
GRID*             108544               07.1800000000E+035.0000000000E+01+
*       5.0000000000E+01               0
GRID*             108545               07.1700000000E+035.0000000000E+01+
*       5.0000000000E+01               0
GRID*             108546               07.1600000000E+035.0000000000E+01+
*       5.0000000000E+01               0
GRID*             108547               07.1500000000E+035.0000000000E+01+
*       5.0000000000E+01               0
GRID*             108548               07.1400000000E+035.0000000000E+01+
*       5.0000000000E+01               0
GRID*             108549               07.1300000000E+035.0000000000E+01+
*       5.0000000000E+01               0
GRID*             108550               07.1200000000E+035.0000000000E+01+
*       5.0000000000E+01               0
GRID*             108551               07.1100000000E+035.0000000000E+01+
*       5.0000000000E+01               0
GRID*             108552               07.1000000000E+035.0000000000E+01+
*       5.0000000000E+01               0
GRID*             108553               07.0900000000E+035.0000000000E+01+
*       5.0000000000E+01               0
GRID*             108554               07.0800000000E+035.0000000000E+01+
*       5.0000000000E+01               0
GRID*             108555               07.0700000000E+035.0000000000E+01+
*       5.0000000000E+01               0
GRID*             108556               07.0600000000E+035.0000000000E+01+
*       5.0000000000E+01               0
GRID*             108557               07.0500000000E+035.0000000000E+01+
*       5.0000000000E+01               0
GRID*             108558               07.0400000000E+035.0000000000E+01+
*       5.0000000000E+01               0
GRID*             108559               07.0300000000E+035.0000000000E+01+
*       5.0000000000E+01               0
GRID*             108560               07.0200000000E+035.0000000000E+01+
*       5.0000000000E+01               0
GRID*             108561               07.0100000000E+035.0000000000E+01+
*       5.0000000000E+01               0
GRID*             108562               08.0000000000E+03-5.000000000E+01+
*       -1.666666667E+01               0
GRID*             108563               08.0000000000E+03-5.000000000E+01+
*       1.6666666667E+01               0
GRID*             108564               08.0000000000E+031.6666666667E+01+
*       -5.000000000E+01               0
GRID*             108565               08.0000000000E+03-1.666666667E+01+
*       -5.000000000E+01               0
GRID*             108566               08.0000000000E+03-1.666666667E+01+
*       5.0000000000E+01               0
GRID*             108567               08.0000000000E+031.6666666667E+01+
*       5.0000000000E+01               0
GRID*             108568               08.0000000000E+035.0000000000E+01+
*       1.6666666667E+01               0
GRID*             108569               08.0000000000E+035.0000000000E+01+
*       -1.666666667E+01               0
GRID*             108570               07.9900000000E+03-5.000000000E+01+
*       1.6666666667E+01               0
GRID*             108571               07.9900000000E+03-5.000000000E+01+
*       -1.666666667E+01               0
GRID*             108572               07.9800000000E+03-5.000000000E+01+
*       1.6666666667E+01               0
GRID*             108573               07.9800000000E+03-5.000000000E+01+
*       -1.666666667E+01               0
GRID*             108574               07.9700000000E+03-5.000000000E+01+
*       1.6666666667E+01               0
GRID*             108575               07.9700000000E+03-5.000000000E+01+
*       -1.666666667E+01               0
GRID*             108576               07.9600000000E+03-5.000000000E+01+
*       1.6666666667E+01               0
GRID*             108577               07.9600000000E+03-5.000000000E+01+
*       -1.666666667E+01               0
GRID*             108578               07.9500000000E+03-5.000000000E+01+
*       1.6666666667E+01               0
GRID*             108579               07.9500000000E+03-5.000000000E+01+
*       -1.666666667E+01               0
GRID*             108580               07.9400000000E+03-5.000000000E+01+
*       1.6666666667E+01               0
GRID*             108581               07.9400000000E+03-5.000000000E+01+
*       -1.666666667E+01               0
GRID*             108582               07.9300000000E+03-5.000000000E+01+
*       1.6666666667E+01               0
GRID*             108583               07.9300000000E+03-5.000000000E+01+
*       -1.666666667E+01               0
GRID*             108584               07.9200000000E+03-5.000000000E+01+
*       1.6666666667E+01               0
GRID*             108585               07.9200000000E+03-5.000000000E+01+
*       -1.666666667E+01               0
GRID*             108586               07.9100000000E+03-5.000000000E+01+
*       1.6666666667E+01               0
GRID*             108587               07.9100000000E+03-5.000000000E+01+
*       -1.666666667E+01               0
GRID*             108588               07.9000000000E+03-5.000000000E+01+
*       1.6666666667E+01               0
GRID*             108589               07.9000000000E+03-5.000000000E+01+
*       -1.666666667E+01               0
GRID*             108590               07.8900000000E+03-5.000000000E+01+
*       1.6666666667E+01               0
GRID*             108591               07.8900000000E+03-5.000000000E+01+
*       -1.666666667E+01               0
GRID*             108592               07.8800000000E+03-5.000000000E+01+
*       1.6666666667E+01               0
GRID*             108593               07.8800000000E+03-5.000000000E+01+
*       -1.666666667E+01               0
GRID*             108594               07.8700000000E+03-5.000000000E+01+
*       1.6666666667E+01               0
GRID*             108595               07.8700000000E+03-5.000000000E+01+
*       -1.666666667E+01               0
GRID*             108596               07.8600000000E+03-5.000000000E+01+
*       1.6666666667E+01               0
GRID*             108597               07.8600000000E+03-5.000000000E+01+
*       -1.666666667E+01               0
GRID*             108598               07.8500000000E+03-5.000000000E+01+
*       1.6666666667E+01               0
GRID*             108599               07.8500000000E+03-5.000000000E+01+
*       -1.666666667E+01               0
GRID*             108600               07.8400000000E+03-5.000000000E+01+
*       1.6666666667E+01               0
GRID*             108601               07.8400000000E+03-5.000000000E+01+
*       -1.666666667E+01               0
GRID*             108602               07.8300000000E+03-5.000000000E+01+
*       1.6666666667E+01               0
GRID*             108603               07.8300000000E+03-5.000000000E+01+
*       -1.666666667E+01               0
GRID*             108604               07.8200000000E+03-5.000000000E+01+
*       1.6666666667E+01               0
GRID*             108605               07.8200000000E+03-5.000000000E+01+
*       -1.666666667E+01               0
GRID*             108606               07.8100000000E+03-5.000000000E+01+
*       1.6666666667E+01               0
GRID*             108607               07.8100000000E+03-5.000000000E+01+
*       -1.666666667E+01               0
GRID*             108608               07.8000000000E+03-5.000000000E+01+
*       1.6666666667E+01               0
GRID*             108609               07.8000000000E+03-5.000000000E+01+
*       -1.666666667E+01               0
GRID*             108610               07.7900000000E+03-5.000000000E+01+
*       1.6666666667E+01               0
GRID*             108611               07.7900000000E+03-5.000000000E+01+
*       -1.666666667E+01               0
GRID*             108612               07.7800000000E+03-5.000000000E+01+
*       1.6666666667E+01               0
GRID*             108613               07.7800000000E+03-5.000000000E+01+
*       -1.666666667E+01               0
GRID*             108614               07.7700000000E+03-5.000000000E+01+
*       1.6666666667E+01               0
GRID*             108615               07.7700000000E+03-5.000000000E+01+
*       -1.666666667E+01               0
GRID*             108616               07.7600000000E+03-5.000000000E+01+
*       1.6666666667E+01               0
GRID*             108617               07.7600000000E+03-5.000000000E+01+
*       -1.666666667E+01               0
GRID*             108618               07.7500000000E+03-5.000000000E+01+
*       1.6666666667E+01               0
GRID*             108619               07.7500000000E+03-5.000000000E+01+
*       -1.666666667E+01               0
GRID*             108620               07.7400000000E+03-5.000000000E+01+
*       1.6666666667E+01               0
GRID*             108621               07.7400000000E+03-5.000000000E+01+
*       -1.666666667E+01               0
GRID*             108622               07.7300000000E+03-5.000000000E+01+
*       1.6666666667E+01               0
GRID*             108623               07.7300000000E+03-5.000000000E+01+
*       -1.666666667E+01               0
GRID*             108624               07.7200000000E+03-5.000000000E+01+
*       1.6666666667E+01               0
GRID*             108625               07.7200000000E+03-5.000000000E+01+
*       -1.666666667E+01               0
GRID*             108626               07.7100000000E+03-5.000000000E+01+
*       1.6666666667E+01               0
GRID*             108627               07.7100000000E+03-5.000000000E+01+
*       -1.666666667E+01               0
GRID*             108628               07.7000000000E+03-5.000000000E+01+
*       1.6666666667E+01               0
GRID*             108629               07.7000000000E+03-5.000000000E+01+
*       -1.666666667E+01               0
GRID*             108630               07.6900000000E+03-5.000000000E+01+
*       1.6666666667E+01               0
GRID*             108631               07.6900000000E+03-5.000000000E+01+
*       -1.666666667E+01               0
GRID*             108632               07.6800000000E+03-5.000000000E+01+
*       1.6666666667E+01               0
GRID*             108633               07.6800000000E+03-5.000000000E+01+
*       -1.666666667E+01               0
GRID*             108634               07.6700000000E+03-5.000000000E+01+
*       1.6666666667E+01               0
GRID*             108635               07.6700000000E+03-5.000000000E+01+
*       -1.666666667E+01               0
GRID*             108636               07.6600000000E+03-5.000000000E+01+
*       1.6666666667E+01               0
GRID*             108637               07.6600000000E+03-5.000000000E+01+
*       -1.666666667E+01               0
GRID*             108638               07.6500000000E+03-5.000000000E+01+
*       1.6666666667E+01               0
GRID*             108639               07.6500000000E+03-5.000000000E+01+
*       -1.666666667E+01               0
GRID*             108640               07.6400000000E+03-5.000000000E+01+
*       1.6666666667E+01               0
GRID*             108641               07.6400000000E+03-5.000000000E+01+
*       -1.666666667E+01               0
GRID*             108642               07.6300000000E+03-5.000000000E+01+
*       1.6666666667E+01               0
GRID*             108643               07.6300000000E+03-5.000000000E+01+
*       -1.666666667E+01               0
GRID*             108644               07.6200000000E+03-5.000000000E+01+
*       1.6666666667E+01               0
GRID*             108645               07.6200000000E+03-5.000000000E+01+
*       -1.666666667E+01               0
GRID*             108646               07.6100000000E+03-5.000000000E+01+
*       1.6666666667E+01               0
GRID*             108647               07.6100000000E+03-5.000000000E+01+
*       -1.666666667E+01               0
GRID*             108648               07.6000000000E+03-5.000000000E+01+
*       1.6666666667E+01               0
GRID*             108649               07.6000000000E+03-5.000000000E+01+
*       -1.666666667E+01               0
GRID*             108650               07.5900000000E+03-5.000000000E+01+
*       1.6666666667E+01               0
GRID*             108651               07.5900000000E+03-5.000000000E+01+
*       -1.666666667E+01               0
GRID*             108652               07.5800000000E+03-5.000000000E+01+
*       1.6666666667E+01               0
GRID*             108653               07.5800000000E+03-5.000000000E+01+
*       -1.666666667E+01               0
GRID*             108654               07.5700000000E+03-5.000000000E+01+
*       1.6666666667E+01               0
GRID*             108655               07.5700000000E+03-5.000000000E+01+
*       -1.666666667E+01               0
GRID*             108656               07.5600000000E+03-5.000000000E+01+
*       1.6666666667E+01               0
GRID*             108657               07.5600000000E+03-5.000000000E+01+
*       -1.666666667E+01               0
GRID*             108658               07.5500000000E+03-5.000000000E+01+
*       1.6666666667E+01               0
GRID*             108659               07.5500000000E+03-5.000000000E+01+
*       -1.666666667E+01               0
GRID*             108660               07.5400000000E+03-5.000000000E+01+
*       1.6666666667E+01               0
GRID*             108661               07.5400000000E+03-5.000000000E+01+
*       -1.666666667E+01               0
GRID*             108662               07.5300000000E+03-5.000000000E+01+
*       1.6666666667E+01               0
GRID*             108663               07.5300000000E+03-5.000000000E+01+
*       -1.666666667E+01               0
GRID*             108664               07.5200000000E+03-5.000000000E+01+
*       1.6666666667E+01               0
GRID*             108665               07.5200000000E+03-5.000000000E+01+
*       -1.666666667E+01               0
GRID*             108666               07.5100000000E+03-5.000000000E+01+
*       1.6666666667E+01               0
GRID*             108667               07.5100000000E+03-5.000000000E+01+
*       -1.666666667E+01               0
GRID*             108668               07.5000000000E+03-5.000000000E+01+
*       1.6666666667E+01               0
GRID*             108669               07.5000000000E+03-5.000000000E+01+
*       -1.666666667E+01               0
GRID*             108670               07.4900000000E+03-5.000000000E+01+
*       1.6666666667E+01               0
GRID*             108671               07.4900000000E+03-5.000000000E+01+
*       -1.666666667E+01               0
GRID*             108672               07.4800000000E+03-5.000000000E+01+
*       1.6666666667E+01               0
GRID*             108673               07.4800000000E+03-5.000000000E+01+
*       -1.666666667E+01               0
GRID*             108674               07.4700000000E+03-5.000000000E+01+
*       1.6666666667E+01               0
GRID*             108675               07.4700000000E+03-5.000000000E+01+
*       -1.666666667E+01               0
GRID*             108676               07.4600000000E+03-5.000000000E+01+
*       1.6666666667E+01               0
GRID*             108677               07.4600000000E+03-5.000000000E+01+
*       -1.666666667E+01               0
GRID*             108678               07.4500000000E+03-5.000000000E+01+
*       1.6666666667E+01               0
GRID*             108679               07.4500000000E+03-5.000000000E+01+
*       -1.666666667E+01               0
GRID*             108680               07.4400000000E+03-5.000000000E+01+
*       1.6666666667E+01               0
GRID*             108681               07.4400000000E+03-5.000000000E+01+
*       -1.666666667E+01               0
GRID*             108682               07.4300000000E+03-5.000000000E+01+
*       1.6666666667E+01               0
GRID*             108683               07.4300000000E+03-5.000000000E+01+
*       -1.666666667E+01               0
GRID*             108684               07.4200000000E+03-5.000000000E+01+
*       1.6666666667E+01               0
GRID*             108685               07.4200000000E+03-5.000000000E+01+
*       -1.666666667E+01               0
GRID*             108686               07.4100000000E+03-5.000000000E+01+
*       1.6666666667E+01               0
GRID*             108687               07.4100000000E+03-5.000000000E+01+
*       -1.666666667E+01               0
GRID*             108688               07.4000000000E+03-5.000000000E+01+
*       1.6666666667E+01               0
GRID*             108689               07.4000000000E+03-5.000000000E+01+
*       -1.666666667E+01               0
GRID*             108690               07.3900000000E+03-5.000000000E+01+
*       1.6666666667E+01               0
GRID*             108691               07.3900000000E+03-5.000000000E+01+
*       -1.666666667E+01               0
GRID*             108692               07.3800000000E+03-5.000000000E+01+
*       1.6666666667E+01               0
GRID*             108693               07.3800000000E+03-5.000000000E+01+
*       -1.666666667E+01               0
GRID*             108694               07.3700000000E+03-5.000000000E+01+
*       1.6666666667E+01               0
GRID*             108695               07.3700000000E+03-5.000000000E+01+
*       -1.666666667E+01               0
GRID*             108696               07.3600000000E+03-5.000000000E+01+
*       1.6666666667E+01               0
GRID*             108697               07.3600000000E+03-5.000000000E+01+
*       -1.666666667E+01               0
GRID*             108698               07.3500000000E+03-5.000000000E+01+
*       1.6666666667E+01               0
GRID*             108699               07.3500000000E+03-5.000000000E+01+
*       -1.666666667E+01               0
GRID*             108700               07.3400000000E+03-5.000000000E+01+
*       1.6666666667E+01               0
GRID*             108701               07.3400000000E+03-5.000000000E+01+
*       -1.666666667E+01               0
GRID*             108702               07.3300000000E+03-5.000000000E+01+
*       1.6666666667E+01               0
GRID*             108703               07.3300000000E+03-5.000000000E+01+
*       -1.666666667E+01               0
GRID*             108704               07.3200000000E+03-5.000000000E+01+
*       1.6666666667E+01               0
GRID*             108705               07.3200000000E+03-5.000000000E+01+
*       -1.666666667E+01               0
GRID*             108706               07.3100000000E+03-5.000000000E+01+
*       1.6666666667E+01               0
GRID*             108707               07.3100000000E+03-5.000000000E+01+
*       -1.666666667E+01               0
GRID*             108708               07.3000000000E+03-5.000000000E+01+
*       1.6666666667E+01               0
GRID*             108709               07.3000000000E+03-5.000000000E+01+
*       -1.666666667E+01               0
GRID*             108710               07.2900000000E+03-5.000000000E+01+
*       1.6666666667E+01               0
GRID*             108711               07.2900000000E+03-5.000000000E+01+
*       -1.666666667E+01               0
GRID*             108712               07.2800000000E+03-5.000000000E+01+
*       1.6666666667E+01               0
GRID*             108713               07.2800000000E+03-5.000000000E+01+
*       -1.666666667E+01               0
GRID*             108714               07.2700000000E+03-5.000000000E+01+
*       1.6666666667E+01               0
GRID*             108715               07.2700000000E+03-5.000000000E+01+
*       -1.666666667E+01               0
GRID*             108716               07.2600000000E+03-5.000000000E+01+
*       1.6666666667E+01               0
GRID*             108717               07.2600000000E+03-5.000000000E+01+
*       -1.666666667E+01               0
GRID*             108718               07.2500000000E+03-5.000000000E+01+
*       1.6666666667E+01               0
GRID*             108719               07.2500000000E+03-5.000000000E+01+
*       -1.666666667E+01               0
GRID*             108720               07.2400000000E+03-5.000000000E+01+
*       1.6666666667E+01               0
GRID*             108721               07.2400000000E+03-5.000000000E+01+
*       -1.666666667E+01               0
GRID*             108722               07.2300000000E+03-5.000000000E+01+
*       1.6666666667E+01               0
GRID*             108723               07.2300000000E+03-5.000000000E+01+
*       -1.666666667E+01               0
GRID*             108724               07.2200000000E+03-5.000000000E+01+
*       1.6666666667E+01               0
GRID*             108725               07.2200000000E+03-5.000000000E+01+
*       -1.666666667E+01               0
GRID*             108726               07.2100000000E+03-5.000000000E+01+
*       1.6666666667E+01               0
GRID*             108727               07.2100000000E+03-5.000000000E+01+
*       -1.666666667E+01               0
GRID*             108728               07.2000000000E+03-5.000000000E+01+
*       1.6666666667E+01               0
GRID*             108729               07.2000000000E+03-5.000000000E+01+
*       -1.666666667E+01               0
GRID*             108730               07.1900000000E+03-5.000000000E+01+
*       1.6666666667E+01               0
GRID*             108731               07.1900000000E+03-5.000000000E+01+
*       -1.666666667E+01               0
GRID*             108732               07.1800000000E+03-5.000000000E+01+
*       1.6666666667E+01               0
GRID*             108733               07.1800000000E+03-5.000000000E+01+
*       -1.666666667E+01               0
GRID*             108734               07.1700000000E+03-5.000000000E+01+
*       1.6666666667E+01               0
GRID*             108735               07.1700000000E+03-5.000000000E+01+
*       -1.666666667E+01               0
GRID*             108736               07.1600000000E+03-5.000000000E+01+
*       1.6666666667E+01               0
GRID*             108737               07.1600000000E+03-5.000000000E+01+
*       -1.666666667E+01               0
GRID*             108738               07.1500000000E+03-5.000000000E+01+
*       1.6666666667E+01               0
GRID*             108739               07.1500000000E+03-5.000000000E+01+
*       -1.666666667E+01               0
GRID*             108740               07.1400000000E+03-5.000000000E+01+
*       1.6666666667E+01               0
GRID*             108741               07.1400000000E+03-5.000000000E+01+
*       -1.666666667E+01               0
GRID*             108742               07.1300000000E+03-5.000000000E+01+
*       1.6666666667E+01               0
GRID*             108743               07.1300000000E+03-5.000000000E+01+
*       -1.666666667E+01               0
GRID*             108744               07.1200000000E+03-5.000000000E+01+
*       1.6666666667E+01               0
GRID*             108745               07.1200000000E+03-5.000000000E+01+
*       -1.666666667E+01               0
GRID*             108746               07.1100000000E+03-5.000000000E+01+
*       1.6666666667E+01               0
GRID*             108747               07.1100000000E+03-5.000000000E+01+
*       -1.666666667E+01               0
GRID*             108748               07.1000000000E+03-5.000000000E+01+
*       1.6666666667E+01               0
GRID*             108749               07.1000000000E+03-5.000000000E+01+
*       -1.666666667E+01               0
GRID*             108750               07.0900000000E+03-5.000000000E+01+
*       1.6666666667E+01               0
GRID*             108751               07.0900000000E+03-5.000000000E+01+
*       -1.666666667E+01               0
GRID*             108752               07.0800000000E+03-5.000000000E+01+
*       1.6666666667E+01               0
GRID*             108753               07.0800000000E+03-5.000000000E+01+
*       -1.666666667E+01               0
GRID*             108754               07.0700000000E+03-5.000000000E+01+
*       1.6666666667E+01               0
GRID*             108755               07.0700000000E+03-5.000000000E+01+
*       -1.666666667E+01               0
GRID*             108756               07.0600000000E+03-5.000000000E+01+
*       1.6666666667E+01               0
GRID*             108757               07.0600000000E+03-5.000000000E+01+
*       -1.666666667E+01               0
GRID*             108758               07.0500000000E+03-5.000000000E+01+
*       1.6666666667E+01               0
GRID*             108759               07.0500000000E+03-5.000000000E+01+
*       -1.666666667E+01               0
GRID*             108760               07.0400000000E+03-5.000000000E+01+
*       1.6666666667E+01               0
GRID*             108761               07.0400000000E+03-5.000000000E+01+
*       -1.666666667E+01               0
GRID*             108762               07.0300000000E+03-5.000000000E+01+
*       1.6666666667E+01               0
GRID*             108763               07.0300000000E+03-5.000000000E+01+
*       -1.666666667E+01               0
GRID*             108764               07.0200000000E+03-5.000000000E+01+
*       1.6666666667E+01               0
GRID*             108765               07.0200000000E+03-5.000000000E+01+
*       -1.666666667E+01               0
GRID*             108766               07.0100000000E+03-5.000000000E+01+
*       1.6666666667E+01               0
GRID*             108767               07.0100000000E+03-5.000000000E+01+
*       -1.666666667E+01               0
GRID*             108768               07.0100000000E+031.6666666667E+01+
*       -5.000000000E+01               0
GRID*             108769               07.0100000000E+03-1.666666667E+01+
*       -5.000000000E+01               0
GRID*             108770               07.0200000000E+031.6666666667E+01+
*       -5.000000000E+01               0
GRID*             108771               07.0200000000E+03-1.666666667E+01+
*       -5.000000000E+01               0
GRID*             108772               07.0300000000E+031.6666666667E+01+
*       -5.000000000E+01               0
GRID*             108773               07.0300000000E+03-1.666666667E+01+
*       -5.000000000E+01               0
GRID*             108774               07.0400000000E+031.6666666667E+01+
*       -5.000000000E+01               0
GRID*             108775               07.0400000000E+03-1.666666667E+01+
*       -5.000000000E+01               0
GRID*             108776               07.0500000000E+031.6666666667E+01+
*       -5.000000000E+01               0
GRID*             108777               07.0500000000E+03-1.666666667E+01+
*       -5.000000000E+01               0
GRID*             108778               07.0600000000E+031.6666666667E+01+
*       -5.000000000E+01               0
GRID*             108779               07.0600000000E+03-1.666666667E+01+
*       -5.000000000E+01               0
GRID*             108780               07.0700000000E+031.6666666667E+01+
*       -5.000000000E+01               0
GRID*             108781               07.0700000000E+03-1.666666667E+01+
*       -5.000000000E+01               0
GRID*             108782               07.0800000000E+031.6666666667E+01+
*       -5.000000000E+01               0
GRID*             108783               07.0800000000E+03-1.666666667E+01+
*       -5.000000000E+01               0
GRID*             108784               07.0900000000E+031.6666666667E+01+
*       -5.000000000E+01               0
GRID*             108785               07.0900000000E+03-1.666666667E+01+
*       -5.000000000E+01               0
GRID*             108786               07.1000000000E+031.6666666667E+01+
*       -5.000000000E+01               0
GRID*             108787               07.1000000000E+03-1.666666667E+01+
*       -5.000000000E+01               0
GRID*             108788               07.1100000000E+031.6666666667E+01+
*       -5.000000000E+01               0
GRID*             108789               07.1100000000E+03-1.666666667E+01+
*       -5.000000000E+01               0
GRID*             108790               07.1200000000E+031.6666666667E+01+
*       -5.000000000E+01               0
GRID*             108791               07.1200000000E+03-1.666666667E+01+
*       -5.000000000E+01               0
GRID*             108792               07.1300000000E+031.6666666667E+01+
*       -5.000000000E+01               0
GRID*             108793               07.1300000000E+03-1.666666667E+01+
*       -5.000000000E+01               0
GRID*             108794               07.1400000000E+031.6666666667E+01+
*       -5.000000000E+01               0
GRID*             108795               07.1400000000E+03-1.666666667E+01+
*       -5.000000000E+01               0
GRID*             108796               07.1500000000E+031.6666666667E+01+
*       -5.000000000E+01               0
GRID*             108797               07.1500000000E+03-1.666666667E+01+
*       -5.000000000E+01               0
GRID*             108798               07.1600000000E+031.6666666667E+01+
*       -5.000000000E+01               0
GRID*             108799               07.1600000000E+03-1.666666667E+01+
*       -5.000000000E+01               0
GRID*             108800               07.1700000000E+031.6666666667E+01+
*       -5.000000000E+01               0
GRID*             108801               07.1700000000E+03-1.666666667E+01+
*       -5.000000000E+01               0
GRID*             108802               07.1800000000E+031.6666666667E+01+
*       -5.000000000E+01               0
GRID*             108803               07.1800000000E+03-1.666666667E+01+
*       -5.000000000E+01               0
GRID*             108804               07.1900000000E+031.6666666667E+01+
*       -5.000000000E+01               0
GRID*             108805               07.1900000000E+03-1.666666667E+01+
*       -5.000000000E+01               0
GRID*             108806               07.2000000000E+031.6666666667E+01+
*       -5.000000000E+01               0
GRID*             108807               07.2000000000E+03-1.666666667E+01+
*       -5.000000000E+01               0
GRID*             108808               07.2100000000E+031.6666666667E+01+
*       -5.000000000E+01               0
GRID*             108809               07.2100000000E+03-1.666666667E+01+
*       -5.000000000E+01               0
GRID*             108810               07.2200000000E+031.6666666667E+01+
*       -5.000000000E+01               0
GRID*             108811               07.2200000000E+03-1.666666667E+01+
*       -5.000000000E+01               0
GRID*             108812               07.2300000000E+031.6666666667E+01+
*       -5.000000000E+01               0
GRID*             108813               07.2300000000E+03-1.666666667E+01+
*       -5.000000000E+01               0
GRID*             108814               07.2400000000E+031.6666666667E+01+
*       -5.000000000E+01               0
GRID*             108815               07.2400000000E+03-1.666666667E+01+
*       -5.000000000E+01               0
GRID*             108816               07.2500000000E+031.6666666667E+01+
*       -5.000000000E+01               0
GRID*             108817               07.2500000000E+03-1.666666667E+01+
*       -5.000000000E+01               0
GRID*             108818               07.2600000000E+031.6666666667E+01+
*       -5.000000000E+01               0
GRID*             108819               07.2600000000E+03-1.666666667E+01+
*       -5.000000000E+01               0
GRID*             108820               07.2700000000E+031.6666666667E+01+
*       -5.000000000E+01               0
GRID*             108821               07.2700000000E+03-1.666666667E+01+
*       -5.000000000E+01               0
GRID*             108822               07.2800000000E+031.6666666667E+01+
*       -5.000000000E+01               0
GRID*             108823               07.2800000000E+03-1.666666667E+01+
*       -5.000000000E+01               0
GRID*             108824               07.2900000000E+031.6666666667E+01+
*       -5.000000000E+01               0
GRID*             108825               07.2900000000E+03-1.666666667E+01+
*       -5.000000000E+01               0
GRID*             108826               07.3000000000E+031.6666666667E+01+
*       -5.000000000E+01               0
GRID*             108827               07.3000000000E+03-1.666666667E+01+
*       -5.000000000E+01               0
GRID*             108828               07.3100000000E+031.6666666667E+01+
*       -5.000000000E+01               0
GRID*             108829               07.3100000000E+03-1.666666667E+01+
*       -5.000000000E+01               0
GRID*             108830               07.3200000000E+031.6666666667E+01+
*       -5.000000000E+01               0
GRID*             108831               07.3200000000E+03-1.666666667E+01+
*       -5.000000000E+01               0
GRID*             108832               07.3300000000E+031.6666666667E+01+
*       -5.000000000E+01               0
GRID*             108833               07.3300000000E+03-1.666666667E+01+
*       -5.000000000E+01               0
GRID*             108834               07.3400000000E+031.6666666667E+01+
*       -5.000000000E+01               0
GRID*             108835               07.3400000000E+03-1.666666667E+01+
*       -5.000000000E+01               0
GRID*             108836               07.3500000000E+031.6666666667E+01+
*       -5.000000000E+01               0
GRID*             108837               07.3500000000E+03-1.666666667E+01+
*       -5.000000000E+01               0
GRID*             108838               07.3600000000E+031.6666666667E+01+
*       -5.000000000E+01               0
GRID*             108839               07.3600000000E+03-1.666666667E+01+
*       -5.000000000E+01               0
GRID*             108840               07.3700000000E+031.6666666667E+01+
*       -5.000000000E+01               0
GRID*             108841               07.3700000000E+03-1.666666667E+01+
*       -5.000000000E+01               0
GRID*             108842               07.3800000000E+031.6666666667E+01+
*       -5.000000000E+01               0
GRID*             108843               07.3800000000E+03-1.666666667E+01+
*       -5.000000000E+01               0
GRID*             108844               07.3900000000E+031.6666666667E+01+
*       -5.000000000E+01               0
GRID*             108845               07.3900000000E+03-1.666666667E+01+
*       -5.000000000E+01               0
GRID*             108846               07.4000000000E+031.6666666667E+01+
*       -5.000000000E+01               0
GRID*             108847               07.4000000000E+03-1.666666667E+01+
*       -5.000000000E+01               0
GRID*             108848               07.4100000000E+031.6666666667E+01+
*       -5.000000000E+01               0
GRID*             108849               07.4100000000E+03-1.666666667E+01+
*       -5.000000000E+01               0
GRID*             108850               07.4200000000E+031.6666666667E+01+
*       -5.000000000E+01               0
GRID*             108851               07.4200000000E+03-1.666666667E+01+
*       -5.000000000E+01               0
GRID*             108852               07.4300000000E+031.6666666667E+01+
*       -5.000000000E+01               0
GRID*             108853               07.4300000000E+03-1.666666667E+01+
*       -5.000000000E+01               0
GRID*             108854               07.4400000000E+031.6666666667E+01+
*       -5.000000000E+01               0
GRID*             108855               07.4400000000E+03-1.666666667E+01+
*       -5.000000000E+01               0
GRID*             108856               07.4500000000E+031.6666666667E+01+
*       -5.000000000E+01               0
GRID*             108857               07.4500000000E+03-1.666666667E+01+
*       -5.000000000E+01               0
GRID*             108858               07.4600000000E+031.6666666667E+01+
*       -5.000000000E+01               0
GRID*             108859               07.4600000000E+03-1.666666667E+01+
*       -5.000000000E+01               0
GRID*             108860               07.4700000000E+031.6666666667E+01+
*       -5.000000000E+01               0
GRID*             108861               07.4700000000E+03-1.666666667E+01+
*       -5.000000000E+01               0
GRID*             108862               07.4800000000E+031.6666666667E+01+
*       -5.000000000E+01               0
GRID*             108863               07.4800000000E+03-1.666666667E+01+
*       -5.000000000E+01               0
GRID*             108864               07.4900000000E+031.6666666667E+01+
*       -5.000000000E+01               0
GRID*             108865               07.4900000000E+03-1.666666667E+01+
*       -5.000000000E+01               0
GRID*             108866               07.5000000000E+031.6666666667E+01+
*       -5.000000000E+01               0
GRID*             108867               07.5000000000E+03-1.666666667E+01+
*       -5.000000000E+01               0
GRID*             108868               07.5100000000E+031.6666666667E+01+
*       -5.000000000E+01               0
GRID*             108869               07.5100000000E+03-1.666666667E+01+
*       -5.000000000E+01               0
GRID*             108870               07.5200000000E+031.6666666667E+01+
*       -5.000000000E+01               0
GRID*             108871               07.5200000000E+03-1.666666667E+01+
*       -5.000000000E+01               0
GRID*             108872               07.5300000000E+031.6666666667E+01+
*       -5.000000000E+01               0
GRID*             108873               07.5300000000E+03-1.666666667E+01+
*       -5.000000000E+01               0
GRID*             108874               07.5400000000E+031.6666666667E+01+
*       -5.000000000E+01               0
GRID*             108875               07.5400000000E+03-1.666666667E+01+
*       -5.000000000E+01               0
GRID*             108876               07.5500000000E+031.6666666667E+01+
*       -5.000000000E+01               0
GRID*             108877               07.5500000000E+03-1.666666667E+01+
*       -5.000000000E+01               0
GRID*             108878               07.5600000000E+031.6666666667E+01+
*       -5.000000000E+01               0
GRID*             108879               07.5600000000E+03-1.666666667E+01+
*       -5.000000000E+01               0
GRID*             108880               07.5700000000E+031.6666666667E+01+
*       -5.000000000E+01               0
GRID*             108881               07.5700000000E+03-1.666666667E+01+
*       -5.000000000E+01               0
GRID*             108882               07.5800000000E+031.6666666667E+01+
*       -5.000000000E+01               0
GRID*             108883               07.5800000000E+03-1.666666667E+01+
*       -5.000000000E+01               0
GRID*             108884               07.5900000000E+031.6666666667E+01+
*       -5.000000000E+01               0
GRID*             108885               07.5900000000E+03-1.666666667E+01+
*       -5.000000000E+01               0
GRID*             108886               07.6000000000E+031.6666666667E+01+
*       -5.000000000E+01               0
GRID*             108887               07.6000000000E+03-1.666666667E+01+
*       -5.000000000E+01               0
GRID*             108888               07.6100000000E+031.6666666667E+01+
*       -5.000000000E+01               0
GRID*             108889               07.6100000000E+03-1.666666667E+01+
*       -5.000000000E+01               0
GRID*             108890               07.6200000000E+031.6666666667E+01+
*       -5.000000000E+01               0
GRID*             108891               07.6200000000E+03-1.666666667E+01+
*       -5.000000000E+01               0
GRID*             108892               07.6300000000E+031.6666666667E+01+
*       -5.000000000E+01               0
GRID*             108893               07.6300000000E+03-1.666666667E+01+
*       -5.000000000E+01               0
GRID*             108894               07.6400000000E+031.6666666667E+01+
*       -5.000000000E+01               0
GRID*             108895               07.6400000000E+03-1.666666667E+01+
*       -5.000000000E+01               0
GRID*             108896               07.6500000000E+031.6666666667E+01+
*       -5.000000000E+01               0
GRID*             108897               07.6500000000E+03-1.666666667E+01+
*       -5.000000000E+01               0
GRID*             108898               07.6600000000E+031.6666666667E+01+
*       -5.000000000E+01               0
GRID*             108899               07.6600000000E+03-1.666666667E+01+
*       -5.000000000E+01               0
GRID*             108900               07.6700000000E+031.6666666667E+01+
*       -5.000000000E+01               0
GRID*             108901               07.6700000000E+03-1.666666667E+01+
*       -5.000000000E+01               0
GRID*             108902               07.6800000000E+031.6666666667E+01+
*       -5.000000000E+01               0
GRID*             108903               07.6800000000E+03-1.666666667E+01+
*       -5.000000000E+01               0
GRID*             108904               07.6900000000E+031.6666666667E+01+
*       -5.000000000E+01               0
GRID*             108905               07.6900000000E+03-1.666666667E+01+
*       -5.000000000E+01               0
GRID*             108906               07.7000000000E+031.6666666667E+01+
*       -5.000000000E+01               0
GRID*             108907               07.7000000000E+03-1.666666667E+01+
*       -5.000000000E+01               0
GRID*             108908               07.7100000000E+031.6666666667E+01+
*       -5.000000000E+01               0
GRID*             108909               07.7100000000E+03-1.666666667E+01+
*       -5.000000000E+01               0
GRID*             108910               07.7200000000E+031.6666666667E+01+
*       -5.000000000E+01               0
GRID*             108911               07.7200000000E+03-1.666666667E+01+
*       -5.000000000E+01               0
GRID*             108912               07.7300000000E+031.6666666667E+01+
*       -5.000000000E+01               0
GRID*             108913               07.7300000000E+03-1.666666667E+01+
*       -5.000000000E+01               0
GRID*             108914               07.7400000000E+031.6666666667E+01+
*       -5.000000000E+01               0
GRID*             108915               07.7400000000E+03-1.666666667E+01+
*       -5.000000000E+01               0
GRID*             108916               07.7500000000E+031.6666666667E+01+
*       -5.000000000E+01               0
GRID*             108917               07.7500000000E+03-1.666666667E+01+
*       -5.000000000E+01               0
GRID*             108918               07.7600000000E+031.6666666667E+01+
*       -5.000000000E+01               0
GRID*             108919               07.7600000000E+03-1.666666667E+01+
*       -5.000000000E+01               0
GRID*             108920               07.7700000000E+031.6666666667E+01+
*       -5.000000000E+01               0
GRID*             108921               07.7700000000E+03-1.666666667E+01+
*       -5.000000000E+01               0
GRID*             108922               07.7800000000E+031.6666666667E+01+
*       -5.000000000E+01               0
GRID*             108923               07.7800000000E+03-1.666666667E+01+
*       -5.000000000E+01               0
GRID*             108924               07.7900000000E+031.6666666667E+01+
*       -5.000000000E+01               0
GRID*             108925               07.7900000000E+03-1.666666667E+01+
*       -5.000000000E+01               0
GRID*             108926               07.8000000000E+031.6666666667E+01+
*       -5.000000000E+01               0
GRID*             108927               07.8000000000E+03-1.666666667E+01+
*       -5.000000000E+01               0
GRID*             108928               07.8100000000E+031.6666666667E+01+
*       -5.000000000E+01               0
GRID*             108929               07.8100000000E+03-1.666666667E+01+
*       -5.000000000E+01               0
GRID*             108930               07.8200000000E+031.6666666667E+01+
*       -5.000000000E+01               0
GRID*             108931               07.8200000000E+03-1.666666667E+01+
*       -5.000000000E+01               0
GRID*             108932               07.8300000000E+031.6666666667E+01+
*       -5.000000000E+01               0
GRID*             108933               07.8300000000E+03-1.666666667E+01+
*       -5.000000000E+01               0
GRID*             108934               07.8400000000E+031.6666666667E+01+
*       -5.000000000E+01               0
GRID*             108935               07.8400000000E+03-1.666666667E+01+
*       -5.000000000E+01               0
GRID*             108936               07.8500000000E+031.6666666667E+01+
*       -5.000000000E+01               0
GRID*             108937               07.8500000000E+03-1.666666667E+01+
*       -5.000000000E+01               0
GRID*             108938               07.8600000000E+031.6666666667E+01+
*       -5.000000000E+01               0
GRID*             108939               07.8600000000E+03-1.666666667E+01+
*       -5.000000000E+01               0
GRID*             108940               07.8700000000E+031.6666666667E+01+
*       -5.000000000E+01               0
GRID*             108941               07.8700000000E+03-1.666666667E+01+
*       -5.000000000E+01               0
GRID*             108942               07.8800000000E+031.6666666667E+01+
*       -5.000000000E+01               0
GRID*             108943               07.8800000000E+03-1.666666667E+01+
*       -5.000000000E+01               0
GRID*             108944               07.8900000000E+031.6666666667E+01+
*       -5.000000000E+01               0
GRID*             108945               07.8900000000E+03-1.666666667E+01+
*       -5.000000000E+01               0
GRID*             108946               07.9000000000E+031.6666666667E+01+
*       -5.000000000E+01               0
GRID*             108947               07.9000000000E+03-1.666666667E+01+
*       -5.000000000E+01               0
GRID*             108948               07.9100000000E+031.6666666667E+01+
*       -5.000000000E+01               0
GRID*             108949               07.9100000000E+03-1.666666667E+01+
*       -5.000000000E+01               0
GRID*             108950               07.9200000000E+031.6666666667E+01+
*       -5.000000000E+01               0
GRID*             108951               07.9200000000E+03-1.666666667E+01+
*       -5.000000000E+01               0
GRID*             108952               07.9300000000E+031.6666666667E+01+
*       -5.000000000E+01               0
GRID*             108953               07.9300000000E+03-1.666666667E+01+
*       -5.000000000E+01               0
GRID*             108954               07.9400000000E+031.6666666667E+01+
*       -5.000000000E+01               0
GRID*             108955               07.9400000000E+03-1.666666667E+01+
*       -5.000000000E+01               0
GRID*             108956               07.9500000000E+031.6666666667E+01+
*       -5.000000000E+01               0
GRID*             108957               07.9500000000E+03-1.666666667E+01+
*       -5.000000000E+01               0
GRID*             108958               07.9600000000E+031.6666666667E+01+
*       -5.000000000E+01               0
GRID*             108959               07.9600000000E+03-1.666666667E+01+
*       -5.000000000E+01               0
GRID*             108960               07.9700000000E+031.6666666667E+01+
*       -5.000000000E+01               0
GRID*             108961               07.9700000000E+03-1.666666667E+01+
*       -5.000000000E+01               0
GRID*             108962               07.9800000000E+031.6666666667E+01+
*       -5.000000000E+01               0
GRID*             108963               07.9800000000E+03-1.666666667E+01+
*       -5.000000000E+01               0
GRID*             108964               07.9900000000E+031.6666666667E+01+
*       -5.000000000E+01               0
GRID*             108965               07.9900000000E+03-1.666666667E+01+
*       -5.000000000E+01               0
GRID*             108966               07.9900000000E+031.6666666667E+01+
*       5.0000000000E+01               0
GRID*             108967               07.9900000000E+03-1.666666667E+01+
*       5.0000000000E+01               0
GRID*             108968               07.9800000000E+031.6666666667E+01+
*       5.0000000000E+01               0
GRID*             108969               07.9800000000E+03-1.666666667E+01+
*       5.0000000000E+01               0
GRID*             108970               07.9700000000E+031.6666666667E+01+
*       5.0000000000E+01               0
GRID*             108971               07.9700000000E+03-1.666666667E+01+
*       5.0000000000E+01               0
GRID*             108972               07.9600000000E+031.6666666667E+01+
*       5.0000000000E+01               0
GRID*             108973               07.9600000000E+03-1.666666667E+01+
*       5.0000000000E+01               0
GRID*             108974               07.9500000000E+031.6666666667E+01+
*       5.0000000000E+01               0
GRID*             108975               07.9500000000E+03-1.666666667E+01+
*       5.0000000000E+01               0
GRID*             108976               07.9400000000E+031.6666666667E+01+
*       5.0000000000E+01               0
GRID*             108977               07.9400000000E+03-1.666666667E+01+
*       5.0000000000E+01               0
GRID*             108978               07.9300000000E+031.6666666667E+01+
*       5.0000000000E+01               0
GRID*             108979               07.9300000000E+03-1.666666667E+01+
*       5.0000000000E+01               0
GRID*             108980               07.9200000000E+031.6666666667E+01+
*       5.0000000000E+01               0
GRID*             108981               07.9200000000E+03-1.666666667E+01+
*       5.0000000000E+01               0
GRID*             108982               07.9100000000E+031.6666666667E+01+
*       5.0000000000E+01               0
GRID*             108983               07.9100000000E+03-1.666666667E+01+
*       5.0000000000E+01               0
GRID*             108984               07.9000000000E+031.6666666667E+01+
*       5.0000000000E+01               0
GRID*             108985               07.9000000000E+03-1.666666667E+01+
*       5.0000000000E+01               0
GRID*             108986               07.8900000000E+031.6666666667E+01+
*       5.0000000000E+01               0
GRID*             108987               07.8900000000E+03-1.666666667E+01+
*       5.0000000000E+01               0
GRID*             108988               07.8800000000E+031.6666666667E+01+
*       5.0000000000E+01               0
GRID*             108989               07.8800000000E+03-1.666666667E+01+
*       5.0000000000E+01               0
GRID*             108990               07.8700000000E+031.6666666667E+01+
*       5.0000000000E+01               0
GRID*             108991               07.8700000000E+03-1.666666667E+01+
*       5.0000000000E+01               0
GRID*             108992               07.8600000000E+031.6666666667E+01+
*       5.0000000000E+01               0
GRID*             108993               07.8600000000E+03-1.666666667E+01+
*       5.0000000000E+01               0
GRID*             108994               07.8500000000E+031.6666666667E+01+
*       5.0000000000E+01               0
GRID*             108995               07.8500000000E+03-1.666666667E+01+
*       5.0000000000E+01               0
GRID*             108996               07.8400000000E+031.6666666667E+01+
*       5.0000000000E+01               0
GRID*             108997               07.8400000000E+03-1.666666667E+01+
*       5.0000000000E+01               0
GRID*             108998               07.8300000000E+031.6666666667E+01+
*       5.0000000000E+01               0
GRID*             108999               07.8300000000E+03-1.666666667E+01+
*       5.0000000000E+01               0
GRID*             109000               07.8200000000E+031.6666666667E+01+
*       5.0000000000E+01               0
GRID*             109001               07.8200000000E+03-1.666666667E+01+
*       5.0000000000E+01               0
GRID*             109002               07.8100000000E+031.6666666667E+01+
*       5.0000000000E+01               0
GRID*             109003               07.8100000000E+03-1.666666667E+01+
*       5.0000000000E+01               0
GRID*             109004               07.8000000000E+031.6666666667E+01+
*       5.0000000000E+01               0
GRID*             109005               07.8000000000E+03-1.666666667E+01+
*       5.0000000000E+01               0
GRID*             109006               07.7900000000E+031.6666666667E+01+
*       5.0000000000E+01               0
GRID*             109007               07.7900000000E+03-1.666666667E+01+
*       5.0000000000E+01               0
GRID*             109008               07.7800000000E+031.6666666667E+01+
*       5.0000000000E+01               0
GRID*             109009               07.7800000000E+03-1.666666667E+01+
*       5.0000000000E+01               0
GRID*             109010               07.7700000000E+031.6666666667E+01+
*       5.0000000000E+01               0
GRID*             109011               07.7700000000E+03-1.666666667E+01+
*       5.0000000000E+01               0
GRID*             109012               07.7600000000E+031.6666666667E+01+
*       5.0000000000E+01               0
GRID*             109013               07.7600000000E+03-1.666666667E+01+
*       5.0000000000E+01               0
GRID*             109014               07.7500000000E+031.6666666667E+01+
*       5.0000000000E+01               0
GRID*             109015               07.7500000000E+03-1.666666667E+01+
*       5.0000000000E+01               0
GRID*             109016               07.7400000000E+031.6666666667E+01+
*       5.0000000000E+01               0
GRID*             109017               07.7400000000E+03-1.666666667E+01+
*       5.0000000000E+01               0
GRID*             109018               07.7300000000E+031.6666666667E+01+
*       5.0000000000E+01               0
GRID*             109019               07.7300000000E+03-1.666666667E+01+
*       5.0000000000E+01               0
GRID*             109020               07.7200000000E+031.6666666667E+01+
*       5.0000000000E+01               0
GRID*             109021               07.7200000000E+03-1.666666667E+01+
*       5.0000000000E+01               0
GRID*             109022               07.7100000000E+031.6666666667E+01+
*       5.0000000000E+01               0
GRID*             109023               07.7100000000E+03-1.666666667E+01+
*       5.0000000000E+01               0
GRID*             109024               07.7000000000E+031.6666666667E+01+
*       5.0000000000E+01               0
GRID*             109025               07.7000000000E+03-1.666666667E+01+
*       5.0000000000E+01               0
GRID*             109026               07.6900000000E+031.6666666667E+01+
*       5.0000000000E+01               0
GRID*             109027               07.6900000000E+03-1.666666667E+01+
*       5.0000000000E+01               0
GRID*             109028               07.6800000000E+031.6666666667E+01+
*       5.0000000000E+01               0
GRID*             109029               07.6800000000E+03-1.666666667E+01+
*       5.0000000000E+01               0
GRID*             109030               07.6700000000E+031.6666666667E+01+
*       5.0000000000E+01               0
GRID*             109031               07.6700000000E+03-1.666666667E+01+
*       5.0000000000E+01               0
GRID*             109032               07.6600000000E+031.6666666667E+01+
*       5.0000000000E+01               0
GRID*             109033               07.6600000000E+03-1.666666667E+01+
*       5.0000000000E+01               0
GRID*             109034               07.6500000000E+031.6666666667E+01+
*       5.0000000000E+01               0
GRID*             109035               07.6500000000E+03-1.666666667E+01+
*       5.0000000000E+01               0
GRID*             109036               07.6400000000E+031.6666666667E+01+
*       5.0000000000E+01               0
GRID*             109037               07.6400000000E+03-1.666666667E+01+
*       5.0000000000E+01               0
GRID*             109038               07.6300000000E+031.6666666667E+01+
*       5.0000000000E+01               0
GRID*             109039               07.6300000000E+03-1.666666667E+01+
*       5.0000000000E+01               0
GRID*             109040               07.6200000000E+031.6666666667E+01+
*       5.0000000000E+01               0
GRID*             109041               07.6200000000E+03-1.666666667E+01+
*       5.0000000000E+01               0
GRID*             109042               07.6100000000E+031.6666666667E+01+
*       5.0000000000E+01               0
GRID*             109043               07.6100000000E+03-1.666666667E+01+
*       5.0000000000E+01               0
GRID*             109044               07.6000000000E+031.6666666667E+01+
*       5.0000000000E+01               0
GRID*             109045               07.6000000000E+03-1.666666667E+01+
*       5.0000000000E+01               0
GRID*             109046               07.5900000000E+031.6666666667E+01+
*       5.0000000000E+01               0
GRID*             109047               07.5900000000E+03-1.666666667E+01+
*       5.0000000000E+01               0
GRID*             109048               07.5800000000E+031.6666666667E+01+
*       5.0000000000E+01               0
GRID*             109049               07.5800000000E+03-1.666666667E+01+
*       5.0000000000E+01               0
GRID*             109050               07.5700000000E+031.6666666667E+01+
*       5.0000000000E+01               0
GRID*             109051               07.5700000000E+03-1.666666667E+01+
*       5.0000000000E+01               0
GRID*             109052               07.5600000000E+031.6666666667E+01+
*       5.0000000000E+01               0
GRID*             109053               07.5600000000E+03-1.666666667E+01+
*       5.0000000000E+01               0
GRID*             109054               07.5500000000E+031.6666666667E+01+
*       5.0000000000E+01               0
GRID*             109055               07.5500000000E+03-1.666666667E+01+
*       5.0000000000E+01               0
GRID*             109056               07.5400000000E+031.6666666667E+01+
*       5.0000000000E+01               0
GRID*             109057               07.5400000000E+03-1.666666667E+01+
*       5.0000000000E+01               0
GRID*             109058               07.5300000000E+031.6666666667E+01+
*       5.0000000000E+01               0
GRID*             109059               07.5300000000E+03-1.666666667E+01+
*       5.0000000000E+01               0
GRID*             109060               07.5200000000E+031.6666666667E+01+
*       5.0000000000E+01               0
GRID*             109061               07.5200000000E+03-1.666666667E+01+
*       5.0000000000E+01               0
GRID*             109062               07.5100000000E+031.6666666667E+01+
*       5.0000000000E+01               0
GRID*             109063               07.5100000000E+03-1.666666667E+01+
*       5.0000000000E+01               0
GRID*             109064               07.5000000000E+031.6666666667E+01+
*       5.0000000000E+01               0
GRID*             109065               07.5000000000E+03-1.666666667E+01+
*       5.0000000000E+01               0
GRID*             109066               07.4900000000E+031.6666666667E+01+
*       5.0000000000E+01               0
GRID*             109067               07.4900000000E+03-1.666666667E+01+
*       5.0000000000E+01               0
GRID*             109068               07.4800000000E+031.6666666667E+01+
*       5.0000000000E+01               0
GRID*             109069               07.4800000000E+03-1.666666667E+01+
*       5.0000000000E+01               0
GRID*             109070               07.4700000000E+031.6666666667E+01+
*       5.0000000000E+01               0
GRID*             109071               07.4700000000E+03-1.666666667E+01+
*       5.0000000000E+01               0
GRID*             109072               07.4600000000E+031.6666666667E+01+
*       5.0000000000E+01               0
GRID*             109073               07.4600000000E+03-1.666666667E+01+
*       5.0000000000E+01               0
GRID*             109074               07.4500000000E+031.6666666667E+01+
*       5.0000000000E+01               0
GRID*             109075               07.4500000000E+03-1.666666667E+01+
*       5.0000000000E+01               0
GRID*             109076               07.4400000000E+031.6666666667E+01+
*       5.0000000000E+01               0
GRID*             109077               07.4400000000E+03-1.666666667E+01+
*       5.0000000000E+01               0
GRID*             109078               07.4300000000E+031.6666666667E+01+
*       5.0000000000E+01               0
GRID*             109079               07.4300000000E+03-1.666666667E+01+
*       5.0000000000E+01               0
GRID*             109080               07.4200000000E+031.6666666667E+01+
*       5.0000000000E+01               0
GRID*             109081               07.4200000000E+03-1.666666667E+01+
*       5.0000000000E+01               0
GRID*             109082               07.4100000000E+031.6666666667E+01+
*       5.0000000000E+01               0
GRID*             109083               07.4100000000E+03-1.666666667E+01+
*       5.0000000000E+01               0
GRID*             109084               07.4000000000E+031.6666666667E+01+
*       5.0000000000E+01               0
GRID*             109085               07.4000000000E+03-1.666666667E+01+
*       5.0000000000E+01               0
GRID*             109086               07.3900000000E+031.6666666667E+01+
*       5.0000000000E+01               0
GRID*             109087               07.3900000000E+03-1.666666667E+01+
*       5.0000000000E+01               0
GRID*             109088               07.3800000000E+031.6666666667E+01+
*       5.0000000000E+01               0
GRID*             109089               07.3800000000E+03-1.666666667E+01+
*       5.0000000000E+01               0
GRID*             109090               07.3700000000E+031.6666666667E+01+
*       5.0000000000E+01               0
GRID*             109091               07.3700000000E+03-1.666666667E+01+
*       5.0000000000E+01               0
GRID*             109092               07.3600000000E+031.6666666667E+01+
*       5.0000000000E+01               0
GRID*             109093               07.3600000000E+03-1.666666667E+01+
*       5.0000000000E+01               0
GRID*             109094               07.3500000000E+031.6666666667E+01+
*       5.0000000000E+01               0
GRID*             109095               07.3500000000E+03-1.666666667E+01+
*       5.0000000000E+01               0
GRID*             109096               07.3400000000E+031.6666666667E+01+
*       5.0000000000E+01               0
GRID*             109097               07.3400000000E+03-1.666666667E+01+
*       5.0000000000E+01               0
GRID*             109098               07.3300000000E+031.6666666667E+01+
*       5.0000000000E+01               0
GRID*             109099               07.3300000000E+03-1.666666667E+01+
*       5.0000000000E+01               0
GRID*             109100               07.3200000000E+031.6666666667E+01+
*       5.0000000000E+01               0
GRID*             109101               07.3200000000E+03-1.666666667E+01+
*       5.0000000000E+01               0
GRID*             109102               07.3100000000E+031.6666666667E+01+
*       5.0000000000E+01               0
GRID*             109103               07.3100000000E+03-1.666666667E+01+
*       5.0000000000E+01               0
GRID*             109104               07.3000000000E+031.6666666667E+01+
*       5.0000000000E+01               0
GRID*             109105               07.3000000000E+03-1.666666667E+01+
*       5.0000000000E+01               0
GRID*             109106               07.2900000000E+031.6666666667E+01+
*       5.0000000000E+01               0
GRID*             109107               07.2900000000E+03-1.666666667E+01+
*       5.0000000000E+01               0
GRID*             109108               07.2800000000E+031.6666666667E+01+
*       5.0000000000E+01               0
GRID*             109109               07.2800000000E+03-1.666666667E+01+
*       5.0000000000E+01               0
GRID*             109110               07.2700000000E+031.6666666667E+01+
*       5.0000000000E+01               0
GRID*             109111               07.2700000000E+03-1.666666667E+01+
*       5.0000000000E+01               0
GRID*             109112               07.2600000000E+031.6666666667E+01+
*       5.0000000000E+01               0
GRID*             109113               07.2600000000E+03-1.666666667E+01+
*       5.0000000000E+01               0
GRID*             109114               07.2500000000E+031.6666666667E+01+
*       5.0000000000E+01               0
GRID*             109115               07.2500000000E+03-1.666666667E+01+
*       5.0000000000E+01               0
GRID*             109116               07.2400000000E+031.6666666667E+01+
*       5.0000000000E+01               0
GRID*             109117               07.2400000000E+03-1.666666667E+01+
*       5.0000000000E+01               0
GRID*             109118               07.2300000000E+031.6666666667E+01+
*       5.0000000000E+01               0
GRID*             109119               07.2300000000E+03-1.666666667E+01+
*       5.0000000000E+01               0
GRID*             109120               07.2200000000E+031.6666666667E+01+
*       5.0000000000E+01               0
GRID*             109121               07.2200000000E+03-1.666666667E+01+
*       5.0000000000E+01               0
GRID*             109122               07.2100000000E+031.6666666667E+01+
*       5.0000000000E+01               0
GRID*             109123               07.2100000000E+03-1.666666667E+01+
*       5.0000000000E+01               0
GRID*             109124               07.2000000000E+031.6666666667E+01+
*       5.0000000000E+01               0
GRID*             109125               07.2000000000E+03-1.666666667E+01+
*       5.0000000000E+01               0
GRID*             109126               07.1900000000E+031.6666666667E+01+
*       5.0000000000E+01               0
GRID*             109127               07.1900000000E+03-1.666666667E+01+
*       5.0000000000E+01               0
GRID*             109128               07.1800000000E+031.6666666667E+01+
*       5.0000000000E+01               0
GRID*             109129               07.1800000000E+03-1.666666667E+01+
*       5.0000000000E+01               0
GRID*             109130               07.1700000000E+031.6666666667E+01+
*       5.0000000000E+01               0
GRID*             109131               07.1700000000E+03-1.666666667E+01+
*       5.0000000000E+01               0
GRID*             109132               07.1600000000E+031.6666666667E+01+
*       5.0000000000E+01               0
GRID*             109133               07.1600000000E+03-1.666666667E+01+
*       5.0000000000E+01               0
GRID*             109134               07.1500000000E+031.6666666667E+01+
*       5.0000000000E+01               0
GRID*             109135               07.1500000000E+03-1.666666667E+01+
*       5.0000000000E+01               0
GRID*             109136               07.1400000000E+031.6666666667E+01+
*       5.0000000000E+01               0
GRID*             109137               07.1400000000E+03-1.666666667E+01+
*       5.0000000000E+01               0
GRID*             109138               07.1300000000E+031.6666666667E+01+
*       5.0000000000E+01               0
GRID*             109139               07.1300000000E+03-1.666666667E+01+
*       5.0000000000E+01               0
GRID*             109140               07.1200000000E+031.6666666667E+01+
*       5.0000000000E+01               0
GRID*             109141               07.1200000000E+03-1.666666667E+01+
*       5.0000000000E+01               0
GRID*             109142               07.1100000000E+031.6666666667E+01+
*       5.0000000000E+01               0
GRID*             109143               07.1100000000E+03-1.666666667E+01+
*       5.0000000000E+01               0
GRID*             109144               07.1000000000E+031.6666666667E+01+
*       5.0000000000E+01               0
GRID*             109145               07.1000000000E+03-1.666666667E+01+
*       5.0000000000E+01               0
GRID*             109146               07.0900000000E+031.6666666667E+01+
*       5.0000000000E+01               0
GRID*             109147               07.0900000000E+03-1.666666667E+01+
*       5.0000000000E+01               0
GRID*             109148               07.0800000000E+031.6666666667E+01+
*       5.0000000000E+01               0
GRID*             109149               07.0800000000E+03-1.666666667E+01+
*       5.0000000000E+01               0
GRID*             109150               07.0700000000E+031.6666666667E+01+
*       5.0000000000E+01               0
GRID*             109151               07.0700000000E+03-1.666666667E+01+
*       5.0000000000E+01               0
GRID*             109152               07.0600000000E+031.6666666667E+01+
*       5.0000000000E+01               0
GRID*             109153               07.0600000000E+03-1.666666667E+01+
*       5.0000000000E+01               0
GRID*             109154               07.0500000000E+031.6666666667E+01+
*       5.0000000000E+01               0
GRID*             109155               07.0500000000E+03-1.666666667E+01+
*       5.0000000000E+01               0
GRID*             109156               07.0400000000E+031.6666666667E+01+
*       5.0000000000E+01               0
GRID*             109157               07.0400000000E+03-1.666666667E+01+
*       5.0000000000E+01               0
GRID*             109158               07.0300000000E+031.6666666667E+01+
*       5.0000000000E+01               0
GRID*             109159               07.0300000000E+03-1.666666667E+01+
*       5.0000000000E+01               0
GRID*             109160               07.0200000000E+031.6666666667E+01+
*       5.0000000000E+01               0
GRID*             109161               07.0200000000E+03-1.666666667E+01+
*       5.0000000000E+01               0
GRID*             109162               07.0100000000E+031.6666666667E+01+
*       5.0000000000E+01               0
GRID*             109163               07.0100000000E+03-1.666666667E+01+
*       5.0000000000E+01               0
GRID*             109164               07.0100000000E+035.0000000000E+01+
*       1.6666666667E+01               0
GRID*             109165               07.0100000000E+035.0000000000E+01+
*       -1.666666667E+01               0
GRID*             109166               07.0200000000E+035.0000000000E+01+
*       1.6666666667E+01               0
GRID*             109167               07.0200000000E+035.0000000000E+01+
*       -1.666666667E+01               0
GRID*             109168               07.0300000000E+035.0000000000E+01+
*       1.6666666667E+01               0
GRID*             109169               07.0300000000E+035.0000000000E+01+
*       -1.666666667E+01               0
GRID*             109170               07.0400000000E+035.0000000000E+01+
*       1.6666666667E+01               0
GRID*             109171               07.0400000000E+035.0000000000E+01+
*       -1.666666667E+01               0
GRID*             109172               07.0500000000E+035.0000000000E+01+
*       1.6666666667E+01               0
GRID*             109173               07.0500000000E+035.0000000000E+01+
*       -1.666666667E+01               0
GRID*             109174               07.0600000000E+035.0000000000E+01+
*       1.6666666667E+01               0
GRID*             109175               07.0600000000E+035.0000000000E+01+
*       -1.666666667E+01               0
GRID*             109176               07.0700000000E+035.0000000000E+01+
*       1.6666666667E+01               0
GRID*             109177               07.0700000000E+035.0000000000E+01+
*       -1.666666667E+01               0
GRID*             109178               07.0800000000E+035.0000000000E+01+
*       1.6666666667E+01               0
GRID*             109179               07.0800000000E+035.0000000000E+01+
*       -1.666666667E+01               0
GRID*             109180               07.0900000000E+035.0000000000E+01+
*       1.6666666667E+01               0
GRID*             109181               07.0900000000E+035.0000000000E+01+
*       -1.666666667E+01               0
GRID*             109182               07.1000000000E+035.0000000000E+01+
*       1.6666666667E+01               0
GRID*             109183               07.1000000000E+035.0000000000E+01+
*       -1.666666667E+01               0
GRID*             109184               07.1100000000E+035.0000000000E+01+
*       1.6666666667E+01               0
GRID*             109185               07.1100000000E+035.0000000000E+01+
*       -1.666666667E+01               0
GRID*             109186               07.1200000000E+035.0000000000E+01+
*       1.6666666667E+01               0
GRID*             109187               07.1200000000E+035.0000000000E+01+
*       -1.666666667E+01               0
GRID*             109188               07.1300000000E+035.0000000000E+01+
*       1.6666666667E+01               0
GRID*             109189               07.1300000000E+035.0000000000E+01+
*       -1.666666667E+01               0
GRID*             109190               07.1400000000E+035.0000000000E+01+
*       1.6666666667E+01               0
GRID*             109191               07.1400000000E+035.0000000000E+01+
*       -1.666666667E+01               0
GRID*             109192               07.1500000000E+035.0000000000E+01+
*       1.6666666667E+01               0
GRID*             109193               07.1500000000E+035.0000000000E+01+
*       -1.666666667E+01               0
GRID*             109194               07.1600000000E+035.0000000000E+01+
*       1.6666666667E+01               0
GRID*             109195               07.1600000000E+035.0000000000E+01+
*       -1.666666667E+01               0
GRID*             109196               07.1700000000E+035.0000000000E+01+
*       1.6666666667E+01               0
GRID*             109197               07.1700000000E+035.0000000000E+01+
*       -1.666666667E+01               0
GRID*             109198               07.1800000000E+035.0000000000E+01+
*       1.6666666667E+01               0
GRID*             109199               07.1800000000E+035.0000000000E+01+
*       -1.666666667E+01               0
GRID*             109200               07.1900000000E+035.0000000000E+01+
*       1.6666666667E+01               0
GRID*             109201               07.1900000000E+035.0000000000E+01+
*       -1.666666667E+01               0
GRID*             109202               07.2000000000E+035.0000000000E+01+
*       1.6666666667E+01               0
GRID*             109203               07.2000000000E+035.0000000000E+01+
*       -1.666666667E+01               0
GRID*             109204               07.2100000000E+035.0000000000E+01+
*       1.6666666667E+01               0
GRID*             109205               07.2100000000E+035.0000000000E+01+
*       -1.666666667E+01               0
GRID*             109206               07.2200000000E+035.0000000000E+01+
*       1.6666666667E+01               0
GRID*             109207               07.2200000000E+035.0000000000E+01+
*       -1.666666667E+01               0
GRID*             109208               07.2300000000E+035.0000000000E+01+
*       1.6666666667E+01               0
GRID*             109209               07.2300000000E+035.0000000000E+01+
*       -1.666666667E+01               0
GRID*             109210               07.2400000000E+035.0000000000E+01+
*       1.6666666667E+01               0
GRID*             109211               07.2400000000E+035.0000000000E+01+
*       -1.666666667E+01               0
GRID*             109212               07.2500000000E+035.0000000000E+01+
*       1.6666666667E+01               0
GRID*             109213               07.2500000000E+035.0000000000E+01+
*       -1.666666667E+01               0
GRID*             109214               07.2600000000E+035.0000000000E+01+
*       1.6666666667E+01               0
GRID*             109215               07.2600000000E+035.0000000000E+01+
*       -1.666666667E+01               0
GRID*             109216               07.2700000000E+035.0000000000E+01+
*       1.6666666667E+01               0
GRID*             109217               07.2700000000E+035.0000000000E+01+
*       -1.666666667E+01               0
GRID*             109218               07.2800000000E+035.0000000000E+01+
*       1.6666666667E+01               0
GRID*             109219               07.2800000000E+035.0000000000E+01+
*       -1.666666667E+01               0
GRID*             109220               07.2900000000E+035.0000000000E+01+
*       1.6666666667E+01               0
GRID*             109221               07.2900000000E+035.0000000000E+01+
*       -1.666666667E+01               0
GRID*             109222               07.3000000000E+035.0000000000E+01+
*       1.6666666667E+01               0
GRID*             109223               07.3000000000E+035.0000000000E+01+
*       -1.666666667E+01               0
GRID*             109224               07.3100000000E+035.0000000000E+01+
*       1.6666666667E+01               0
GRID*             109225               07.3100000000E+035.0000000000E+01+
*       -1.666666667E+01               0
GRID*             109226               07.3200000000E+035.0000000000E+01+
*       1.6666666667E+01               0
GRID*             109227               07.3200000000E+035.0000000000E+01+
*       -1.666666667E+01               0
GRID*             109228               07.3300000000E+035.0000000000E+01+
*       1.6666666667E+01               0
GRID*             109229               07.3300000000E+035.0000000000E+01+
*       -1.666666667E+01               0
GRID*             109230               07.3400000000E+035.0000000000E+01+
*       1.6666666667E+01               0
GRID*             109231               07.3400000000E+035.0000000000E+01+
*       -1.666666667E+01               0
GRID*             109232               07.3500000000E+035.0000000000E+01+
*       1.6666666667E+01               0
GRID*             109233               07.3500000000E+035.0000000000E+01+
*       -1.666666667E+01               0
GRID*             109234               07.3600000000E+035.0000000000E+01+
*       1.6666666667E+01               0
GRID*             109235               07.3600000000E+035.0000000000E+01+
*       -1.666666667E+01               0
GRID*             109236               07.3700000000E+035.0000000000E+01+
*       1.6666666667E+01               0
GRID*             109237               07.3700000000E+035.0000000000E+01+
*       -1.666666667E+01               0
GRID*             109238               07.3800000000E+035.0000000000E+01+
*       1.6666666667E+01               0
GRID*             109239               07.3800000000E+035.0000000000E+01+
*       -1.666666667E+01               0
GRID*             109240               07.3900000000E+035.0000000000E+01+
*       1.6666666667E+01               0
GRID*             109241               07.3900000000E+035.0000000000E+01+
*       -1.666666667E+01               0
GRID*             109242               07.4000000000E+035.0000000000E+01+
*       1.6666666667E+01               0
GRID*             109243               07.4000000000E+035.0000000000E+01+
*       -1.666666667E+01               0
GRID*             109244               07.4100000000E+035.0000000000E+01+
*       1.6666666667E+01               0
GRID*             109245               07.4100000000E+035.0000000000E+01+
*       -1.666666667E+01               0
GRID*             109246               07.4200000000E+035.0000000000E+01+
*       1.6666666667E+01               0
GRID*             109247               07.4200000000E+035.0000000000E+01+
*       -1.666666667E+01               0
GRID*             109248               07.4300000000E+035.0000000000E+01+
*       1.6666666667E+01               0
GRID*             109249               07.4300000000E+035.0000000000E+01+
*       -1.666666667E+01               0
GRID*             109250               07.4400000000E+035.0000000000E+01+
*       1.6666666667E+01               0
GRID*             109251               07.4400000000E+035.0000000000E+01+
*       -1.666666667E+01               0
GRID*             109252               07.4500000000E+035.0000000000E+01+
*       1.6666666667E+01               0
GRID*             109253               07.4500000000E+035.0000000000E+01+
*       -1.666666667E+01               0
GRID*             109254               07.4600000000E+035.0000000000E+01+
*       1.6666666667E+01               0
GRID*             109255               07.4600000000E+035.0000000000E+01+
*       -1.666666667E+01               0
GRID*             109256               07.4700000000E+035.0000000000E+01+
*       1.6666666667E+01               0
GRID*             109257               07.4700000000E+035.0000000000E+01+
*       -1.666666667E+01               0
GRID*             109258               07.4800000000E+035.0000000000E+01+
*       1.6666666667E+01               0
GRID*             109259               07.4800000000E+035.0000000000E+01+
*       -1.666666667E+01               0
GRID*             109260               07.4900000000E+035.0000000000E+01+
*       1.6666666667E+01               0
GRID*             109261               07.4900000000E+035.0000000000E+01+
*       -1.666666667E+01               0
GRID*             109262               07.5000000000E+035.0000000000E+01+
*       1.6666666667E+01               0
GRID*             109263               07.5000000000E+035.0000000000E+01+
*       -1.666666667E+01               0
GRID*             109264               07.5100000000E+035.0000000000E+01+
*       1.6666666667E+01               0
GRID*             109265               07.5100000000E+035.0000000000E+01+
*       -1.666666667E+01               0
GRID*             109266               07.5200000000E+035.0000000000E+01+
*       1.6666666667E+01               0
GRID*             109267               07.5200000000E+035.0000000000E+01+
*       -1.666666667E+01               0
GRID*             109268               07.5300000000E+035.0000000000E+01+
*       1.6666666667E+01               0
GRID*             109269               07.5300000000E+035.0000000000E+01+
*       -1.666666667E+01               0
GRID*             109270               07.5400000000E+035.0000000000E+01+
*       1.6666666667E+01               0
GRID*             109271               07.5400000000E+035.0000000000E+01+
*       -1.666666667E+01               0
GRID*             109272               07.5500000000E+035.0000000000E+01+
*       1.6666666667E+01               0
GRID*             109273               07.5500000000E+035.0000000000E+01+
*       -1.666666667E+01               0
GRID*             109274               07.5600000000E+035.0000000000E+01+
*       1.6666666667E+01               0
GRID*             109275               07.5600000000E+035.0000000000E+01+
*       -1.666666667E+01               0
GRID*             109276               07.5700000000E+035.0000000000E+01+
*       1.6666666667E+01               0
GRID*             109277               07.5700000000E+035.0000000000E+01+
*       -1.666666667E+01               0
GRID*             109278               07.5800000000E+035.0000000000E+01+
*       1.6666666667E+01               0
GRID*             109279               07.5800000000E+035.0000000000E+01+
*       -1.666666667E+01               0
GRID*             109280               07.5900000000E+035.0000000000E+01+
*       1.6666666667E+01               0
GRID*             109281               07.5900000000E+035.0000000000E+01+
*       -1.666666667E+01               0
GRID*             109282               07.6000000000E+035.0000000000E+01+
*       1.6666666667E+01               0
GRID*             109283               07.6000000000E+035.0000000000E+01+
*       -1.666666667E+01               0
GRID*             109284               07.6100000000E+035.0000000000E+01+
*       1.6666666667E+01               0
GRID*             109285               07.6100000000E+035.0000000000E+01+
*       -1.666666667E+01               0
GRID*             109286               07.6200000000E+035.0000000000E+01+
*       1.6666666667E+01               0
GRID*             109287               07.6200000000E+035.0000000000E+01+
*       -1.666666667E+01               0
GRID*             109288               07.6300000000E+035.0000000000E+01+
*       1.6666666667E+01               0
GRID*             109289               07.6300000000E+035.0000000000E+01+
*       -1.666666667E+01               0
GRID*             109290               07.6400000000E+035.0000000000E+01+
*       1.6666666667E+01               0
GRID*             109291               07.6400000000E+035.0000000000E+01+
*       -1.666666667E+01               0
GRID*             109292               07.6500000000E+035.0000000000E+01+
*       1.6666666667E+01               0
GRID*             109293               07.6500000000E+035.0000000000E+01+
*       -1.666666667E+01               0
GRID*             109294               07.6600000000E+035.0000000000E+01+
*       1.6666666667E+01               0
GRID*             109295               07.6600000000E+035.0000000000E+01+
*       -1.666666667E+01               0
GRID*             109296               07.6700000000E+035.0000000000E+01+
*       1.6666666667E+01               0
GRID*             109297               07.6700000000E+035.0000000000E+01+
*       -1.666666667E+01               0
GRID*             109298               07.6800000000E+035.0000000000E+01+
*       1.6666666667E+01               0
GRID*             109299               07.6800000000E+035.0000000000E+01+
*       -1.666666667E+01               0
GRID*             109300               07.6900000000E+035.0000000000E+01+
*       1.6666666667E+01               0
GRID*             109301               07.6900000000E+035.0000000000E+01+
*       -1.666666667E+01               0
GRID*             109302               07.7000000000E+035.0000000000E+01+
*       1.6666666667E+01               0
GRID*             109303               07.7000000000E+035.0000000000E+01+
*       -1.666666667E+01               0
GRID*             109304               07.7100000000E+035.0000000000E+01+
*       1.6666666667E+01               0
GRID*             109305               07.7100000000E+035.0000000000E+01+
*       -1.666666667E+01               0
GRID*             109306               07.7200000000E+035.0000000000E+01+
*       1.6666666667E+01               0
GRID*             109307               07.7200000000E+035.0000000000E+01+
*       -1.666666667E+01               0
GRID*             109308               07.7300000000E+035.0000000000E+01+
*       1.6666666667E+01               0
GRID*             109309               07.7300000000E+035.0000000000E+01+
*       -1.666666667E+01               0
GRID*             109310               07.7400000000E+035.0000000000E+01+
*       1.6666666667E+01               0
GRID*             109311               07.7400000000E+035.0000000000E+01+
*       -1.666666667E+01               0
GRID*             109312               07.7500000000E+035.0000000000E+01+
*       1.6666666667E+01               0
GRID*             109313               07.7500000000E+035.0000000000E+01+
*       -1.666666667E+01               0
GRID*             109314               07.7600000000E+035.0000000000E+01+
*       1.6666666667E+01               0
GRID*             109315               07.7600000000E+035.0000000000E+01+
*       -1.666666667E+01               0
GRID*             109316               07.7700000000E+035.0000000000E+01+
*       1.6666666667E+01               0
GRID*             109317               07.7700000000E+035.0000000000E+01+
*       -1.666666667E+01               0
GRID*             109318               07.7800000000E+035.0000000000E+01+
*       1.6666666667E+01               0
GRID*             109319               07.7800000000E+035.0000000000E+01+
*       -1.666666667E+01               0
GRID*             109320               07.7900000000E+035.0000000000E+01+
*       1.6666666667E+01               0
GRID*             109321               07.7900000000E+035.0000000000E+01+
*       -1.666666667E+01               0
GRID*             109322               07.8000000000E+035.0000000000E+01+
*       1.6666666667E+01               0
GRID*             109323               07.8000000000E+035.0000000000E+01+
*       -1.666666667E+01               0
GRID*             109324               07.8100000000E+035.0000000000E+01+
*       1.6666666667E+01               0
GRID*             109325               07.8100000000E+035.0000000000E+01+
*       -1.666666667E+01               0
GRID*             109326               07.8200000000E+035.0000000000E+01+
*       1.6666666667E+01               0
GRID*             109327               07.8200000000E+035.0000000000E+01+
*       -1.666666667E+01               0
GRID*             109328               07.8300000000E+035.0000000000E+01+
*       1.6666666667E+01               0
GRID*             109329               07.8300000000E+035.0000000000E+01+
*       -1.666666667E+01               0
GRID*             109330               07.8400000000E+035.0000000000E+01+
*       1.6666666667E+01               0
GRID*             109331               07.8400000000E+035.0000000000E+01+
*       -1.666666667E+01               0
GRID*             109332               07.8500000000E+035.0000000000E+01+
*       1.6666666667E+01               0
GRID*             109333               07.8500000000E+035.0000000000E+01+
*       -1.666666667E+01               0
GRID*             109334               07.8600000000E+035.0000000000E+01+
*       1.6666666667E+01               0
GRID*             109335               07.8600000000E+035.0000000000E+01+
*       -1.666666667E+01               0
GRID*             109336               07.8700000000E+035.0000000000E+01+
*       1.6666666667E+01               0
GRID*             109337               07.8700000000E+035.0000000000E+01+
*       -1.666666667E+01               0
GRID*             109338               07.8800000000E+035.0000000000E+01+
*       1.6666666667E+01               0
GRID*             109339               07.8800000000E+035.0000000000E+01+
*       -1.666666667E+01               0
GRID*             109340               07.8900000000E+035.0000000000E+01+
*       1.6666666667E+01               0
GRID*             109341               07.8900000000E+035.0000000000E+01+
*       -1.666666667E+01               0
GRID*             109342               07.9000000000E+035.0000000000E+01+
*       1.6666666667E+01               0
GRID*             109343               07.9000000000E+035.0000000000E+01+
*       -1.666666667E+01               0
GRID*             109344               07.9100000000E+035.0000000000E+01+
*       1.6666666667E+01               0
GRID*             109345               07.9100000000E+035.0000000000E+01+
*       -1.666666667E+01               0
GRID*             109346               07.9200000000E+035.0000000000E+01+
*       1.6666666667E+01               0
GRID*             109347               07.9200000000E+035.0000000000E+01+
*       -1.666666667E+01               0
GRID*             109348               07.9300000000E+035.0000000000E+01+
*       1.6666666667E+01               0
GRID*             109349               07.9300000000E+035.0000000000E+01+
*       -1.666666667E+01               0
GRID*             109350               07.9400000000E+035.0000000000E+01+
*       1.6666666667E+01               0
GRID*             109351               07.9400000000E+035.0000000000E+01+
*       -1.666666667E+01               0
GRID*             109352               07.9500000000E+035.0000000000E+01+
*       1.6666666667E+01               0
GRID*             109353               07.9500000000E+035.0000000000E+01+
*       -1.666666667E+01               0
GRID*             109354               07.9600000000E+035.0000000000E+01+
*       1.6666666667E+01               0
GRID*             109355               07.9600000000E+035.0000000000E+01+
*       -1.666666667E+01               0
GRID*             109356               07.9700000000E+035.0000000000E+01+
*       1.6666666667E+01               0
GRID*             109357               07.9700000000E+035.0000000000E+01+
*       -1.666666667E+01               0
GRID*             109358               07.9800000000E+035.0000000000E+01+
*       1.6666666667E+01               0
GRID*             109359               07.9800000000E+035.0000000000E+01+
*       -1.666666667E+01               0
GRID*             109360               07.9900000000E+035.0000000000E+01+
*       1.6666666667E+01               0
GRID*             109361               07.9900000000E+035.0000000000E+01+
*       -1.666666667E+01               0
GRID*             109362               08.0000000000E+031.6666666667E+01+
*       1.6666666667E+01               0
GRID*             109363               08.0000000000E+031.6666666667E+01+
*       -1.666666667E+01               0
GRID*             109364               08.0000000000E+03-1.666666667E+01+
*       -1.666666667E+01               0
GRID*             109365               08.0000000000E+03-1.666666667E+01+
*       1.6666666667E+01               0
GRID*             109366               07.0100000000E+031.6666666667E+01+
*       1.6666666667E+01               0
GRID*             109367               07.0100000000E+031.6666666667E+01+
*       -1.666666667E+01               0
GRID*             109368               07.0100000000E+03-1.666666667E+01+
*       -1.666666667E+01               0
GRID*             109369               07.0100000000E+03-1.666666667E+01+
*       1.6666666667E+01               0
GRID*             109370               07.0200000000E+031.6666666667E+01+
*       1.6666666667E+01               0
GRID*             109371               07.0200000000E+031.6666666667E+01+
*       -1.666666667E+01               0
GRID*             109372               07.0200000000E+03-1.666666667E+01+
*       -1.666666667E+01               0
GRID*             109373               07.0200000000E+03-1.666666667E+01+
*       1.6666666667E+01               0
GRID*             109374               07.0300000000E+031.6666666667E+01+
*       1.6666666667E+01               0
GRID*             109375               07.0300000000E+031.6666666667E+01+
*       -1.666666667E+01               0
GRID*             109376               07.0300000000E+03-1.666666667E+01+
*       -1.666666667E+01               0
GRID*             109377               07.0300000000E+03-1.666666667E+01+
*       1.6666666667E+01               0
GRID*             109378               07.0400000000E+031.6666666667E+01+
*       1.6666666667E+01               0
GRID*             109379               07.0400000000E+031.6666666667E+01+
*       -1.666666667E+01               0
GRID*             109380               07.0400000000E+03-1.666666667E+01+
*       -1.666666667E+01               0
GRID*             109381               07.0400000000E+03-1.666666667E+01+
*       1.6666666667E+01               0
GRID*             109382               07.0500000000E+031.6666666667E+01+
*       1.6666666667E+01               0
GRID*             109383               07.0500000000E+031.6666666667E+01+
*       -1.666666667E+01               0
GRID*             109384               07.0500000000E+03-1.666666667E+01+
*       -1.666666667E+01               0
GRID*             109385               07.0500000000E+03-1.666666667E+01+
*       1.6666666667E+01               0
GRID*             109386               07.0600000000E+031.6666666667E+01+
*       1.6666666667E+01               0
GRID*             109387               07.0600000000E+031.6666666667E+01+
*       -1.666666667E+01               0
GRID*             109388               07.0600000000E+03-1.666666667E+01+
*       -1.666666667E+01               0
GRID*             109389               07.0600000000E+03-1.666666667E+01+
*       1.6666666667E+01               0
GRID*             109390               07.0700000000E+031.6666666667E+01+
*       1.6666666667E+01               0
GRID*             109391               07.0700000000E+031.6666666667E+01+
*       -1.666666667E+01               0
GRID*             109392               07.0700000000E+03-1.666666667E+01+
*       -1.666666667E+01               0
GRID*             109393               07.0700000000E+03-1.666666667E+01+
*       1.6666666667E+01               0
GRID*             109394               07.0800000000E+031.6666666667E+01+
*       1.6666666667E+01               0
GRID*             109395               07.0800000000E+031.6666666667E+01+
*       -1.666666667E+01               0
GRID*             109396               07.0800000000E+03-1.666666667E+01+
*       -1.666666667E+01               0
GRID*             109397               07.0800000000E+03-1.666666667E+01+
*       1.6666666667E+01               0
GRID*             109398               07.0900000000E+031.6666666667E+01+
*       1.6666666667E+01               0
GRID*             109399               07.0900000000E+031.6666666667E+01+
*       -1.666666667E+01               0
GRID*             109400               07.0900000000E+03-1.666666667E+01+
*       -1.666666667E+01               0
GRID*             109401               07.0900000000E+03-1.666666667E+01+
*       1.6666666667E+01               0
GRID*             109402               07.1000000000E+031.6666666667E+01+
*       1.6666666667E+01               0
GRID*             109403               07.1000000000E+031.6666666667E+01+
*       -1.666666667E+01               0
GRID*             109404               07.1000000000E+03-1.666666667E+01+
*       -1.666666667E+01               0
GRID*             109405               07.1000000000E+03-1.666666667E+01+
*       1.6666666667E+01               0
GRID*             109406               07.1100000000E+031.6666666667E+01+
*       1.6666666667E+01               0
GRID*             109407               07.1100000000E+031.6666666667E+01+
*       -1.666666667E+01               0
GRID*             109408               07.1100000000E+03-1.666666667E+01+
*       -1.666666667E+01               0
GRID*             109409               07.1100000000E+03-1.666666667E+01+
*       1.6666666667E+01               0
GRID*             109410               07.1200000000E+031.6666666667E+01+
*       1.6666666667E+01               0
GRID*             109411               07.1200000000E+031.6666666667E+01+
*       -1.666666667E+01               0
GRID*             109412               07.1200000000E+03-1.666666667E+01+
*       -1.666666667E+01               0
GRID*             109413               07.1200000000E+03-1.666666667E+01+
*       1.6666666667E+01               0
GRID*             109414               07.1300000000E+031.6666666667E+01+
*       1.6666666667E+01               0
GRID*             109415               07.1300000000E+031.6666666667E+01+
*       -1.666666667E+01               0
GRID*             109416               07.1300000000E+03-1.666666667E+01+
*       -1.666666667E+01               0
GRID*             109417               07.1300000000E+03-1.666666667E+01+
*       1.6666666667E+01               0
GRID*             109418               07.1400000000E+031.6666666667E+01+
*       1.6666666667E+01               0
GRID*             109419               07.1400000000E+031.6666666667E+01+
*       -1.666666667E+01               0
GRID*             109420               07.1400000000E+03-1.666666667E+01+
*       -1.666666667E+01               0
GRID*             109421               07.1400000000E+03-1.666666667E+01+
*       1.6666666667E+01               0
GRID*             109422               07.1500000000E+031.6666666667E+01+
*       1.6666666667E+01               0
GRID*             109423               07.1500000000E+031.6666666667E+01+
*       -1.666666667E+01               0
GRID*             109424               07.1500000000E+03-1.666666667E+01+
*       -1.666666667E+01               0
GRID*             109425               07.1500000000E+03-1.666666667E+01+
*       1.6666666667E+01               0
GRID*             109426               07.1600000000E+031.6666666667E+01+
*       1.6666666667E+01               0
GRID*             109427               07.1600000000E+031.6666666667E+01+
*       -1.666666667E+01               0
GRID*             109428               07.1600000000E+03-1.666666667E+01+
*       -1.666666667E+01               0
GRID*             109429               07.1600000000E+03-1.666666667E+01+
*       1.6666666667E+01               0
GRID*             109430               07.1700000000E+031.6666666667E+01+
*       1.6666666667E+01               0
GRID*             109431               07.1700000000E+031.6666666667E+01+
*       -1.666666667E+01               0
GRID*             109432               07.1700000000E+03-1.666666667E+01+
*       -1.666666667E+01               0
GRID*             109433               07.1700000000E+03-1.666666667E+01+
*       1.6666666667E+01               0
GRID*             109434               07.1800000000E+031.6666666667E+01+
*       1.6666666667E+01               0
GRID*             109435               07.1800000000E+031.6666666667E+01+
*       -1.666666667E+01               0
GRID*             109436               07.1800000000E+03-1.666666667E+01+
*       -1.666666667E+01               0
GRID*             109437               07.1800000000E+03-1.666666667E+01+
*       1.6666666667E+01               0
GRID*             109438               07.1900000000E+031.6666666667E+01+
*       1.6666666667E+01               0
GRID*             109439               07.1900000000E+031.6666666667E+01+
*       -1.666666667E+01               0
GRID*             109440               07.1900000000E+03-1.666666667E+01+
*       -1.666666667E+01               0
GRID*             109441               07.1900000000E+03-1.666666667E+01+
*       1.6666666667E+01               0
GRID*             109442               07.2000000000E+031.6666666667E+01+
*       1.6666666667E+01               0
GRID*             109443               07.2000000000E+031.6666666667E+01+
*       -1.666666667E+01               0
GRID*             109444               07.2000000000E+03-1.666666667E+01+
*       -1.666666667E+01               0
GRID*             109445               07.2000000000E+03-1.666666667E+01+
*       1.6666666667E+01               0
GRID*             109446               07.2100000000E+031.6666666667E+01+
*       1.6666666667E+01               0
GRID*             109447               07.2100000000E+031.6666666667E+01+
*       -1.666666667E+01               0
GRID*             109448               07.2100000000E+03-1.666666667E+01+
*       -1.666666667E+01               0
GRID*             109449               07.2100000000E+03-1.666666667E+01+
*       1.6666666667E+01               0
GRID*             109450               07.2200000000E+031.6666666667E+01+
*       1.6666666667E+01               0
GRID*             109451               07.2200000000E+031.6666666667E+01+
*       -1.666666667E+01               0
GRID*             109452               07.2200000000E+03-1.666666667E+01+
*       -1.666666667E+01               0
GRID*             109453               07.2200000000E+03-1.666666667E+01+
*       1.6666666667E+01               0
GRID*             109454               07.2300000000E+031.6666666667E+01+
*       1.6666666667E+01               0
GRID*             109455               07.2300000000E+031.6666666667E+01+
*       -1.666666667E+01               0
GRID*             109456               07.2300000000E+03-1.666666667E+01+
*       -1.666666667E+01               0
GRID*             109457               07.2300000000E+03-1.666666667E+01+
*       1.6666666667E+01               0
GRID*             109458               07.2400000000E+031.6666666667E+01+
*       1.6666666667E+01               0
GRID*             109459               07.2400000000E+031.6666666667E+01+
*       -1.666666667E+01               0
GRID*             109460               07.2400000000E+03-1.666666667E+01+
*       -1.666666667E+01               0
GRID*             109461               07.2400000000E+03-1.666666667E+01+
*       1.6666666667E+01               0
GRID*             109462               07.2500000000E+031.6666666667E+01+
*       1.6666666667E+01               0
GRID*             109463               07.2500000000E+031.6666666667E+01+
*       -1.666666667E+01               0
GRID*             109464               07.2500000000E+03-1.666666667E+01+
*       -1.666666667E+01               0
GRID*             109465               07.2500000000E+03-1.666666667E+01+
*       1.6666666667E+01               0
GRID*             109466               07.2600000000E+031.6666666667E+01+
*       1.6666666667E+01               0
GRID*             109467               07.2600000000E+031.6666666667E+01+
*       -1.666666667E+01               0
GRID*             109468               07.2600000000E+03-1.666666667E+01+
*       -1.666666667E+01               0
GRID*             109469               07.2600000000E+03-1.666666667E+01+
*       1.6666666667E+01               0
GRID*             109470               07.2700000000E+031.6666666667E+01+
*       1.6666666667E+01               0
GRID*             109471               07.2700000000E+031.6666666667E+01+
*       -1.666666667E+01               0
GRID*             109472               07.2700000000E+03-1.666666667E+01+
*       -1.666666667E+01               0
GRID*             109473               07.2700000000E+03-1.666666667E+01+
*       1.6666666667E+01               0
GRID*             109474               07.2800000000E+031.6666666667E+01+
*       1.6666666667E+01               0
GRID*             109475               07.2800000000E+031.6666666667E+01+
*       -1.666666667E+01               0
GRID*             109476               07.2800000000E+03-1.666666667E+01+
*       -1.666666667E+01               0
GRID*             109477               07.2800000000E+03-1.666666667E+01+
*       1.6666666667E+01               0
GRID*             109478               07.2900000000E+031.6666666667E+01+
*       1.6666666667E+01               0
GRID*             109479               07.2900000000E+031.6666666667E+01+
*       -1.666666667E+01               0
GRID*             109480               07.2900000000E+03-1.666666667E+01+
*       -1.666666667E+01               0
GRID*             109481               07.2900000000E+03-1.666666667E+01+
*       1.6666666667E+01               0
GRID*             109482               07.3000000000E+031.6666666667E+01+
*       1.6666666667E+01               0
GRID*             109483               07.3000000000E+031.6666666667E+01+
*       -1.666666667E+01               0
GRID*             109484               07.3000000000E+03-1.666666667E+01+
*       -1.666666667E+01               0
GRID*             109485               07.3000000000E+03-1.666666667E+01+
*       1.6666666667E+01               0
GRID*             109486               07.3100000000E+031.6666666667E+01+
*       1.6666666667E+01               0
GRID*             109487               07.3100000000E+031.6666666667E+01+
*       -1.666666667E+01               0
GRID*             109488               07.3100000000E+03-1.666666667E+01+
*       -1.666666667E+01               0
GRID*             109489               07.3100000000E+03-1.666666667E+01+
*       1.6666666667E+01               0
GRID*             109490               07.3200000000E+031.6666666667E+01+
*       1.6666666667E+01               0
GRID*             109491               07.3200000000E+031.6666666667E+01+
*       -1.666666667E+01               0
GRID*             109492               07.3200000000E+03-1.666666667E+01+
*       -1.666666667E+01               0
GRID*             109493               07.3200000000E+03-1.666666667E+01+
*       1.6666666667E+01               0
GRID*             109494               07.3300000000E+031.6666666667E+01+
*       1.6666666667E+01               0
GRID*             109495               07.3300000000E+031.6666666667E+01+
*       -1.666666667E+01               0
GRID*             109496               07.3300000000E+03-1.666666667E+01+
*       -1.666666667E+01               0
GRID*             109497               07.3300000000E+03-1.666666667E+01+
*       1.6666666667E+01               0
GRID*             109498               07.3400000000E+031.6666666667E+01+
*       1.6666666667E+01               0
GRID*             109499               07.3400000000E+031.6666666667E+01+
*       -1.666666667E+01               0
GRID*             109500               07.3400000000E+03-1.666666667E+01+
*       -1.666666667E+01               0
GRID*             109501               07.3400000000E+03-1.666666667E+01+
*       1.6666666667E+01               0
GRID*             109502               07.3500000000E+031.6666666667E+01+
*       1.6666666667E+01               0
GRID*             109503               07.3500000000E+031.6666666667E+01+
*       -1.666666667E+01               0
GRID*             109504               07.3500000000E+03-1.666666667E+01+
*       -1.666666667E+01               0
GRID*             109505               07.3500000000E+03-1.666666667E+01+
*       1.6666666667E+01               0
GRID*             109506               07.3600000000E+031.6666666667E+01+
*       1.6666666667E+01               0
GRID*             109507               07.3600000000E+031.6666666667E+01+
*       -1.666666667E+01               0
GRID*             109508               07.3600000000E+03-1.666666667E+01+
*       -1.666666667E+01               0
GRID*             109509               07.3600000000E+03-1.666666667E+01+
*       1.6666666667E+01               0
GRID*             109510               07.3700000000E+031.6666666667E+01+
*       1.6666666667E+01               0
GRID*             109511               07.3700000000E+031.6666666667E+01+
*       -1.666666667E+01               0
GRID*             109512               07.3700000000E+03-1.666666667E+01+
*       -1.666666667E+01               0
GRID*             109513               07.3700000000E+03-1.666666667E+01+
*       1.6666666667E+01               0
GRID*             109514               07.3800000000E+031.6666666667E+01+
*       1.6666666667E+01               0
GRID*             109515               07.3800000000E+031.6666666667E+01+
*       -1.666666667E+01               0
GRID*             109516               07.3800000000E+03-1.666666667E+01+
*       -1.666666667E+01               0
GRID*             109517               07.3800000000E+03-1.666666667E+01+
*       1.6666666667E+01               0
GRID*             109518               07.3900000000E+031.6666666667E+01+
*       1.6666666667E+01               0
GRID*             109519               07.3900000000E+031.6666666667E+01+
*       -1.666666667E+01               0
GRID*             109520               07.3900000000E+03-1.666666667E+01+
*       -1.666666667E+01               0
GRID*             109521               07.3900000000E+03-1.666666667E+01+
*       1.6666666667E+01               0
GRID*             109522               07.4000000000E+031.6666666667E+01+
*       1.6666666667E+01               0
GRID*             109523               07.4000000000E+031.6666666667E+01+
*       -1.666666667E+01               0
GRID*             109524               07.4000000000E+03-1.666666667E+01+
*       -1.666666667E+01               0
GRID*             109525               07.4000000000E+03-1.666666667E+01+
*       1.6666666667E+01               0
GRID*             109526               07.4100000000E+031.6666666667E+01+
*       1.6666666667E+01               0
GRID*             109527               07.4100000000E+031.6666666667E+01+
*       -1.666666667E+01               0
GRID*             109528               07.4100000000E+03-1.666666667E+01+
*       -1.666666667E+01               0
GRID*             109529               07.4100000000E+03-1.666666667E+01+
*       1.6666666667E+01               0
GRID*             109530               07.4200000000E+031.6666666667E+01+
*       1.6666666667E+01               0
GRID*             109531               07.4200000000E+031.6666666667E+01+
*       -1.666666667E+01               0
GRID*             109532               07.4200000000E+03-1.666666667E+01+
*       -1.666666667E+01               0
GRID*             109533               07.4200000000E+03-1.666666667E+01+
*       1.6666666667E+01               0
GRID*             109534               07.4300000000E+031.6666666667E+01+
*       1.6666666667E+01               0
GRID*             109535               07.4300000000E+031.6666666667E+01+
*       -1.666666667E+01               0
GRID*             109536               07.4300000000E+03-1.666666667E+01+
*       -1.666666667E+01               0
GRID*             109537               07.4300000000E+03-1.666666667E+01+
*       1.6666666667E+01               0
GRID*             109538               07.4400000000E+031.6666666667E+01+
*       1.6666666667E+01               0
GRID*             109539               07.4400000000E+031.6666666667E+01+
*       -1.666666667E+01               0
GRID*             109540               07.4400000000E+03-1.666666667E+01+
*       -1.666666667E+01               0
GRID*             109541               07.4400000000E+03-1.666666667E+01+
*       1.6666666667E+01               0
GRID*             109542               07.4500000000E+031.6666666667E+01+
*       1.6666666667E+01               0
GRID*             109543               07.4500000000E+031.6666666667E+01+
*       -1.666666667E+01               0
GRID*             109544               07.4500000000E+03-1.666666667E+01+
*       -1.666666667E+01               0
GRID*             109545               07.4500000000E+03-1.666666667E+01+
*       1.6666666667E+01               0
GRID*             109546               07.4600000000E+031.6666666667E+01+
*       1.6666666667E+01               0
GRID*             109547               07.4600000000E+031.6666666667E+01+
*       -1.666666667E+01               0
GRID*             109548               07.4600000000E+03-1.666666667E+01+
*       -1.666666667E+01               0
GRID*             109549               07.4600000000E+03-1.666666667E+01+
*       1.6666666667E+01               0
GRID*             109550               07.4700000000E+031.6666666667E+01+
*       1.6666666667E+01               0
GRID*             109551               07.4700000000E+031.6666666667E+01+
*       -1.666666667E+01               0
GRID*             109552               07.4700000000E+03-1.666666667E+01+
*       -1.666666667E+01               0
GRID*             109553               07.4700000000E+03-1.666666667E+01+
*       1.6666666667E+01               0
GRID*             109554               07.4800000000E+031.6666666667E+01+
*       1.6666666667E+01               0
GRID*             109555               07.4800000000E+031.6666666667E+01+
*       -1.666666667E+01               0
GRID*             109556               07.4800000000E+03-1.666666667E+01+
*       -1.666666667E+01               0
GRID*             109557               07.4800000000E+03-1.666666667E+01+
*       1.6666666667E+01               0
GRID*             109558               07.4900000000E+031.6666666667E+01+
*       1.6666666667E+01               0
GRID*             109559               07.4900000000E+031.6666666667E+01+
*       -1.666666667E+01               0
GRID*             109560               07.4900000000E+03-1.666666667E+01+
*       -1.666666667E+01               0
GRID*             109561               07.4900000000E+03-1.666666667E+01+
*       1.6666666667E+01               0
GRID*             109562               07.5000000000E+031.6666666667E+01+
*       1.6666666667E+01               0
GRID*             109563               07.5000000000E+031.6666666667E+01+
*       -1.666666667E+01               0
GRID*             109564               07.5000000000E+03-1.666666667E+01+
*       -1.666666667E+01               0
GRID*             109565               07.5000000000E+03-1.666666667E+01+
*       1.6666666667E+01               0
GRID*             109566               07.5100000000E+031.6666666667E+01+
*       1.6666666667E+01               0
GRID*             109567               07.5100000000E+031.6666666667E+01+
*       -1.666666667E+01               0
GRID*             109568               07.5100000000E+03-1.666666667E+01+
*       -1.666666667E+01               0
GRID*             109569               07.5100000000E+03-1.666666667E+01+
*       1.6666666667E+01               0
GRID*             109570               07.5200000000E+031.6666666667E+01+
*       1.6666666667E+01               0
GRID*             109571               07.5200000000E+031.6666666667E+01+
*       -1.666666667E+01               0
GRID*             109572               07.5200000000E+03-1.666666667E+01+
*       -1.666666667E+01               0
GRID*             109573               07.5200000000E+03-1.666666667E+01+
*       1.6666666667E+01               0
GRID*             109574               07.5300000000E+031.6666666667E+01+
*       1.6666666667E+01               0
GRID*             109575               07.5300000000E+031.6666666667E+01+
*       -1.666666667E+01               0
GRID*             109576               07.5300000000E+03-1.666666667E+01+
*       -1.666666667E+01               0
GRID*             109577               07.5300000000E+03-1.666666667E+01+
*       1.6666666667E+01               0
GRID*             109578               07.5400000000E+031.6666666667E+01+
*       1.6666666667E+01               0
GRID*             109579               07.5400000000E+031.6666666667E+01+
*       -1.666666667E+01               0
GRID*             109580               07.5400000000E+03-1.666666667E+01+
*       -1.666666667E+01               0
GRID*             109581               07.5400000000E+03-1.666666667E+01+
*       1.6666666667E+01               0
GRID*             109582               07.5500000000E+031.6666666667E+01+
*       1.6666666667E+01               0
GRID*             109583               07.5500000000E+031.6666666667E+01+
*       -1.666666667E+01               0
GRID*             109584               07.5500000000E+03-1.666666667E+01+
*       -1.666666667E+01               0
GRID*             109585               07.5500000000E+03-1.666666667E+01+
*       1.6666666667E+01               0
GRID*             109586               07.5600000000E+031.6666666667E+01+
*       1.6666666667E+01               0
GRID*             109587               07.5600000000E+031.6666666667E+01+
*       -1.666666667E+01               0
GRID*             109588               07.5600000000E+03-1.666666667E+01+
*       -1.666666667E+01               0
GRID*             109589               07.5600000000E+03-1.666666667E+01+
*       1.6666666667E+01               0
GRID*             109590               07.5700000000E+031.6666666667E+01+
*       1.6666666667E+01               0
GRID*             109591               07.5700000000E+031.6666666667E+01+
*       -1.666666667E+01               0
GRID*             109592               07.5700000000E+03-1.666666667E+01+
*       -1.666666667E+01               0
GRID*             109593               07.5700000000E+03-1.666666667E+01+
*       1.6666666667E+01               0
GRID*             109594               07.5800000000E+031.6666666667E+01+
*       1.6666666667E+01               0
GRID*             109595               07.5800000000E+031.6666666667E+01+
*       -1.666666667E+01               0
GRID*             109596               07.5800000000E+03-1.666666667E+01+
*       -1.666666667E+01               0
GRID*             109597               07.5800000000E+03-1.666666667E+01+
*       1.6666666667E+01               0
GRID*             109598               07.5900000000E+031.6666666667E+01+
*       1.6666666667E+01               0
GRID*             109599               07.5900000000E+031.6666666667E+01+
*       -1.666666667E+01               0
GRID*             109600               07.5900000000E+03-1.666666667E+01+
*       -1.666666667E+01               0
GRID*             109601               07.5900000000E+03-1.666666667E+01+
*       1.6666666667E+01               0
GRID*             109602               07.6000000000E+031.6666666667E+01+
*       1.6666666667E+01               0
GRID*             109603               07.6000000000E+031.6666666667E+01+
*       -1.666666667E+01               0
GRID*             109604               07.6000000000E+03-1.666666667E+01+
*       -1.666666667E+01               0
GRID*             109605               07.6000000000E+03-1.666666667E+01+
*       1.6666666667E+01               0
GRID*             109606               07.6100000000E+031.6666666667E+01+
*       1.6666666667E+01               0
GRID*             109607               07.6100000000E+031.6666666667E+01+
*       -1.666666667E+01               0
GRID*             109608               07.6100000000E+03-1.666666667E+01+
*       -1.666666667E+01               0
GRID*             109609               07.6100000000E+03-1.666666667E+01+
*       1.6666666667E+01               0
GRID*             109610               07.6200000000E+031.6666666667E+01+
*       1.6666666667E+01               0
GRID*             109611               07.6200000000E+031.6666666667E+01+
*       -1.666666667E+01               0
GRID*             109612               07.6200000000E+03-1.666666667E+01+
*       -1.666666667E+01               0
GRID*             109613               07.6200000000E+03-1.666666667E+01+
*       1.6666666667E+01               0
GRID*             109614               07.6300000000E+031.6666666667E+01+
*       1.6666666667E+01               0
GRID*             109615               07.6300000000E+031.6666666667E+01+
*       -1.666666667E+01               0
GRID*             109616               07.6300000000E+03-1.666666667E+01+
*       -1.666666667E+01               0
GRID*             109617               07.6300000000E+03-1.666666667E+01+
*       1.6666666667E+01               0
GRID*             109618               07.6400000000E+031.6666666667E+01+
*       1.6666666667E+01               0
GRID*             109619               07.6400000000E+031.6666666667E+01+
*       -1.666666667E+01               0
GRID*             109620               07.6400000000E+03-1.666666667E+01+
*       -1.666666667E+01               0
GRID*             109621               07.6400000000E+03-1.666666667E+01+
*       1.6666666667E+01               0
GRID*             109622               07.6500000000E+031.6666666667E+01+
*       1.6666666667E+01               0
GRID*             109623               07.6500000000E+031.6666666667E+01+
*       -1.666666667E+01               0
GRID*             109624               07.6500000000E+03-1.666666667E+01+
*       -1.666666667E+01               0
GRID*             109625               07.6500000000E+03-1.666666667E+01+
*       1.6666666667E+01               0
GRID*             109626               07.6600000000E+031.6666666667E+01+
*       1.6666666667E+01               0
GRID*             109627               07.6600000000E+031.6666666667E+01+
*       -1.666666667E+01               0
GRID*             109628               07.6600000000E+03-1.666666667E+01+
*       -1.666666667E+01               0
GRID*             109629               07.6600000000E+03-1.666666667E+01+
*       1.6666666667E+01               0
GRID*             109630               07.6700000000E+031.6666666667E+01+
*       1.6666666667E+01               0
GRID*             109631               07.6700000000E+031.6666666667E+01+
*       -1.666666667E+01               0
GRID*             109632               07.6700000000E+03-1.666666667E+01+
*       -1.666666667E+01               0
GRID*             109633               07.6700000000E+03-1.666666667E+01+
*       1.6666666667E+01               0
GRID*             109634               07.6800000000E+031.6666666667E+01+
*       1.6666666667E+01               0
GRID*             109635               07.6800000000E+031.6666666667E+01+
*       -1.666666667E+01               0
GRID*             109636               07.6800000000E+03-1.666666667E+01+
*       -1.666666667E+01               0
GRID*             109637               07.6800000000E+03-1.666666667E+01+
*       1.6666666667E+01               0
GRID*             109638               07.6900000000E+031.6666666667E+01+
*       1.6666666667E+01               0
GRID*             109639               07.6900000000E+031.6666666667E+01+
*       -1.666666667E+01               0
GRID*             109640               07.6900000000E+03-1.666666667E+01+
*       -1.666666667E+01               0
GRID*             109641               07.6900000000E+03-1.666666667E+01+
*       1.6666666667E+01               0
GRID*             109642               07.7000000000E+031.6666666667E+01+
*       1.6666666667E+01               0
GRID*             109643               07.7000000000E+031.6666666667E+01+
*       -1.666666667E+01               0
GRID*             109644               07.7000000000E+03-1.666666667E+01+
*       -1.666666667E+01               0
GRID*             109645               07.7000000000E+03-1.666666667E+01+
*       1.6666666667E+01               0
GRID*             109646               07.7100000000E+031.6666666667E+01+
*       1.6666666667E+01               0
GRID*             109647               07.7100000000E+031.6666666667E+01+
*       -1.666666667E+01               0
GRID*             109648               07.7100000000E+03-1.666666667E+01+
*       -1.666666667E+01               0
GRID*             109649               07.7100000000E+03-1.666666667E+01+
*       1.6666666667E+01               0
GRID*             109650               07.7200000000E+031.6666666667E+01+
*       1.6666666667E+01               0
GRID*             109651               07.7200000000E+031.6666666667E+01+
*       -1.666666667E+01               0
GRID*             109652               07.7200000000E+03-1.666666667E+01+
*       -1.666666667E+01               0
GRID*             109653               07.7200000000E+03-1.666666667E+01+
*       1.6666666667E+01               0
GRID*             109654               07.7300000000E+031.6666666667E+01+
*       1.6666666667E+01               0
GRID*             109655               07.7300000000E+031.6666666667E+01+
*       -1.666666667E+01               0
GRID*             109656               07.7300000000E+03-1.666666667E+01+
*       -1.666666667E+01               0
GRID*             109657               07.7300000000E+03-1.666666667E+01+
*       1.6666666667E+01               0
GRID*             109658               07.7400000000E+031.6666666667E+01+
*       1.6666666667E+01               0
GRID*             109659               07.7400000000E+031.6666666667E+01+
*       -1.666666667E+01               0
GRID*             109660               07.7400000000E+03-1.666666667E+01+
*       -1.666666667E+01               0
GRID*             109661               07.7400000000E+03-1.666666667E+01+
*       1.6666666667E+01               0
GRID*             109662               07.7500000000E+031.6666666667E+01+
*       1.6666666667E+01               0
GRID*             109663               07.7500000000E+031.6666666667E+01+
*       -1.666666667E+01               0
GRID*             109664               07.7500000000E+03-1.666666667E+01+
*       -1.666666667E+01               0
GRID*             109665               07.7500000000E+03-1.666666667E+01+
*       1.6666666667E+01               0
GRID*             109666               07.7600000000E+031.6666666667E+01+
*       1.6666666667E+01               0
GRID*             109667               07.7600000000E+031.6666666667E+01+
*       -1.666666667E+01               0
GRID*             109668               07.7600000000E+03-1.666666667E+01+
*       -1.666666667E+01               0
GRID*             109669               07.7600000000E+03-1.666666667E+01+
*       1.6666666667E+01               0
GRID*             109670               07.7700000000E+031.6666666667E+01+
*       1.6666666667E+01               0
GRID*             109671               07.7700000000E+031.6666666667E+01+
*       -1.666666667E+01               0
GRID*             109672               07.7700000000E+03-1.666666667E+01+
*       -1.666666667E+01               0
GRID*             109673               07.7700000000E+03-1.666666667E+01+
*       1.6666666667E+01               0
GRID*             109674               07.7800000000E+031.6666666667E+01+
*       1.6666666667E+01               0
GRID*             109675               07.7800000000E+031.6666666667E+01+
*       -1.666666667E+01               0
GRID*             109676               07.7800000000E+03-1.666666667E+01+
*       -1.666666667E+01               0
GRID*             109677               07.7800000000E+03-1.666666667E+01+
*       1.6666666667E+01               0
GRID*             109678               07.7900000000E+031.6666666667E+01+
*       1.6666666667E+01               0
GRID*             109679               07.7900000000E+031.6666666667E+01+
*       -1.666666667E+01               0
GRID*             109680               07.7900000000E+03-1.666666667E+01+
*       -1.666666667E+01               0
GRID*             109681               07.7900000000E+03-1.666666667E+01+
*       1.6666666667E+01               0
GRID*             109682               07.8000000000E+031.6666666667E+01+
*       1.6666666667E+01               0
GRID*             109683               07.8000000000E+031.6666666667E+01+
*       -1.666666667E+01               0
GRID*             109684               07.8000000000E+03-1.666666667E+01+
*       -1.666666667E+01               0
GRID*             109685               07.8000000000E+03-1.666666667E+01+
*       1.6666666667E+01               0
GRID*             109686               07.8100000000E+031.6666666667E+01+
*       1.6666666667E+01               0
GRID*             109687               07.8100000000E+031.6666666667E+01+
*       -1.666666667E+01               0
GRID*             109688               07.8100000000E+03-1.666666667E+01+
*       -1.666666667E+01               0
GRID*             109689               07.8100000000E+03-1.666666667E+01+
*       1.6666666667E+01               0
GRID*             109690               07.8200000000E+031.6666666667E+01+
*       1.6666666667E+01               0
GRID*             109691               07.8200000000E+031.6666666667E+01+
*       -1.666666667E+01               0
GRID*             109692               07.8200000000E+03-1.666666667E+01+
*       -1.666666667E+01               0
GRID*             109693               07.8200000000E+03-1.666666667E+01+
*       1.6666666667E+01               0
GRID*             109694               07.8300000000E+031.6666666667E+01+
*       1.6666666667E+01               0
GRID*             109695               07.8300000000E+031.6666666667E+01+
*       -1.666666667E+01               0
GRID*             109696               07.8300000000E+03-1.666666667E+01+
*       -1.666666667E+01               0
GRID*             109697               07.8300000000E+03-1.666666667E+01+
*       1.6666666667E+01               0
GRID*             109698               07.8400000000E+031.6666666667E+01+
*       1.6666666667E+01               0
GRID*             109699               07.8400000000E+031.6666666667E+01+
*       -1.666666667E+01               0
GRID*             109700               07.8400000000E+03-1.666666667E+01+
*       -1.666666667E+01               0
GRID*             109701               07.8400000000E+03-1.666666667E+01+
*       1.6666666667E+01               0
GRID*             109702               07.8500000000E+031.6666666667E+01+
*       1.6666666667E+01               0
GRID*             109703               07.8500000000E+031.6666666667E+01+
*       -1.666666667E+01               0
GRID*             109704               07.8500000000E+03-1.666666667E+01+
*       -1.666666667E+01               0
GRID*             109705               07.8500000000E+03-1.666666667E+01+
*       1.6666666667E+01               0
GRID*             109706               07.8600000000E+031.6666666667E+01+
*       1.6666666667E+01               0
GRID*             109707               07.8600000000E+031.6666666667E+01+
*       -1.666666667E+01               0
GRID*             109708               07.8600000000E+03-1.666666667E+01+
*       -1.666666667E+01               0
GRID*             109709               07.8600000000E+03-1.666666667E+01+
*       1.6666666667E+01               0
GRID*             109710               07.8700000000E+031.6666666667E+01+
*       1.6666666667E+01               0
GRID*             109711               07.8700000000E+031.6666666667E+01+
*       -1.666666667E+01               0
GRID*             109712               07.8700000000E+03-1.666666667E+01+
*       -1.666666667E+01               0
GRID*             109713               07.8700000000E+03-1.666666667E+01+
*       1.6666666667E+01               0
GRID*             109714               07.8800000000E+031.6666666667E+01+
*       1.6666666667E+01               0
GRID*             109715               07.8800000000E+031.6666666667E+01+
*       -1.666666667E+01               0
GRID*             109716               07.8800000000E+03-1.666666667E+01+
*       -1.666666667E+01               0
GRID*             109717               07.8800000000E+03-1.666666667E+01+
*       1.6666666667E+01               0
GRID*             109718               07.8900000000E+031.6666666667E+01+
*       1.6666666667E+01               0
GRID*             109719               07.8900000000E+031.6666666667E+01+
*       -1.666666667E+01               0
GRID*             109720               07.8900000000E+03-1.666666667E+01+
*       -1.666666667E+01               0
GRID*             109721               07.8900000000E+03-1.666666667E+01+
*       1.6666666667E+01               0
GRID*             109722               07.9000000000E+031.6666666667E+01+
*       1.6666666667E+01               0
GRID*             109723               07.9000000000E+031.6666666667E+01+
*       -1.666666667E+01               0
GRID*             109724               07.9000000000E+03-1.666666667E+01+
*       -1.666666667E+01               0
GRID*             109725               07.9000000000E+03-1.666666667E+01+
*       1.6666666667E+01               0
GRID*             109726               07.9100000000E+031.6666666667E+01+
*       1.6666666667E+01               0
GRID*             109727               07.9100000000E+031.6666666667E+01+
*       -1.666666667E+01               0
GRID*             109728               07.9100000000E+03-1.666666667E+01+
*       -1.666666667E+01               0
GRID*             109729               07.9100000000E+03-1.666666667E+01+
*       1.6666666667E+01               0
GRID*             109730               07.9200000000E+031.6666666667E+01+
*       1.6666666667E+01               0
GRID*             109731               07.9200000000E+031.6666666667E+01+
*       -1.666666667E+01               0
GRID*             109732               07.9200000000E+03-1.666666667E+01+
*       -1.666666667E+01               0
GRID*             109733               07.9200000000E+03-1.666666667E+01+
*       1.6666666667E+01               0
GRID*             109734               07.9300000000E+031.6666666667E+01+
*       1.6666666667E+01               0
GRID*             109735               07.9300000000E+031.6666666667E+01+
*       -1.666666667E+01               0
GRID*             109736               07.9300000000E+03-1.666666667E+01+
*       -1.666666667E+01               0
GRID*             109737               07.9300000000E+03-1.666666667E+01+
*       1.6666666667E+01               0
GRID*             109738               07.9400000000E+031.6666666667E+01+
*       1.6666666667E+01               0
GRID*             109739               07.9400000000E+031.6666666667E+01+
*       -1.666666667E+01               0
GRID*             109740               07.9400000000E+03-1.666666667E+01+
*       -1.666666667E+01               0
GRID*             109741               07.9400000000E+03-1.666666667E+01+
*       1.6666666667E+01               0
GRID*             109742               07.9500000000E+031.6666666667E+01+
*       1.6666666667E+01               0
GRID*             109743               07.9500000000E+031.6666666667E+01+
*       -1.666666667E+01               0
GRID*             109744               07.9500000000E+03-1.666666667E+01+
*       -1.666666667E+01               0
GRID*             109745               07.9500000000E+03-1.666666667E+01+
*       1.6666666667E+01               0
GRID*             109746               07.9600000000E+031.6666666667E+01+
*       1.6666666667E+01               0
GRID*             109747               07.9600000000E+031.6666666667E+01+
*       -1.666666667E+01               0
GRID*             109748               07.9600000000E+03-1.666666667E+01+
*       -1.666666667E+01               0
GRID*             109749               07.9600000000E+03-1.666666667E+01+
*       1.6666666667E+01               0
GRID*             109750               07.9700000000E+031.6666666667E+01+
*       1.6666666667E+01               0
GRID*             109751               07.9700000000E+031.6666666667E+01+
*       -1.666666667E+01               0
GRID*             109752               07.9700000000E+03-1.666666667E+01+
*       -1.666666667E+01               0
GRID*             109753               07.9700000000E+03-1.666666667E+01+
*       1.6666666667E+01               0
GRID*             109754               07.9800000000E+031.6666666667E+01+
*       1.6666666667E+01               0
GRID*             109755               07.9800000000E+031.6666666667E+01+
*       -1.666666667E+01               0
GRID*             109756               07.9800000000E+03-1.666666667E+01+
*       -1.666666667E+01               0
GRID*             109757               07.9800000000E+03-1.666666667E+01+
*       1.6666666667E+01               0
GRID*             109758               07.9900000000E+031.6666666667E+01+
*       1.6666666667E+01               0
GRID*             109759               07.9900000000E+031.6666666667E+01+
*       -1.666666667E+01               0
GRID*             109760               07.9900000000E+03-1.666666667E+01+
*       -1.666666667E+01               0
GRID*             109761               07.9900000000E+03-1.666666667E+01+
*       1.6666666667E+01               0
$*
$* ELEMENT CARDS
$*
$*  Mesh Collector: Solid(1)
$*  Mesh: 3d_mesh(1)
CHEXA      80010       1   96922   96924   96925   96923   99367   99366+
+          99369   99368
CHEXA      80011       1   99367   99366   99369   99368   99371   99370+
+          99373   99372
CHEXA      80012       1   99371   99370   99373   99372   99375   99374+
+          99377   99376
CHEXA      80013       1   99375   99374   99377   99376   99379   99378+
+          99381   99380
CHEXA      80014       1   99379   99378   99381   99380   99383   99382+
+          99385   99384
CHEXA      80015       1   99383   99382   99385   99384   99387   99386+
+          99389   99388
CHEXA      80016       1   99387   99386   99389   99388   99391   99390+
+          99393   99392
CHEXA      80017       1   99391   99390   99393   99392   99395   99394+
+          99397   99396
CHEXA      80018       1   99395   99394   99397   99396   99399   99398+
+          99401   99400
CHEXA      80019       1   99399   99398   99401   99400   99403   99402+
+          99405   99404
CHEXA      80020       1   99403   99402   99405   99404   99407   99406+
+          99409   99408
CHEXA      80021       1   99407   99406   99409   99408   99411   99410+
+          99413   99412
CHEXA      80022       1   99411   99410   99413   99412   99415   99414+
+          99417   99416
CHEXA      80023       1   99415   99414   99417   99416   99419   99418+
+          99421   99420
CHEXA      80024       1   99419   99418   99421   99420   99423   99422+
+          99425   99424
CHEXA      80025       1   99423   99422   99425   99424   99427   99426+
+          99429   99428
CHEXA      80026       1   99427   99426   99429   99428   99431   99430+
+          99433   99432
CHEXA      80027       1   99431   99430   99433   99432   99435   99434+
+          99437   99436
CHEXA      80028       1   99435   99434   99437   99436   99439   99438+
+          99441   99440
CHEXA      80029       1   99439   99438   99441   99440   99443   99442+
+          99445   99444
CHEXA      80030       1   99443   99442   99445   99444   99447   99446+
+          99449   99448
CHEXA      80031       1   99447   99446   99449   99448   99451   99450+
+          99453   99452
CHEXA      80032       1   99451   99450   99453   99452   99455   99454+
+          99457   99456
CHEXA      80033       1   99455   99454   99457   99456   99459   99458+
+          99461   99460
CHEXA      80034       1   99459   99458   99461   99460   99463   99462+
+          99465   99464
CHEXA      80035       1   99463   99462   99465   99464   99467   99466+
+          99469   99468
CHEXA      80036       1   99467   99466   99469   99468   99471   99470+
+          99473   99472
CHEXA      80037       1   99471   99470   99473   99472   99475   99474+
+          99477   99476
CHEXA      80038       1   99475   99474   99477   99476   99479   99478+
+          99481   99480
CHEXA      80039       1   99479   99478   99481   99480   99483   99482+
+          99485   99484
CHEXA      80040       1   99483   99482   99485   99484   99487   99486+
+          99489   99488
CHEXA      80041       1   99487   99486   99489   99488   99491   99490+
+          99493   99492
CHEXA      80042       1   99491   99490   99493   99492   99495   99494+
+          99497   99496
CHEXA      80043       1   99495   99494   99497   99496   99499   99498+
+          99501   99500
CHEXA      80044       1   99499   99498   99501   99500   99503   99502+
+          99505   99504
CHEXA      80045       1   99503   99502   99505   99504   99507   99506+
+          99509   99508
CHEXA      80046       1   99507   99506   99509   99508   99511   99510+
+          99513   99512
CHEXA      80047       1   99511   99510   99513   99512   99515   99514+
+          99517   99516
CHEXA      80048       1   99515   99514   99517   99516   99519   99518+
+          99521   99520
CHEXA      80049       1   99519   99518   99521   99520   99523   99522+
+          99525   99524
CHEXA      80050       1   99523   99522   99525   99524   99527   99526+
+          99529   99528
CHEXA      80051       1   99527   99526   99529   99528   99531   99530+
+          99533   99532
CHEXA      80052       1   99531   99530   99533   99532   99535   99534+
+          99537   99536
CHEXA      80053       1   99535   99534   99537   99536   99539   99538+
+          99541   99540
CHEXA      80054       1   99539   99538   99541   99540   99543   99542+
+          99545   99544
CHEXA      80055       1   99543   99542   99545   99544   99547   99546+
+          99549   99548
CHEXA      80056       1   99547   99546   99549   99548   99551   99550+
+          99553   99552
CHEXA      80057       1   99551   99550   99553   99552   99555   99554+
+          99557   99556
CHEXA      80058       1   99555   99554   99557   99556   99559   99558+
+          99561   99560
CHEXA      80059       1   99559   99558   99561   99560   99563   99562+
+          99565   99564
CHEXA      80060       1   99563   99562   99565   99564   99567   99566+
+          99569   99568
CHEXA      80061       1   99567   99566   99569   99568   99571   99570+
+          99573   99572
CHEXA      80062       1   99571   99570   99573   99572   99575   99574+
+          99577   99576
CHEXA      80063       1   99575   99574   99577   99576   99579   99578+
+          99581   99580
CHEXA      80064       1   99579   99578   99581   99580   99583   99582+
+          99585   99584
CHEXA      80065       1   99583   99582   99585   99584   99587   99586+
+          99589   99588
CHEXA      80066       1   99587   99586   99589   99588   99591   99590+
+          99593   99592
CHEXA      80067       1   99591   99590   99593   99592   99595   99594+
+          99597   99596
CHEXA      80068       1   99595   99594   99597   99596   99599   99598+
+          99601   99600
CHEXA      80069       1   99599   99598   99601   99600   99603   99602+
+          99605   99604
CHEXA      80070       1   99603   99602   99605   99604   99607   99606+
+          99609   99608
CHEXA      80071       1   99607   99606   99609   99608   99611   99610+
+          99613   99612
CHEXA      80072       1   99611   99610   99613   99612   99615   99614+
+          99617   99616
CHEXA      80073       1   99615   99614   99617   99616   99619   99618+
+          99621   99620
CHEXA      80074       1   99619   99618   99621   99620   99623   99622+
+          99625   99624
CHEXA      80075       1   99623   99622   99625   99624   99627   99626+
+          99629   99628
CHEXA      80076       1   99627   99626   99629   99628   99631   99630+
+          99633   99632
CHEXA      80077       1   99631   99630   99633   99632   99635   99634+
+          99637   99636
CHEXA      80078       1   99635   99634   99637   99636   99639   99638+
+          99641   99640
CHEXA      80079       1   99639   99638   99641   99640   99643   99642+
+          99645   99644
CHEXA      80080       1   99643   99642   99645   99644   99647   99646+
+          99649   99648
CHEXA      80081       1   99647   99646   99649   99648   99651   99650+
+          99653   99652
CHEXA      80082       1   99651   99650   99653   99652   99655   99654+
+          99657   99656
CHEXA      80083       1   99655   99654   99657   99656   99659   99658+
+          99661   99660
CHEXA      80084       1   99659   99658   99661   99660   99663   99662+
+          99665   99664
CHEXA      80085       1   99663   99662   99665   99664   99667   99666+
+          99669   99668
CHEXA      80086       1   99667   99666   99669   99668   99671   99670+
+          99673   99672
CHEXA      80087       1   99671   99670   99673   99672   99675   99674+
+          99677   99676
CHEXA      80088       1   99675   99674   99677   99676   99679   99678+
+          99681   99680
CHEXA      80089       1   99679   99678   99681   99680   99683   99682+
+          99685   99684
CHEXA      80090       1   99683   99682   99685   99684   99687   99686+
+          99689   99688
CHEXA      80091       1   99687   99686   99689   99688   99691   99690+
+          99693   99692
CHEXA      80092       1   99691   99690   99693   99692   99695   99694+
+          99697   99696
CHEXA      80093       1   99695   99694   99697   99696   99699   99698+
+          99701   99700
CHEXA      80094       1   99699   99698   99701   99700   99703   99702+
+          99705   99704
CHEXA      80095       1   99703   99702   99705   99704   99707   99706+
+          99709   99708
CHEXA      80096       1   99707   99706   99709   99708   99711   99710+
+          99713   99712
CHEXA      80097       1   99711   99710   99713   99712   99715   99714+
+          99717   99716
CHEXA      80098       1   99715   99714   99717   99716   99719   99718+
+          99721   99720
CHEXA      80099       1   99719   99718   99721   99720   99723   99722+
+          99725   99724
CHEXA      80100       1   99723   99722   99725   99724   99727   99726+
+          99729   99728
CHEXA      80101       1   99727   99726   99729   99728   99731   99730+
+          99733   99732
CHEXA      80102       1   99731   99730   99733   99732   99735   99734+
+          99737   99736
CHEXA      80103       1   99735   99734   99737   99736   99739   99738+
+          99741   99740
CHEXA      80104       1   99739   99738   99741   99740   99743   99742+
+          99745   99744
CHEXA      80105       1   99743   99742   99745   99744   99747   99746+
+          99749   99748
CHEXA      80106       1   99747   99746   99749   99748   99751   99750+
+          99753   99752
CHEXA      80107       1   99751   99750   99753   99752   99755   99754+
+          99757   99756
CHEXA      80108       1   99755   99754   99757   99756   99759   99758+
+          99761   99760
CHEXA      80109       1   99759   99758   99761   99760   99763   99762+
+          99765   99764
CHEXA      80110       1   99763   99762   99765   99764   99767   99766+
+          99769   99768
CHEXA      80111       1   99767   99766   99769   99768   99771   99770+
+          99773   99772
CHEXA      80112       1   99771   99770   99773   99772   99775   99774+
+          99777   99776
CHEXA      80113       1   99775   99774   99777   99776   99779   99778+
+          99781   99780
CHEXA      80114       1   99779   99778   99781   99780   99783   99782+
+          99785   99784
CHEXA      80115       1   99783   99782   99785   99784   99787   99786+
+          99789   99788
CHEXA      80116       1   99787   99786   99789   99788   99791   99790+
+          99793   99792
CHEXA      80117       1   99791   99790   99793   99792   99795   99794+
+          99797   99796
CHEXA      80118       1   99795   99794   99797   99796   99799   99798+
+          99801   99800
CHEXA      80119       1   99799   99798   99801   99800   99803   99802+
+          99805   99804
CHEXA      80120       1   99803   99802   99805   99804   99807   99806+
+          99809   99808
CHEXA      80121       1   99807   99806   99809   99808   99811   99810+
+          99813   99812
CHEXA      80122       1   99811   99810   99813   99812   99815   99814+
+          99817   99816
CHEXA      80123       1   99815   99814   99817   99816   99819   99818+
+          99821   99820
CHEXA      80124       1   99819   99818   99821   99820   99823   99822+
+          99825   99824
CHEXA      80125       1   99823   99822   99825   99824   99827   99826+
+          99829   99828
CHEXA      80126       1   99827   99826   99829   99828   99831   99830+
+          99833   99832
CHEXA      80127       1   99831   99830   99833   99832   99835   99834+
+          99837   99836
CHEXA      80128       1   99835   99834   99837   99836   99839   99838+
+          99841   99840
CHEXA      80129       1   99839   99838   99841   99840   99843   99842+
+          99845   99844
CHEXA      80130       1   99843   99842   99845   99844   99847   99846+
+          99849   99848
CHEXA      80131       1   99847   99846   99849   99848   99851   99850+
+          99853   99852
CHEXA      80132       1   99851   99850   99853   99852   99855   99854+
+          99857   99856
CHEXA      80133       1   99855   99854   99857   99856   99859   99858+
+          99861   99860
CHEXA      80134       1   99859   99858   99861   99860   99863   99862+
+          99865   99864
CHEXA      80135       1   99863   99862   99865   99864   99867   99866+
+          99869   99868
CHEXA      80136       1   99867   99866   99869   99868   99871   99870+
+          99873   99872
CHEXA      80137       1   99871   99870   99873   99872   99875   99874+
+          99877   99876
CHEXA      80138       1   99875   99874   99877   99876   99879   99878+
+          99881   99880
CHEXA      80139       1   99879   99878   99881   99880   99883   99882+
+          99885   99884
CHEXA      80140       1   99883   99882   99885   99884   99887   99886+
+          99889   99888
CHEXA      80141       1   99887   99886   99889   99888   99891   99890+
+          99893   99892
CHEXA      80142       1   99891   99890   99893   99892   99895   99894+
+          99897   99896
CHEXA      80143       1   99895   99894   99897   99896   99899   99898+
+          99901   99900
CHEXA      80144       1   99899   99898   99901   99900   99903   99902+
+          99905   99904
CHEXA      80145       1   99903   99902   99905   99904   99907   99906+
+          99909   99908
CHEXA      80146       1   99907   99906   99909   99908   99911   99910+
+          99913   99912
CHEXA      80147       1   99911   99910   99913   99912   99915   99914+
+          99917   99916
CHEXA      80148       1   99915   99914   99917   99916   99919   99918+
+          99921   99920
CHEXA      80149       1   99919   99918   99921   99920   99923   99922+
+          99925   99924
CHEXA      80150       1   99923   99922   99925   99924   99927   99926+
+          99929   99928
CHEXA      80151       1   99927   99926   99929   99928   99931   99930+
+          99933   99932
CHEXA      80152       1   99931   99930   99933   99932   99935   99934+
+          99937   99936
CHEXA      80153       1   99935   99934   99937   99936   99939   99938+
+          99941   99940
CHEXA      80154       1   99939   99938   99941   99940   99943   99942+
+          99945   99944
CHEXA      80155       1   99943   99942   99945   99944   99947   99946+
+          99949   99948
CHEXA      80156       1   99947   99946   99949   99948   99951   99950+
+          99953   99952
CHEXA      80157       1   99951   99950   99953   99952   99955   99954+
+          99957   99956
CHEXA      80158       1   99955   99954   99957   99956   99959   99958+
+          99961   99960
CHEXA      80159       1   99959   99958   99961   99960   99963   99962+
+          99965   99964
CHEXA      80160       1   99963   99962   99965   99964   99967   99966+
+          99969   99968
CHEXA      80161       1   99967   99966   99969   99968   99971   99970+
+          99973   99972
CHEXA      80162       1   99971   99970   99973   99972   99975   99974+
+          99977   99976
CHEXA      80163       1   99975   99974   99977   99976   99979   99978+
+          99981   99980
CHEXA      80164       1   99979   99978   99981   99980   99983   99982+
+          99985   99984
CHEXA      80165       1   99983   99982   99985   99984   99987   99986+
+          99989   99988
CHEXA      80166       1   99987   99986   99989   99988   99991   99990+
+          99993   99992
CHEXA      80167       1   99991   99990   99993   99992   99995   99994+
+          99997   99996
CHEXA      80168       1   99995   99994   99997   99996   99999   99998+
+         100001  100000
CHEXA      80169       1   99999   99998  100001  100000  100003  100002+
+         100005  100004
CHEXA      80170       1  100003  100002  100005  100004  100007  100006+
+         100009  100008
CHEXA      80171       1  100007  100006  100009  100008  100011  100010+
+         100013  100012
CHEXA      80172       1  100011  100010  100013  100012  100015  100014+
+         100017  100016
CHEXA      80173       1  100015  100014  100017  100016  100019  100018+
+         100021  100020
CHEXA      80174       1  100019  100018  100021  100020  100023  100022+
+         100025  100024
CHEXA      80175       1  100023  100022  100025  100024  100027  100026+
+         100029  100028
CHEXA      80176       1  100027  100026  100029  100028  100031  100030+
+         100033  100032
CHEXA      80177       1  100031  100030  100033  100032  100035  100034+
+         100037  100036
CHEXA      80178       1  100035  100034  100037  100036  100039  100038+
+         100041  100040
CHEXA      80179       1  100039  100038  100041  100040  100043  100042+
+         100045  100044
CHEXA      80180       1  100043  100042  100045  100044  100047  100046+
+         100049  100048
CHEXA      80181       1  100047  100046  100049  100048  100051  100050+
+         100053  100052
CHEXA      80182       1  100051  100050  100053  100052  100055  100054+
+         100057  100056
CHEXA      80183       1  100055  100054  100057  100056  100059  100058+
+         100061  100060
CHEXA      80184       1  100059  100058  100061  100060  100063  100062+
+         100065  100064
CHEXA      80185       1  100063  100062  100065  100064  100067  100066+
+         100069  100068
CHEXA      80186       1  100067  100066  100069  100068  100071  100070+
+         100073  100072
CHEXA      80187       1  100071  100070  100073  100072  100075  100074+
+         100077  100076
CHEXA      80188       1  100075  100074  100077  100076  100079  100078+
+         100081  100080
CHEXA      80189       1  100079  100078  100081  100080  100083  100082+
+         100085  100084
CHEXA      80190       1  100083  100082  100085  100084  100087  100086+
+         100089  100088
CHEXA      80191       1  100087  100086  100089  100088  100091  100090+
+         100093  100092
CHEXA      80192       1  100091  100090  100093  100092  100095  100094+
+         100097  100096
CHEXA      80193       1  100095  100094  100097  100096  100099  100098+
+         100101  100100
CHEXA      80194       1  100099  100098  100101  100100  100103  100102+
+         100105  100104
CHEXA      80195       1  100103  100102  100105  100104  100107  100106+
+         100109  100108
CHEXA      80196       1  100107  100106  100109  100108  100111  100110+
+         100113  100112
CHEXA      80197       1  100111  100110  100113  100112  100115  100114+
+         100117  100116
CHEXA      80198       1  100115  100114  100117  100116  100119  100118+
+         100121  100120
CHEXA      80199       1  100119  100118  100121  100120  100123  100122+
+         100125  100124
CHEXA      80200       1  100123  100122  100125  100124  100127  100126+
+         100129  100128
CHEXA      80201       1  100127  100126  100129  100128  100131  100130+
+         100133  100132
CHEXA      80202       1  100131  100130  100133  100132  100135  100134+
+         100137  100136
CHEXA      80203       1  100135  100134  100137  100136  100139  100138+
+         100141  100140
CHEXA      80204       1  100139  100138  100141  100140  100143  100142+
+         100145  100144
CHEXA      80205       1  100143  100142  100145  100144  100147  100146+
+         100149  100148
CHEXA      80206       1  100147  100146  100149  100148  100151  100150+
+         100153  100152
CHEXA      80207       1  100151  100150  100153  100152  100155  100154+
+         100157  100156
CHEXA      80208       1  100155  100154  100157  100156  100159  100158+
+         100161  100160
CHEXA      80209       1  100159  100158  100161  100160   97771   97770+
+          97773   97772
CHEXA      80210       1   96961   96954   96922   96948   97571   99364+
+          99367   98570
CHEXA      80211       1   97571   99364   99367   98570   97572   99362+
+          99371   98572
CHEXA      80212       1   97572   99362   99371   98572   97573   99360+
+          99375   98574
CHEXA      80213       1   97573   99360   99375   98574   97574   99358+
+          99379   98576
CHEXA      80214       1   97574   99358   99379   98576   97575   99356+
+          99383   98578
CHEXA      80215       1   97575   99356   99383   98578   97576   99354+
+          99387   98580
CHEXA      80216       1   97576   99354   99387   98580   97577   99352+
+          99391   98582
CHEXA      80217       1   97577   99352   99391   98582   97578   99350+
+          99395   98584
CHEXA      80218       1   97578   99350   99395   98584   97579   99348+
+          99399   98586
CHEXA      80219       1   97579   99348   99399   98586   97580   99346+
+          99403   98588
CHEXA      80220       1   97580   99346   99403   98588   97581   99344+
+          99407   98590
CHEXA      80221       1   97581   99344   99407   98590   97582   99342+
+          99411   98592
CHEXA      80222       1   97582   99342   99411   98592   97583   99340+
+          99415   98594
CHEXA      80223       1   97583   99340   99415   98594   97584   99338+
+          99419   98596
CHEXA      80224       1   97584   99338   99419   98596   97585   99336+
+          99423   98598
CHEXA      80225       1   97585   99336   99423   98598   97586   99334+
+          99427   98600
CHEXA      80226       1   97586   99334   99427   98600   97587   99332+
+          99431   98602
CHEXA      80227       1   97587   99332   99431   98602   97588   99330+
+          99435   98604
CHEXA      80228       1   97588   99330   99435   98604   97589   99328+
+          99439   98606
CHEXA      80229       1   97589   99328   99439   98606   97590   99326+
+          99443   98608
CHEXA      80230       1   97590   99326   99443   98608   97591   99324+
+          99447   98610
CHEXA      80231       1   97591   99324   99447   98610   97592   99322+
+          99451   98612
CHEXA      80232       1   97592   99322   99451   98612   97593   99320+
+          99455   98614
CHEXA      80233       1   97593   99320   99455   98614   97594   99318+
+          99459   98616
CHEXA      80234       1   97594   99318   99459   98616   97595   99316+
+          99463   98618
CHEXA      80235       1   97595   99316   99463   98618   97596   99314+
+          99467   98620
CHEXA      80236       1   97596   99314   99467   98620   97597   99312+
+          99471   98622
CHEXA      80237       1   97597   99312   99471   98622   97598   99310+
+          99475   98624
CHEXA      80238       1   97598   99310   99475   98624   97599   99308+
+          99479   98626
CHEXA      80239       1   97599   99308   99479   98626   97600   99306+
+          99483   98628
CHEXA      80240       1   97600   99306   99483   98628   97601   99304+
+          99487   98630
CHEXA      80241       1   97601   99304   99487   98630   97602   99302+
+          99491   98632
CHEXA      80242       1   97602   99302   99491   98632   97603   99300+
+          99495   98634
CHEXA      80243       1   97603   99300   99495   98634   97604   99298+
+          99499   98636
CHEXA      80244       1   97604   99298   99499   98636   97605   99296+
+          99503   98638
CHEXA      80245       1   97605   99296   99503   98638   97606   99294+
+          99507   98640
CHEXA      80246       1   97606   99294   99507   98640   97607   99292+
+          99511   98642
CHEXA      80247       1   97607   99292   99511   98642   97608   99290+
+          99515   98644
CHEXA      80248       1   97608   99290   99515   98644   97609   99288+
+          99519   98646
CHEXA      80249       1   97609   99288   99519   98646   97610   99286+
+          99523   98648
CHEXA      80250       1   97610   99286   99523   98648   97611   99284+
+          99527   98650
CHEXA      80251       1   97611   99284   99527   98650   97612   99282+
+          99531   98652
CHEXA      80252       1   97612   99282   99531   98652   97613   99280+
+          99535   98654
CHEXA      80253       1   97613   99280   99535   98654   97614   99278+
+          99539   98656
CHEXA      80254       1   97614   99278   99539   98656   97615   99276+
+          99543   98658
CHEXA      80255       1   97615   99276   99543   98658   97616   99274+
+          99547   98660
CHEXA      80256       1   97616   99274   99547   98660   97617   99272+
+          99551   98662
CHEXA      80257       1   97617   99272   99551   98662   97618   99270+
+          99555   98664
CHEXA      80258       1   97618   99270   99555   98664   97619   99268+
+          99559   98666
CHEXA      80259       1   97619   99268   99559   98666   97620   99266+
+          99563   98668
CHEXA      80260       1   97620   99266   99563   98668   97621   99264+
+          99567   98670
CHEXA      80261       1   97621   99264   99567   98670   97622   99262+
+          99571   98672
CHEXA      80262       1   97622   99262   99571   98672   97623   99260+
+          99575   98674
CHEXA      80263       1   97623   99260   99575   98674   97624   99258+
+          99579   98676
CHEXA      80264       1   97624   99258   99579   98676   97625   99256+
+          99583   98678
CHEXA      80265       1   97625   99256   99583   98678   97626   99254+
+          99587   98680
CHEXA      80266       1   97626   99254   99587   98680   97627   99252+
+          99591   98682
CHEXA      80267       1   97627   99252   99591   98682   97628   99250+
+          99595   98684
CHEXA      80268       1   97628   99250   99595   98684   97629   99248+
+          99599   98686
CHEXA      80269       1   97629   99248   99599   98686   97630   99246+
+          99603   98688
CHEXA      80270       1   97630   99246   99603   98688   97631   99244+
+          99607   98690
CHEXA      80271       1   97631   99244   99607   98690   97632   99242+
+          99611   98692
CHEXA      80272       1   97632   99242   99611   98692   97633   99240+
+          99615   98694
CHEXA      80273       1   97633   99240   99615   98694   97634   99238+
+          99619   98696
CHEXA      80274       1   97634   99238   99619   98696   97635   99236+
+          99623   98698
CHEXA      80275       1   97635   99236   99623   98698   97636   99234+
+          99627   98700
CHEXA      80276       1   97636   99234   99627   98700   97637   99232+
+          99631   98702
CHEXA      80277       1   97637   99232   99631   98702   97638   99230+
+          99635   98704
CHEXA      80278       1   97638   99230   99635   98704   97639   99228+
+          99639   98706
CHEXA      80279       1   97639   99228   99639   98706   97640   99226+
+          99643   98708
CHEXA      80280       1   97640   99226   99643   98708   97641   99224+
+          99647   98710
CHEXA      80281       1   97641   99224   99647   98710   97642   99222+
+          99651   98712
CHEXA      80282       1   97642   99222   99651   98712   97643   99220+
+          99655   98714
CHEXA      80283       1   97643   99220   99655   98714   97644   99218+
+          99659   98716
CHEXA      80284       1   97644   99218   99659   98716   97645   99216+
+          99663   98718
CHEXA      80285       1   97645   99216   99663   98718   97646   99214+
+          99667   98720
CHEXA      80286       1   97646   99214   99667   98720   97647   99212+
+          99671   98722
CHEXA      80287       1   97647   99212   99671   98722   97648   99210+
+          99675   98724
CHEXA      80288       1   97648   99210   99675   98724   97649   99208+
+          99679   98726
CHEXA      80289       1   97649   99208   99679   98726   97650   99206+
+          99683   98728
CHEXA      80290       1   97650   99206   99683   98728   97651   99204+
+          99687   98730
CHEXA      80291       1   97651   99204   99687   98730   97652   99202+
+          99691   98732
CHEXA      80292       1   97652   99202   99691   98732   97653   99200+
+          99695   98734
CHEXA      80293       1   97653   99200   99695   98734   97654   99198+
+          99699   98736
CHEXA      80294       1   97654   99198   99699   98736   97655   99196+
+          99703   98738
CHEXA      80295       1   97655   99196   99703   98738   97656   99194+
+          99707   98740
CHEXA      80296       1   97656   99194   99707   98740   97657   99192+
+          99711   98742
CHEXA      80297       1   97657   99192   99711   98742   97658   99190+
+          99715   98744
CHEXA      80298       1   97658   99190   99715   98744   97659   99188+
+          99719   98746
CHEXA      80299       1   97659   99188   99719   98746   97660   99186+
+          99723   98748
CHEXA      80300       1   97660   99186   99723   98748   97661   99184+
+          99727   98750
CHEXA      80301       1   97661   99184   99727   98750   97662   99182+
+          99731   98752
CHEXA      80302       1   97662   99182   99731   98752   97663   99180+
+          99735   98754
CHEXA      80303       1   97663   99180   99735   98754   97664   99178+
+          99739   98756
CHEXA      80304       1   97664   99178   99739   98756   97665   99176+
+          99743   98758
CHEXA      80305       1   97665   99176   99743   98758   97666   99174+
+          99747   98760
CHEXA      80306       1   97666   99174   99747   98760   97667   99172+
+          99751   98762
CHEXA      80307       1   97667   99172   99751   98762   97668   99170+
+          99755   98764
CHEXA      80308       1   97668   99170   99755   98764   97669   99168+
+          99759   98766
CHEXA      80309       1   97669   99168   99759   98766   97670   99166+
+          99763   98768
CHEXA      80310       1   97670   99166   99763   98768   97671   99164+
+          99767   98770
CHEXA      80311       1   97671   99164   99767   98770   97672   99162+
+          99771   98772
CHEXA      80312       1   97672   99162   99771   98772   97673   99160+
+          99775   98774
CHEXA      80313       1   97673   99160   99775   98774   97674   99158+
+          99779   98776
CHEXA      80314       1   97674   99158   99779   98776   97675   99156+
+          99783   98778
CHEXA      80315       1   97675   99156   99783   98778   97676   99154+
+          99787   98780
CHEXA      80316       1   97676   99154   99787   98780   97677   99152+
+          99791   98782
CHEXA      80317       1   97677   99152   99791   98782   97678   99150+
+          99795   98784
CHEXA      80318       1   97678   99150   99795   98784   97679   99148+
+          99799   98786
CHEXA      80319       1   97679   99148   99799   98786   97680   99146+
+          99803   98788
CHEXA      80320       1   97680   99146   99803   98788   97681   99144+
+          99807   98790
CHEXA      80321       1   97681   99144   99807   98790   97682   99142+
+          99811   98792
CHEXA      80322       1   97682   99142   99811   98792   97683   99140+
+          99815   98794
CHEXA      80323       1   97683   99140   99815   98794   97684   99138+
+          99819   98796
CHEXA      80324       1   97684   99138   99819   98796   97685   99136+
+          99823   98798
CHEXA      80325       1   97685   99136   99823   98798   97686   99134+
+          99827   98800
CHEXA      80326       1   97686   99134   99827   98800   97687   99132+
+          99831   98802
CHEXA      80327       1   97687   99132   99831   98802   97688   99130+
+          99835   98804
CHEXA      80328       1   97688   99130   99835   98804   97689   99128+
+          99839   98806
CHEXA      80329       1   97689   99128   99839   98806   97690   99126+
+          99843   98808
CHEXA      80330       1   97690   99126   99843   98808   97691   99124+
+          99847   98810
CHEXA      80331       1   97691   99124   99847   98810   97692   99122+
+          99851   98812
CHEXA      80332       1   97692   99122   99851   98812   97693   99120+
+          99855   98814
CHEXA      80333       1   97693   99120   99855   98814   97694   99118+
+          99859   98816
CHEXA      80334       1   97694   99118   99859   98816   97695   99116+
+          99863   98818
CHEXA      80335       1   97695   99116   99863   98818   97696   99114+
+          99867   98820
CHEXA      80336       1   97696   99114   99867   98820   97697   99112+
+          99871   98822
CHEXA      80337       1   97697   99112   99871   98822   97698   99110+
+          99875   98824
CHEXA      80338       1   97698   99110   99875   98824   97699   99108+
+          99879   98826
CHEXA      80339       1   97699   99108   99879   98826   97700   99106+
+          99883   98828
CHEXA      80340       1   97700   99106   99883   98828   97701   99104+
+          99887   98830
CHEXA      80341       1   97701   99104   99887   98830   97702   99102+
+          99891   98832
CHEXA      80342       1   97702   99102   99891   98832   97703   99100+
+          99895   98834
CHEXA      80343       1   97703   99100   99895   98834   97704   99098+
+          99899   98836
CHEXA      80344       1   97704   99098   99899   98836   97705   99096+
+          99903   98838
CHEXA      80345       1   97705   99096   99903   98838   97706   99094+
+          99907   98840
CHEXA      80346       1   97706   99094   99907   98840   97707   99092+
+          99911   98842
CHEXA      80347       1   97707   99092   99911   98842   97708   99090+
+          99915   98844
CHEXA      80348       1   97708   99090   99915   98844   97709   99088+
+          99919   98846
CHEXA      80349       1   97709   99088   99919   98846   97710   99086+
+          99923   98848
CHEXA      80350       1   97710   99086   99923   98848   97711   99084+
+          99927   98850
CHEXA      80351       1   97711   99084   99927   98850   97712   99082+
+          99931   98852
CHEXA      80352       1   97712   99082   99931   98852   97713   99080+
+          99935   98854
CHEXA      80353       1   97713   99080   99935   98854   97714   99078+
+          99939   98856
CHEXA      80354       1   97714   99078   99939   98856   97715   99076+
+          99943   98858
CHEXA      80355       1   97715   99076   99943   98858   97716   99074+
+          99947   98860
CHEXA      80356       1   97716   99074   99947   98860   97717   99072+
+          99951   98862
CHEXA      80357       1   97717   99072   99951   98862   97718   99070+
+          99955   98864
CHEXA      80358       1   97718   99070   99955   98864   97719   99068+
+          99959   98866
CHEXA      80359       1   97719   99068   99959   98866   97720   99066+
+          99963   98868
CHEXA      80360       1   97720   99066   99963   98868   97721   99064+
+          99967   98870
CHEXA      80361       1   97721   99064   99967   98870   97722   99062+
+          99971   98872
CHEXA      80362       1   97722   99062   99971   98872   97723   99060+
+          99975   98874
CHEXA      80363       1   97723   99060   99975   98874   97724   99058+
+          99979   98876
CHEXA      80364       1   97724   99058   99979   98876   97725   99056+
+          99983   98878
CHEXA      80365       1   97725   99056   99983   98878   97726   99054+
+          99987   98880
CHEXA      80366       1   97726   99054   99987   98880   97727   99052+
+          99991   98882
CHEXA      80367       1   97727   99052   99991   98882   97728   99050+
+          99995   98884
CHEXA      80368       1   97728   99050   99995   98884   97729   99048+
+          99999   98886
CHEXA      80369       1   97729   99048   99999   98886   97730   99046+
+         100003   98888
CHEXA      80370       1   97730   99046  100003   98888   97731   99044+
+         100007   98890
CHEXA      80371       1   97731   99044  100007   98890   97732   99042+
+         100011   98892
CHEXA      80372       1   97732   99042  100011   98892   97733   99040+
+         100015   98894
CHEXA      80373       1   97733   99040  100015   98894   97734   99038+
+         100019   98896
CHEXA      80374       1   97734   99038  100019   98896   97735   99036+
+         100023   98898
CHEXA      80375       1   97735   99036  100023   98898   97736   99034+
+         100027   98900
CHEXA      80376       1   97736   99034  100027   98900   97737   99032+
+         100031   98902
CHEXA      80377       1   97737   99032  100031   98902   97738   99030+
+         100035   98904
CHEXA      80378       1   97738   99030  100035   98904   97739   99028+
+         100039   98906
CHEXA      80379       1   97739   99028  100039   98906   97740   99026+
+         100043   98908
CHEXA      80380       1   97740   99026  100043   98908   97741   99024+
+         100047   98910
CHEXA      80381       1   97741   99024  100047   98910   97742   99022+
+         100051   98912
CHEXA      80382       1   97742   99022  100051   98912   97743   99020+
+         100055   98914
CHEXA      80383       1   97743   99020  100055   98914   97744   99018+
+         100059   98916
CHEXA      80384       1   97744   99018  100059   98916   97745   99016+
+         100063   98918
CHEXA      80385       1   97745   99016  100063   98918   97746   99014+
+         100067   98920
CHEXA      80386       1   97746   99014  100067   98920   97747   99012+
+         100071   98922
CHEXA      80387       1   97747   99012  100071   98922   97748   99010+
+         100075   98924
CHEXA      80388       1   97748   99010  100075   98924   97749   99008+
+         100079   98926
CHEXA      80389       1   97749   99008  100079   98926   97750   99006+
+         100083   98928
CHEXA      80390       1   97750   99006  100083   98928   97751   99004+
+         100087   98930
CHEXA      80391       1   97751   99004  100087   98930   97752   99002+
+         100091   98932
CHEXA      80392       1   97752   99002  100091   98932   97753   99000+
+         100095   98934
CHEXA      80393       1   97753   99000  100095   98934   97754   98998+
+         100099   98936
CHEXA      80394       1   97754   98998  100099   98936   97755   98996+
+         100103   98938
CHEXA      80395       1   97755   98996  100103   98938   97756   98994+
+         100107   98940
CHEXA      80396       1   97756   98994  100107   98940   97757   98992+
+         100111   98942
CHEXA      80397       1   97757   98992  100111   98942   97758   98990+
+         100115   98944
CHEXA      80398       1   97758   98990  100115   98944   97759   98988+
+         100119   98946
CHEXA      80399       1   97759   98988  100119   98946   97760   98986+
+         100123   98948
CHEXA      80400       1   97760   98986  100123   98948   97761   98984+
+         100127   98950
CHEXA      80401       1   97761   98984  100127   98950   97762   98982+
+         100131   98952
CHEXA      80402       1   97762   98982  100131   98952   97763   98980+
+         100135   98954
CHEXA      80403       1   97763   98980  100135   98954   97764   98978+
+         100139   98956
CHEXA      80404       1   97764   98978  100139   98956   97765   98976+
+         100143   98958
CHEXA      80405       1   97765   98976  100143   98958   97766   98974+
+         100147   98960
CHEXA      80406       1   97766   98974  100147   98960   97767   98972+
+         100151   98962
CHEXA      80407       1   97767   98972  100151   98962   97768   98970+
+         100155   98964
CHEXA      80408       1   97768   98970  100155   98964   97769   98968+
+         100159   98966
CHEXA      80409       1   97769   98968  100159   98966   96965   96972+
+          97771   96971
CHEXA      80410       1   96954   96953   96924   96922   99364   99365+
+          99366   99367
CHEXA      80411       1   99364   99365   99366   99367   99362   99363+
+          99370   99371
CHEXA      80412       1   99362   99363   99370   99371   99360   99361+
+          99374   99375
CHEXA      80413       1   99360   99361   99374   99375   99358   99359+
+          99378   99379
CHEXA      80414       1   99358   99359   99378   99379   99356   99357+
+          99382   99383
CHEXA      80415       1   99356   99357   99382   99383   99354   99355+
+          99386   99387
CHEXA      80416       1   99354   99355   99386   99387   99352   99353+
+          99390   99391
CHEXA      80417       1   99352   99353   99390   99391   99350   99351+
+          99394   99395
CHEXA      80418       1   99350   99351   99394   99395   99348   99349+
+          99398   99399
CHEXA      80419       1   99348   99349   99398   99399   99346   99347+
+          99402   99403
CHEXA      80420       1   99346   99347   99402   99403   99344   99345+
+          99406   99407
CHEXA      80421       1   99344   99345   99406   99407   99342   99343+
+          99410   99411
CHEXA      80422       1   99342   99343   99410   99411   99340   99341+
+          99414   99415
CHEXA      80423       1   99340   99341   99414   99415   99338   99339+
+          99418   99419
CHEXA      80424       1   99338   99339   99418   99419   99336   99337+
+          99422   99423
CHEXA      80425       1   99336   99337   99422   99423   99334   99335+
+          99426   99427
CHEXA      80426       1   99334   99335   99426   99427   99332   99333+
+          99430   99431
CHEXA      80427       1   99332   99333   99430   99431   99330   99331+
+          99434   99435
CHEXA      80428       1   99330   99331   99434   99435   99328   99329+
+          99438   99439
CHEXA      80429       1   99328   99329   99438   99439   99326   99327+
+          99442   99443
CHEXA      80430       1   99326   99327   99442   99443   99324   99325+
+          99446   99447
CHEXA      80431       1   99324   99325   99446   99447   99322   99323+
+          99450   99451
CHEXA      80432       1   99322   99323   99450   99451   99320   99321+
+          99454   99455
CHEXA      80433       1   99320   99321   99454   99455   99318   99319+
+          99458   99459
CHEXA      80434       1   99318   99319   99458   99459   99316   99317+
+          99462   99463
CHEXA      80435       1   99316   99317   99462   99463   99314   99315+
+          99466   99467
CHEXA      80436       1   99314   99315   99466   99467   99312   99313+
+          99470   99471
CHEXA      80437       1   99312   99313   99470   99471   99310   99311+
+          99474   99475
CHEXA      80438       1   99310   99311   99474   99475   99308   99309+
+          99478   99479
CHEXA      80439       1   99308   99309   99478   99479   99306   99307+
+          99482   99483
CHEXA      80440       1   99306   99307   99482   99483   99304   99305+
+          99486   99487
CHEXA      80441       1   99304   99305   99486   99487   99302   99303+
+          99490   99491
CHEXA      80442       1   99302   99303   99490   99491   99300   99301+
+          99494   99495
CHEXA      80443       1   99300   99301   99494   99495   99298   99299+
+          99498   99499
CHEXA      80444       1   99298   99299   99498   99499   99296   99297+
+          99502   99503
CHEXA      80445       1   99296   99297   99502   99503   99294   99295+
+          99506   99507
CHEXA      80446       1   99294   99295   99506   99507   99292   99293+
+          99510   99511
CHEXA      80447       1   99292   99293   99510   99511   99290   99291+
+          99514   99515
CHEXA      80448       1   99290   99291   99514   99515   99288   99289+
+          99518   99519
CHEXA      80449       1   99288   99289   99518   99519   99286   99287+
+          99522   99523
CHEXA      80450       1   99286   99287   99522   99523   99284   99285+
+          99526   99527
CHEXA      80451       1   99284   99285   99526   99527   99282   99283+
+          99530   99531
CHEXA      80452       1   99282   99283   99530   99531   99280   99281+
+          99534   99535
CHEXA      80453       1   99280   99281   99534   99535   99278   99279+
+          99538   99539
CHEXA      80454       1   99278   99279   99538   99539   99276   99277+
+          99542   99543
CHEXA      80455       1   99276   99277   99542   99543   99274   99275+
+          99546   99547
CHEXA      80456       1   99274   99275   99546   99547   99272   99273+
+          99550   99551
CHEXA      80457       1   99272   99273   99550   99551   99270   99271+
+          99554   99555
CHEXA      80458       1   99270   99271   99554   99555   99268   99269+
+          99558   99559
CHEXA      80459       1   99268   99269   99558   99559   99266   99267+
+          99562   99563
CHEXA      80460       1   99266   99267   99562   99563   99264   99265+
+          99566   99567
CHEXA      80461       1   99264   99265   99566   99567   99262   99263+
+          99570   99571
CHEXA      80462       1   99262   99263   99570   99571   99260   99261+
+          99574   99575
CHEXA      80463       1   99260   99261   99574   99575   99258   99259+
+          99578   99579
CHEXA      80464       1   99258   99259   99578   99579   99256   99257+
+          99582   99583
CHEXA      80465       1   99256   99257   99582   99583   99254   99255+
+          99586   99587
CHEXA      80466       1   99254   99255   99586   99587   99252   99253+
+          99590   99591
CHEXA      80467       1   99252   99253   99590   99591   99250   99251+
+          99594   99595
CHEXA      80468       1   99250   99251   99594   99595   99248   99249+
+          99598   99599
CHEXA      80469       1   99248   99249   99598   99599   99246   99247+
+          99602   99603
CHEXA      80470       1   99246   99247   99602   99603   99244   99245+
+          99606   99607
CHEXA      80471       1   99244   99245   99606   99607   99242   99243+
+          99610   99611
CHEXA      80472       1   99242   99243   99610   99611   99240   99241+
+          99614   99615
CHEXA      80473       1   99240   99241   99614   99615   99238   99239+
+          99618   99619
CHEXA      80474       1   99238   99239   99618   99619   99236   99237+
+          99622   99623
CHEXA      80475       1   99236   99237   99622   99623   99234   99235+
+          99626   99627
CHEXA      80476       1   99234   99235   99626   99627   99232   99233+
+          99630   99631
CHEXA      80477       1   99232   99233   99630   99631   99230   99231+
+          99634   99635
CHEXA      80478       1   99230   99231   99634   99635   99228   99229+
+          99638   99639
CHEXA      80479       1   99228   99229   99638   99639   99226   99227+
+          99642   99643
CHEXA      80480       1   99226   99227   99642   99643   99224   99225+
+          99646   99647
CHEXA      80481       1   99224   99225   99646   99647   99222   99223+
+          99650   99651
CHEXA      80482       1   99222   99223   99650   99651   99220   99221+
+          99654   99655
CHEXA      80483       1   99220   99221   99654   99655   99218   99219+
+          99658   99659
CHEXA      80484       1   99218   99219   99658   99659   99216   99217+
+          99662   99663
CHEXA      80485       1   99216   99217   99662   99663   99214   99215+
+          99666   99667
CHEXA      80486       1   99214   99215   99666   99667   99212   99213+
+          99670   99671
CHEXA      80487       1   99212   99213   99670   99671   99210   99211+
+          99674   99675
CHEXA      80488       1   99210   99211   99674   99675   99208   99209+
+          99678   99679
CHEXA      80489       1   99208   99209   99678   99679   99206   99207+
+          99682   99683
CHEXA      80490       1   99206   99207   99682   99683   99204   99205+
+          99686   99687
CHEXA      80491       1   99204   99205   99686   99687   99202   99203+
+          99690   99691
CHEXA      80492       1   99202   99203   99690   99691   99200   99201+
+          99694   99695
CHEXA      80493       1   99200   99201   99694   99695   99198   99199+
+          99698   99699
CHEXA      80494       1   99198   99199   99698   99699   99196   99197+
+          99702   99703
CHEXA      80495       1   99196   99197   99702   99703   99194   99195+
+          99706   99707
CHEXA      80496       1   99194   99195   99706   99707   99192   99193+
+          99710   99711
CHEXA      80497       1   99192   99193   99710   99711   99190   99191+
+          99714   99715
CHEXA      80498       1   99190   99191   99714   99715   99188   99189+
+          99718   99719
CHEXA      80499       1   99188   99189   99718   99719   99186   99187+
+          99722   99723
CHEXA      80500       1   99186   99187   99722   99723   99184   99185+
+          99726   99727
CHEXA      80501       1   99184   99185   99726   99727   99182   99183+
+          99730   99731
CHEXA      80502       1   99182   99183   99730   99731   99180   99181+
+          99734   99735
CHEXA      80503       1   99180   99181   99734   99735   99178   99179+
+          99738   99739
CHEXA      80504       1   99178   99179   99738   99739   99176   99177+
+          99742   99743
CHEXA      80505       1   99176   99177   99742   99743   99174   99175+
+          99746   99747
CHEXA      80506       1   99174   99175   99746   99747   99172   99173+
+          99750   99751
CHEXA      80507       1   99172   99173   99750   99751   99170   99171+
+          99754   99755
CHEXA      80508       1   99170   99171   99754   99755   99168   99169+
+          99758   99759
CHEXA      80509       1   99168   99169   99758   99759   99166   99167+
+          99762   99763
CHEXA      80510       1   99166   99167   99762   99763   99164   99165+
+          99766   99767
CHEXA      80511       1   99164   99165   99766   99767   99162   99163+
+          99770   99771
CHEXA      80512       1   99162   99163   99770   99771   99160   99161+
+          99774   99775
CHEXA      80513       1   99160   99161   99774   99775   99158   99159+
+          99778   99779
CHEXA      80514       1   99158   99159   99778   99779   99156   99157+
+          99782   99783
CHEXA      80515       1   99156   99157   99782   99783   99154   99155+
+          99786   99787
CHEXA      80516       1   99154   99155   99786   99787   99152   99153+
+          99790   99791
CHEXA      80517       1   99152   99153   99790   99791   99150   99151+
+          99794   99795
CHEXA      80518       1   99150   99151   99794   99795   99148   99149+
+          99798   99799
CHEXA      80519       1   99148   99149   99798   99799   99146   99147+
+          99802   99803
CHEXA      80520       1   99146   99147   99802   99803   99144   99145+
+          99806   99807
CHEXA      80521       1   99144   99145   99806   99807   99142   99143+
+          99810   99811
CHEXA      80522       1   99142   99143   99810   99811   99140   99141+
+          99814   99815
CHEXA      80523       1   99140   99141   99814   99815   99138   99139+
+          99818   99819
CHEXA      80524       1   99138   99139   99818   99819   99136   99137+
+          99822   99823
CHEXA      80525       1   99136   99137   99822   99823   99134   99135+
+          99826   99827
CHEXA      80526       1   99134   99135   99826   99827   99132   99133+
+          99830   99831
CHEXA      80527       1   99132   99133   99830   99831   99130   99131+
+          99834   99835
CHEXA      80528       1   99130   99131   99834   99835   99128   99129+
+          99838   99839
CHEXA      80529       1   99128   99129   99838   99839   99126   99127+
+          99842   99843
CHEXA      80530       1   99126   99127   99842   99843   99124   99125+
+          99846   99847
CHEXA      80531       1   99124   99125   99846   99847   99122   99123+
+          99850   99851
CHEXA      80532       1   99122   99123   99850   99851   99120   99121+
+          99854   99855
CHEXA      80533       1   99120   99121   99854   99855   99118   99119+
+          99858   99859
CHEXA      80534       1   99118   99119   99858   99859   99116   99117+
+          99862   99863
CHEXA      80535       1   99116   99117   99862   99863   99114   99115+
+          99866   99867
CHEXA      80536       1   99114   99115   99866   99867   99112   99113+
+          99870   99871
CHEXA      80537       1   99112   99113   99870   99871   99110   99111+
+          99874   99875
CHEXA      80538       1   99110   99111   99874   99875   99108   99109+
+          99878   99879
CHEXA      80539       1   99108   99109   99878   99879   99106   99107+
+          99882   99883
CHEXA      80540       1   99106   99107   99882   99883   99104   99105+
+          99886   99887
CHEXA      80541       1   99104   99105   99886   99887   99102   99103+
+          99890   99891
CHEXA      80542       1   99102   99103   99890   99891   99100   99101+
+          99894   99895
CHEXA      80543       1   99100   99101   99894   99895   99098   99099+
+          99898   99899
CHEXA      80544       1   99098   99099   99898   99899   99096   99097+
+          99902   99903
CHEXA      80545       1   99096   99097   99902   99903   99094   99095+
+          99906   99907
CHEXA      80546       1   99094   99095   99906   99907   99092   99093+
+          99910   99911
CHEXA      80547       1   99092   99093   99910   99911   99090   99091+
+          99914   99915
CHEXA      80548       1   99090   99091   99914   99915   99088   99089+
+          99918   99919
CHEXA      80549       1   99088   99089   99918   99919   99086   99087+
+          99922   99923
CHEXA      80550       1   99086   99087   99922   99923   99084   99085+
+          99926   99927
CHEXA      80551       1   99084   99085   99926   99927   99082   99083+
+          99930   99931
CHEXA      80552       1   99082   99083   99930   99931   99080   99081+
+          99934   99935
CHEXA      80553       1   99080   99081   99934   99935   99078   99079+
+          99938   99939
CHEXA      80554       1   99078   99079   99938   99939   99076   99077+
+          99942   99943
CHEXA      80555       1   99076   99077   99942   99943   99074   99075+
+          99946   99947
CHEXA      80556       1   99074   99075   99946   99947   99072   99073+
+          99950   99951
CHEXA      80557       1   99072   99073   99950   99951   99070   99071+
+          99954   99955
CHEXA      80558       1   99070   99071   99954   99955   99068   99069+
+          99958   99959
CHEXA      80559       1   99068   99069   99958   99959   99066   99067+
+          99962   99963
CHEXA      80560       1   99066   99067   99962   99963   99064   99065+
+          99966   99967
CHEXA      80561       1   99064   99065   99966   99967   99062   99063+
+          99970   99971
CHEXA      80562       1   99062   99063   99970   99971   99060   99061+
+          99974   99975
CHEXA      80563       1   99060   99061   99974   99975   99058   99059+
+          99978   99979
CHEXA      80564       1   99058   99059   99978   99979   99056   99057+
+          99982   99983
CHEXA      80565       1   99056   99057   99982   99983   99054   99055+
+          99986   99987
CHEXA      80566       1   99054   99055   99986   99987   99052   99053+
+          99990   99991
CHEXA      80567       1   99052   99053   99990   99991   99050   99051+
+          99994   99995
CHEXA      80568       1   99050   99051   99994   99995   99048   99049+
+          99998   99999
CHEXA      80569       1   99048   99049   99998   99999   99046   99047+
+         100002  100003
CHEXA      80570       1   99046   99047  100002  100003   99044   99045+
+         100006  100007
CHEXA      80571       1   99044   99045  100006  100007   99042   99043+
+         100010  100011
CHEXA      80572       1   99042   99043  100010  100011   99040   99041+
+         100014  100015
CHEXA      80573       1   99040   99041  100014  100015   99038   99039+
+         100018  100019
CHEXA      80574       1   99038   99039  100018  100019   99036   99037+
+         100022  100023
CHEXA      80575       1   99036   99037  100022  100023   99034   99035+
+         100026  100027
CHEXA      80576       1   99034   99035  100026  100027   99032   99033+
+         100030  100031
CHEXA      80577       1   99032   99033  100030  100031   99030   99031+
+         100034  100035
CHEXA      80578       1   99030   99031  100034  100035   99028   99029+
+         100038  100039
CHEXA      80579       1   99028   99029  100038  100039   99026   99027+
+         100042  100043
CHEXA      80580       1   99026   99027  100042  100043   99024   99025+
+         100046  100047
CHEXA      80581       1   99024   99025  100046  100047   99022   99023+
+         100050  100051
CHEXA      80582       1   99022   99023  100050  100051   99020   99021+
+         100054  100055
CHEXA      80583       1   99020   99021  100054  100055   99018   99019+
+         100058  100059
CHEXA      80584       1   99018   99019  100058  100059   99016   99017+
+         100062  100063
CHEXA      80585       1   99016   99017  100062  100063   99014   99015+
+         100066  100067
CHEXA      80586       1   99014   99015  100066  100067   99012   99013+
+         100070  100071
CHEXA      80587       1   99012   99013  100070  100071   99010   99011+
+         100074  100075
CHEXA      80588       1   99010   99011  100074  100075   99008   99009+
+         100078  100079
CHEXA      80589       1   99008   99009  100078  100079   99006   99007+
+         100082  100083
CHEXA      80590       1   99006   99007  100082  100083   99004   99005+
+         100086  100087
CHEXA      80591       1   99004   99005  100086  100087   99002   99003+
+         100090  100091
CHEXA      80592       1   99002   99003  100090  100091   99000   99001+
+         100094  100095
CHEXA      80593       1   99000   99001  100094  100095   98998   98999+
+         100098  100099
CHEXA      80594       1   98998   98999  100098  100099   98996   98997+
+         100102  100103
CHEXA      80595       1   98996   98997  100102  100103   98994   98995+
+         100106  100107
CHEXA      80596       1   98994   98995  100106  100107   98992   98993+
+         100110  100111
CHEXA      80597       1   98992   98993  100110  100111   98990   98991+
+         100114  100115
CHEXA      80598       1   98990   98991  100114  100115   98988   98989+
+         100118  100119
CHEXA      80599       1   98988   98989  100118  100119   98986   98987+
+         100122  100123
CHEXA      80600       1   98986   98987  100122  100123   98984   98985+
+         100126  100127
CHEXA      80601       1   98984   98985  100126  100127   98982   98983+
+         100130  100131
CHEXA      80602       1   98982   98983  100130  100131   98980   98981+
+         100134  100135
CHEXA      80603       1   98980   98981  100134  100135   98978   98979+
+         100138  100139
CHEXA      80604       1   98978   98979  100138  100139   98976   98977+
+         100142  100143
CHEXA      80605       1   98976   98977  100142  100143   98974   98975+
+         100146  100147
CHEXA      80606       1   98974   98975  100146  100147   98972   98973+
+         100150  100151
CHEXA      80607       1   98972   98973  100150  100151   98970   98971+
+         100154  100155
CHEXA      80608       1   98970   98971  100154  100155   98968   98969+
+         100158  100159
CHEXA      80609       1   98968   98969  100158  100159   96972   96973+
+          97770   97771
CHEXA      80610       1   96953   96960   96943   96924   99365   97372+
+          98568   99366
CHEXA      80611       1   99365   97372   98568   99366   99363   97373+
+          98566   99370
CHEXA      80612       1   99363   97373   98566   99370   99361   97374+
+          98564   99374
CHEXA      80613       1   99361   97374   98564   99374   99359   97375+
+          98562   99378
CHEXA      80614       1   99359   97375   98562   99378   99357   97376+
+          98560   99382
CHEXA      80615       1   99357   97376   98560   99382   99355   97377+
+          98558   99386
CHEXA      80616       1   99355   97377   98558   99386   99353   97378+
+          98556   99390
CHEXA      80617       1   99353   97378   98556   99390   99351   97379+
+          98554   99394
CHEXA      80618       1   99351   97379   98554   99394   99349   97380+
+          98552   99398
CHEXA      80619       1   99349   97380   98552   99398   99347   97381+
+          98550   99402
CHEXA      80620       1   99347   97381   98550   99402   99345   97382+
+          98548   99406
CHEXA      80621       1   99345   97382   98548   99406   99343   97383+
+          98546   99410
CHEXA      80622       1   99343   97383   98546   99410   99341   97384+
+          98544   99414
CHEXA      80623       1   99341   97384   98544   99414   99339   97385+
+          98542   99418
CHEXA      80624       1   99339   97385   98542   99418   99337   97386+
+          98540   99422
CHEXA      80625       1   99337   97386   98540   99422   99335   97387+
+          98538   99426
CHEXA      80626       1   99335   97387   98538   99426   99333   97388+
+          98536   99430
CHEXA      80627       1   99333   97388   98536   99430   99331   97389+
+          98534   99434
CHEXA      80628       1   99331   97389   98534   99434   99329   97390+
+          98532   99438
CHEXA      80629       1   99329   97390   98532   99438   99327   97391+
+          98530   99442
CHEXA      80630       1   99327   97391   98530   99442   99325   97392+
+          98528   99446
CHEXA      80631       1   99325   97392   98528   99446   99323   97393+
+          98526   99450
CHEXA      80632       1   99323   97393   98526   99450   99321   97394+
+          98524   99454
CHEXA      80633       1   99321   97394   98524   99454   99319   97395+
+          98522   99458
CHEXA      80634       1   99319   97395   98522   99458   99317   97396+
+          98520   99462
CHEXA      80635       1   99317   97396   98520   99462   99315   97397+
+          98518   99466
CHEXA      80636       1   99315   97397   98518   99466   99313   97398+
+          98516   99470
CHEXA      80637       1   99313   97398   98516   99470   99311   97399+
+          98514   99474
CHEXA      80638       1   99311   97399   98514   99474   99309   97400+
+          98512   99478
CHEXA      80639       1   99309   97400   98512   99478   99307   97401+
+          98510   99482
CHEXA      80640       1   99307   97401   98510   99482   99305   97402+
+          98508   99486
CHEXA      80641       1   99305   97402   98508   99486   99303   97403+
+          98506   99490
CHEXA      80642       1   99303   97403   98506   99490   99301   97404+
+          98504   99494
CHEXA      80643       1   99301   97404   98504   99494   99299   97405+
+          98502   99498
CHEXA      80644       1   99299   97405   98502   99498   99297   97406+
+          98500   99502
CHEXA      80645       1   99297   97406   98500   99502   99295   97407+
+          98498   99506
CHEXA      80646       1   99295   97407   98498   99506   99293   97408+
+          98496   99510
CHEXA      80647       1   99293   97408   98496   99510   99291   97409+
+          98494   99514
CHEXA      80648       1   99291   97409   98494   99514   99289   97410+
+          98492   99518
CHEXA      80649       1   99289   97410   98492   99518   99287   97411+
+          98490   99522
CHEXA      80650       1   99287   97411   98490   99522   99285   97412+
+          98488   99526
CHEXA      80651       1   99285   97412   98488   99526   99283   97413+
+          98486   99530
CHEXA      80652       1   99283   97413   98486   99530   99281   97414+
+          98484   99534
CHEXA      80653       1   99281   97414   98484   99534   99279   97415+
+          98482   99538
CHEXA      80654       1   99279   97415   98482   99538   99277   97416+
+          98480   99542
CHEXA      80655       1   99277   97416   98480   99542   99275   97417+
+          98478   99546
CHEXA      80656       1   99275   97417   98478   99546   99273   97418+
+          98476   99550
CHEXA      80657       1   99273   97418   98476   99550   99271   97419+
+          98474   99554
CHEXA      80658       1   99271   97419   98474   99554   99269   97420+
+          98472   99558
CHEXA      80659       1   99269   97420   98472   99558   99267   97421+
+          98470   99562
CHEXA      80660       1   99267   97421   98470   99562   99265   97422+
+          98468   99566
CHEXA      80661       1   99265   97422   98468   99566   99263   97423+
+          98466   99570
CHEXA      80662       1   99263   97423   98466   99570   99261   97424+
+          98464   99574
CHEXA      80663       1   99261   97424   98464   99574   99259   97425+
+          98462   99578
CHEXA      80664       1   99259   97425   98462   99578   99257   97426+
+          98460   99582
CHEXA      80665       1   99257   97426   98460   99582   99255   97427+
+          98458   99586
CHEXA      80666       1   99255   97427   98458   99586   99253   97428+
+          98456   99590
CHEXA      80667       1   99253   97428   98456   99590   99251   97429+
+          98454   99594
CHEXA      80668       1   99251   97429   98454   99594   99249   97430+
+          98452   99598
CHEXA      80669       1   99249   97430   98452   99598   99247   97431+
+          98450   99602
CHEXA      80670       1   99247   97431   98450   99602   99245   97432+
+          98448   99606
CHEXA      80671       1   99245   97432   98448   99606   99243   97433+
+          98446   99610
CHEXA      80672       1   99243   97433   98446   99610   99241   97434+
+          98444   99614
CHEXA      80673       1   99241   97434   98444   99614   99239   97435+
+          98442   99618
CHEXA      80674       1   99239   97435   98442   99618   99237   97436+
+          98440   99622
CHEXA      80675       1   99237   97436   98440   99622   99235   97437+
+          98438   99626
CHEXA      80676       1   99235   97437   98438   99626   99233   97438+
+          98436   99630
CHEXA      80677       1   99233   97438   98436   99630   99231   97439+
+          98434   99634
CHEXA      80678       1   99231   97439   98434   99634   99229   97440+
+          98432   99638
CHEXA      80679       1   99229   97440   98432   99638   99227   97441+
+          98430   99642
CHEXA      80680       1   99227   97441   98430   99642   99225   97442+
+          98428   99646
CHEXA      80681       1   99225   97442   98428   99646   99223   97443+
+          98426   99650
CHEXA      80682       1   99223   97443   98426   99650   99221   97444+
+          98424   99654
CHEXA      80683       1   99221   97444   98424   99654   99219   97445+
+          98422   99658
CHEXA      80684       1   99219   97445   98422   99658   99217   97446+
+          98420   99662
CHEXA      80685       1   99217   97446   98420   99662   99215   97447+
+          98418   99666
CHEXA      80686       1   99215   97447   98418   99666   99213   97448+
+          98416   99670
CHEXA      80687       1   99213   97448   98416   99670   99211   97449+
+          98414   99674
CHEXA      80688       1   99211   97449   98414   99674   99209   97450+
+          98412   99678
CHEXA      80689       1   99209   97450   98412   99678   99207   97451+
+          98410   99682
CHEXA      80690       1   99207   97451   98410   99682   99205   97452+
+          98408   99686
CHEXA      80691       1   99205   97452   98408   99686   99203   97453+
+          98406   99690
CHEXA      80692       1   99203   97453   98406   99690   99201   97454+
+          98404   99694
CHEXA      80693       1   99201   97454   98404   99694   99199   97455+
+          98402   99698
CHEXA      80694       1   99199   97455   98402   99698   99197   97456+
+          98400   99702
CHEXA      80695       1   99197   97456   98400   99702   99195   97457+
+          98398   99706
CHEXA      80696       1   99195   97457   98398   99706   99193   97458+
+          98396   99710
CHEXA      80697       1   99193   97458   98396   99710   99191   97459+
+          98394   99714
CHEXA      80698       1   99191   97459   98394   99714   99189   97460+
+          98392   99718
CHEXA      80699       1   99189   97460   98392   99718   99187   97461+
+          98390   99722
CHEXA      80700       1   99187   97461   98390   99722   99185   97462+
+          98388   99726
CHEXA      80701       1   99185   97462   98388   99726   99183   97463+
+          98386   99730
CHEXA      80702       1   99183   97463   98386   99730   99181   97464+
+          98384   99734
CHEXA      80703       1   99181   97464   98384   99734   99179   97465+
+          98382   99738
CHEXA      80704       1   99179   97465   98382   99738   99177   97466+
+          98380   99742
CHEXA      80705       1   99177   97466   98380   99742   99175   97467+
+          98378   99746
CHEXA      80706       1   99175   97467   98378   99746   99173   97468+
+          98376   99750
CHEXA      80707       1   99173   97468   98376   99750   99171   97469+
+          98374   99754
CHEXA      80708       1   99171   97469   98374   99754   99169   97470+
+          98372   99758
CHEXA      80709       1   99169   97470   98372   99758   99167   97471+
+          98370   99762
CHEXA      80710       1   99167   97471   98370   99762   99165   97472+
+          98368   99766
CHEXA      80711       1   99165   97472   98368   99766   99163   97473+
+          98366   99770
CHEXA      80712       1   99163   97473   98366   99770   99161   97474+
+          98364   99774
CHEXA      80713       1   99161   97474   98364   99774   99159   97475+
+          98362   99778
CHEXA      80714       1   99159   97475   98362   99778   99157   97476+
+          98360   99782
CHEXA      80715       1   99157   97476   98360   99782   99155   97477+
+          98358   99786
CHEXA      80716       1   99155   97477   98358   99786   99153   97478+
+          98356   99790
CHEXA      80717       1   99153   97478   98356   99790   99151   97479+
+          98354   99794
CHEXA      80718       1   99151   97479   98354   99794   99149   97480+
+          98352   99798
CHEXA      80719       1   99149   97480   98352   99798   99147   97481+
+          98350   99802
CHEXA      80720       1   99147   97481   98350   99802   99145   97482+
+          98348   99806
CHEXA      80721       1   99145   97482   98348   99806   99143   97483+
+          98346   99810
CHEXA      80722       1   99143   97483   98346   99810   99141   97484+
+          98344   99814
CHEXA      80723       1   99141   97484   98344   99814   99139   97485+
+          98342   99818
CHEXA      80724       1   99139   97485   98342   99818   99137   97486+
+          98340   99822
CHEXA      80725       1   99137   97486   98340   99822   99135   97487+
+          98338   99826
CHEXA      80726       1   99135   97487   98338   99826   99133   97488+
+          98336   99830
CHEXA      80727       1   99133   97488   98336   99830   99131   97489+
+          98334   99834
CHEXA      80728       1   99131   97489   98334   99834   99129   97490+
+          98332   99838
CHEXA      80729       1   99129   97490   98332   99838   99127   97491+
+          98330   99842
CHEXA      80730       1   99127   97491   98330   99842   99125   97492+
+          98328   99846
CHEXA      80731       1   99125   97492   98328   99846   99123   97493+
+          98326   99850
CHEXA      80732       1   99123   97493   98326   99850   99121   97494+
+          98324   99854
CHEXA      80733       1   99121   97494   98324   99854   99119   97495+
+          98322   99858
CHEXA      80734       1   99119   97495   98322   99858   99117   97496+
+          98320   99862
CHEXA      80735       1   99117   97496   98320   99862   99115   97497+
+          98318   99866
CHEXA      80736       1   99115   97497   98318   99866   99113   97498+
+          98316   99870
CHEXA      80737       1   99113   97498   98316   99870   99111   97499+
+          98314   99874
CHEXA      80738       1   99111   97499   98314   99874   99109   97500+
+          98312   99878
CHEXA      80739       1   99109   97500   98312   99878   99107   97501+
+          98310   99882
CHEXA      80740       1   99107   97501   98310   99882   99105   97502+
+          98308   99886
CHEXA      80741       1   99105   97502   98308   99886   99103   97503+
+          98306   99890
CHEXA      80742       1   99103   97503   98306   99890   99101   97504+
+          98304   99894
CHEXA      80743       1   99101   97504   98304   99894   99099   97505+
+          98302   99898
CHEXA      80744       1   99099   97505   98302   99898   99097   97506+
+          98300   99902
CHEXA      80745       1   99097   97506   98300   99902   99095   97507+
+          98298   99906
CHEXA      80746       1   99095   97507   98298   99906   99093   97508+
+          98296   99910
CHEXA      80747       1   99093   97508   98296   99910   99091   97509+
+          98294   99914
CHEXA      80748       1   99091   97509   98294   99914   99089   97510+
+          98292   99918
CHEXA      80749       1   99089   97510   98292   99918   99087   97511+
+          98290   99922
CHEXA      80750       1   99087   97511   98290   99922   99085   97512+
+          98288   99926
CHEXA      80751       1   99085   97512   98288   99926   99083   97513+
+          98286   99930
CHEXA      80752       1   99083   97513   98286   99930   99081   97514+
+          98284   99934
CHEXA      80753       1   99081   97514   98284   99934   99079   97515+
+          98282   99938
CHEXA      80754       1   99079   97515   98282   99938   99077   97516+
+          98280   99942
CHEXA      80755       1   99077   97516   98280   99942   99075   97517+
+          98278   99946
CHEXA      80756       1   99075   97517   98278   99946   99073   97518+
+          98276   99950
CHEXA      80757       1   99073   97518   98276   99950   99071   97519+
+          98274   99954
CHEXA      80758       1   99071   97519   98274   99954   99069   97520+
+          98272   99958
CHEXA      80759       1   99069   97520   98272   99958   99067   97521+
+          98270   99962
CHEXA      80760       1   99067   97521   98270   99962   99065   97522+
+          98268   99966
CHEXA      80761       1   99065   97522   98268   99966   99063   97523+
+          98266   99970
CHEXA      80762       1   99063   97523   98266   99970   99061   97524+
+          98264   99974
CHEXA      80763       1   99061   97524   98264   99974   99059   97525+
+          98262   99978
CHEXA      80764       1   99059   97525   98262   99978   99057   97526+
+          98260   99982
CHEXA      80765       1   99057   97526   98260   99982   99055   97527+
+          98258   99986
CHEXA      80766       1   99055   97527   98258   99986   99053   97528+
+          98256   99990
CHEXA      80767       1   99053   97528   98256   99990   99051   97529+
+          98254   99994
CHEXA      80768       1   99051   97529   98254   99994   99049   97530+
+          98252   99998
CHEXA      80769       1   99049   97530   98252   99998   99047   97531+
+          98250  100002
CHEXA      80770       1   99047   97531   98250  100002   99045   97532+
+          98248  100006
CHEXA      80771       1   99045   97532   98248  100006   99043   97533+
+          98246  100010
CHEXA      80772       1   99043   97533   98246  100010   99041   97534+
+          98244  100014
CHEXA      80773       1   99041   97534   98244  100014   99039   97535+
+          98242  100018
CHEXA      80774       1   99039   97535   98242  100018   99037   97536+
+          98240  100022
CHEXA      80775       1   99037   97536   98240  100022   99035   97537+
+          98238  100026
CHEXA      80776       1   99035   97537   98238  100026   99033   97538+
+          98236  100030
CHEXA      80777       1   99033   97538   98236  100030   99031   97539+
+          98234  100034
CHEXA      80778       1   99031   97539   98234  100034   99029   97540+
+          98232  100038
CHEXA      80779       1   99029   97540   98232  100038   99027   97541+
+          98230  100042
CHEXA      80780       1   99027   97541   98230  100042   99025   97542+
+          98228  100046
CHEXA      80781       1   99025   97542   98228  100046   99023   97543+
+          98226  100050
CHEXA      80782       1   99023   97543   98226  100050   99021   97544+
+          98224  100054
CHEXA      80783       1   99021   97544   98224  100054   99019   97545+
+          98222  100058
CHEXA      80784       1   99019   97545   98222  100058   99017   97546+
+          98220  100062
CHEXA      80785       1   99017   97546   98220  100062   99015   97547+
+          98218  100066
CHEXA      80786       1   99015   97547   98218  100066   99013   97548+
+          98216  100070
CHEXA      80787       1   99013   97548   98216  100070   99011   97549+
+          98214  100074
CHEXA      80788       1   99011   97549   98214  100074   99009   97550+
+          98212  100078
CHEXA      80789       1   99009   97550   98212  100078   99007   97551+
+          98210  100082
CHEXA      80790       1   99007   97551   98210  100082   99005   97552+
+          98208  100086
CHEXA      80791       1   99005   97552   98208  100086   99003   97553+
+          98206  100090
CHEXA      80792       1   99003   97553   98206  100090   99001   97554+
+          98204  100094
CHEXA      80793       1   99001   97554   98204  100094   98999   97555+
+          98202  100098
CHEXA      80794       1   98999   97555   98202  100098   98997   97556+
+          98200  100102
CHEXA      80795       1   98997   97556   98200  100102   98995   97557+
+          98198  100106
CHEXA      80796       1   98995   97557   98198  100106   98993   97558+
+          98196  100110
CHEXA      80797       1   98993   97558   98196  100110   98991   97559+
+          98194  100114
CHEXA      80798       1   98991   97559   98194  100114   98989   97560+
+          98192  100118
CHEXA      80799       1   98989   97560   98192  100118   98987   97561+
+          98190  100122
CHEXA      80800       1   98987   97561   98190  100122   98985   97562+
+          98188  100126
CHEXA      80801       1   98985   97562   98188  100126   98983   97563+
+          98186  100130
CHEXA      80802       1   98983   97563   98186  100130   98981   97564+
+          98184  100134
CHEXA      80803       1   98981   97564   98184  100134   98979   97565+
+          98182  100138
CHEXA      80804       1   98979   97565   98182  100138   98977   97566+
+          98180  100142
CHEXA      80805       1   98977   97566   98180  100142   98975   97567+
+          98178  100146
CHEXA      80806       1   98975   97567   98178  100146   98973   97568+
+          98176  100150
CHEXA      80807       1   98973   97568   98176  100150   98971   97569+
+          98174  100154
CHEXA      80808       1   98971   97569   98174  100154   98969   97570+
+          98172  100158
CHEXA      80809       1   98969   97570   98172  100158   96973   96964+
+          96968   97770
CHEXA      80810       1   96924   96943   96944   96925   99366   98568+
+          98569   99369
CHEXA      80811       1   99366   98568   98569   99369   99370   98566+
+          98567   99373
CHEXA      80812       1   99370   98566   98567   99373   99374   98564+
+          98565   99377
CHEXA      80813       1   99374   98564   98565   99377   99378   98562+
+          98563   99381
CHEXA      80814       1   99378   98562   98563   99381   99382   98560+
+          98561   99385
CHEXA      80815       1   99382   98560   98561   99385   99386   98558+
+          98559   99389
CHEXA      80816       1   99386   98558   98559   99389   99390   98556+
+          98557   99393
CHEXA      80817       1   99390   98556   98557   99393   99394   98554+
+          98555   99397
CHEXA      80818       1   99394   98554   98555   99397   99398   98552+
+          98553   99401
CHEXA      80819       1   99398   98552   98553   99401   99402   98550+
+          98551   99405
CHEXA      80820       1   99402   98550   98551   99405   99406   98548+
+          98549   99409
CHEXA      80821       1   99406   98548   98549   99409   99410   98546+
+          98547   99413
CHEXA      80822       1   99410   98546   98547   99413   99414   98544+
+          98545   99417
CHEXA      80823       1   99414   98544   98545   99417   99418   98542+
+          98543   99421
CHEXA      80824       1   99418   98542   98543   99421   99422   98540+
+          98541   99425
CHEXA      80825       1   99422   98540   98541   99425   99426   98538+
+          98539   99429
CHEXA      80826       1   99426   98538   98539   99429   99430   98536+
+          98537   99433
CHEXA      80827       1   99430   98536   98537   99433   99434   98534+
+          98535   99437
CHEXA      80828       1   99434   98534   98535   99437   99438   98532+
+          98533   99441
CHEXA      80829       1   99438   98532   98533   99441   99442   98530+
+          98531   99445
CHEXA      80830       1   99442   98530   98531   99445   99446   98528+
+          98529   99449
CHEXA      80831       1   99446   98528   98529   99449   99450   98526+
+          98527   99453
CHEXA      80832       1   99450   98526   98527   99453   99454   98524+
+          98525   99457
CHEXA      80833       1   99454   98524   98525   99457   99458   98522+
+          98523   99461
CHEXA      80834       1   99458   98522   98523   99461   99462   98520+
+          98521   99465
CHEXA      80835       1   99462   98520   98521   99465   99466   98518+
+          98519   99469
CHEXA      80836       1   99466   98518   98519   99469   99470   98516+
+          98517   99473
CHEXA      80837       1   99470   98516   98517   99473   99474   98514+
+          98515   99477
CHEXA      80838       1   99474   98514   98515   99477   99478   98512+
+          98513   99481
CHEXA      80839       1   99478   98512   98513   99481   99482   98510+
+          98511   99485
CHEXA      80840       1   99482   98510   98511   99485   99486   98508+
+          98509   99489
CHEXA      80841       1   99486   98508   98509   99489   99490   98506+
+          98507   99493
CHEXA      80842       1   99490   98506   98507   99493   99494   98504+
+          98505   99497
CHEXA      80843       1   99494   98504   98505   99497   99498   98502+
+          98503   99501
CHEXA      80844       1   99498   98502   98503   99501   99502   98500+
+          98501   99505
CHEXA      80845       1   99502   98500   98501   99505   99506   98498+
+          98499   99509
CHEXA      80846       1   99506   98498   98499   99509   99510   98496+
+          98497   99513
CHEXA      80847       1   99510   98496   98497   99513   99514   98494+
+          98495   99517
CHEXA      80848       1   99514   98494   98495   99517   99518   98492+
+          98493   99521
CHEXA      80849       1   99518   98492   98493   99521   99522   98490+
+          98491   99525
CHEXA      80850       1   99522   98490   98491   99525   99526   98488+
+          98489   99529
CHEXA      80851       1   99526   98488   98489   99529   99530   98486+
+          98487   99533
CHEXA      80852       1   99530   98486   98487   99533   99534   98484+
+          98485   99537
CHEXA      80853       1   99534   98484   98485   99537   99538   98482+
+          98483   99541
CHEXA      80854       1   99538   98482   98483   99541   99542   98480+
+          98481   99545
CHEXA      80855       1   99542   98480   98481   99545   99546   98478+
+          98479   99549
CHEXA      80856       1   99546   98478   98479   99549   99550   98476+
+          98477   99553
CHEXA      80857       1   99550   98476   98477   99553   99554   98474+
+          98475   99557
CHEXA      80858       1   99554   98474   98475   99557   99558   98472+
+          98473   99561
CHEXA      80859       1   99558   98472   98473   99561   99562   98470+
+          98471   99565
CHEXA      80860       1   99562   98470   98471   99565   99566   98468+
+          98469   99569
CHEXA      80861       1   99566   98468   98469   99569   99570   98466+
+          98467   99573
CHEXA      80862       1   99570   98466   98467   99573   99574   98464+
+          98465   99577
CHEXA      80863       1   99574   98464   98465   99577   99578   98462+
+          98463   99581
CHEXA      80864       1   99578   98462   98463   99581   99582   98460+
+          98461   99585
CHEXA      80865       1   99582   98460   98461   99585   99586   98458+
+          98459   99589
CHEXA      80866       1   99586   98458   98459   99589   99590   98456+
+          98457   99593
CHEXA      80867       1   99590   98456   98457   99593   99594   98454+
+          98455   99597
CHEXA      80868       1   99594   98454   98455   99597   99598   98452+
+          98453   99601
CHEXA      80869       1   99598   98452   98453   99601   99602   98450+
+          98451   99605
CHEXA      80870       1   99602   98450   98451   99605   99606   98448+
+          98449   99609
CHEXA      80871       1   99606   98448   98449   99609   99610   98446+
+          98447   99613
CHEXA      80872       1   99610   98446   98447   99613   99614   98444+
+          98445   99617
CHEXA      80873       1   99614   98444   98445   99617   99618   98442+
+          98443   99621
CHEXA      80874       1   99618   98442   98443   99621   99622   98440+
+          98441   99625
CHEXA      80875       1   99622   98440   98441   99625   99626   98438+
+          98439   99629
CHEXA      80876       1   99626   98438   98439   99629   99630   98436+
+          98437   99633
CHEXA      80877       1   99630   98436   98437   99633   99634   98434+
+          98435   99637
CHEXA      80878       1   99634   98434   98435   99637   99638   98432+
+          98433   99641
CHEXA      80879       1   99638   98432   98433   99641   99642   98430+
+          98431   99645
CHEXA      80880       1   99642   98430   98431   99645   99646   98428+
+          98429   99649
CHEXA      80881       1   99646   98428   98429   99649   99650   98426+
+          98427   99653
CHEXA      80882       1   99650   98426   98427   99653   99654   98424+
+          98425   99657
CHEXA      80883       1   99654   98424   98425   99657   99658   98422+
+          98423   99661
CHEXA      80884       1   99658   98422   98423   99661   99662   98420+
+          98421   99665
CHEXA      80885       1   99662   98420   98421   99665   99666   98418+
+          98419   99669
CHEXA      80886       1   99666   98418   98419   99669   99670   98416+
+          98417   99673
CHEXA      80887       1   99670   98416   98417   99673   99674   98414+
+          98415   99677
CHEXA      80888       1   99674   98414   98415   99677   99678   98412+
+          98413   99681
CHEXA      80889       1   99678   98412   98413   99681   99682   98410+
+          98411   99685
CHEXA      80890       1   99682   98410   98411   99685   99686   98408+
+          98409   99689
CHEXA      80891       1   99686   98408   98409   99689   99690   98406+
+          98407   99693
CHEXA      80892       1   99690   98406   98407   99693   99694   98404+
+          98405   99697
CHEXA      80893       1   99694   98404   98405   99697   99698   98402+
+          98403   99701
CHEXA      80894       1   99698   98402   98403   99701   99702   98400+
+          98401   99705
CHEXA      80895       1   99702   98400   98401   99705   99706   98398+
+          98399   99709
CHEXA      80896       1   99706   98398   98399   99709   99710   98396+
+          98397   99713
CHEXA      80897       1   99710   98396   98397   99713   99714   98394+
+          98395   99717
CHEXA      80898       1   99714   98394   98395   99717   99718   98392+
+          98393   99721
CHEXA      80899       1   99718   98392   98393   99721   99722   98390+
+          98391   99725
CHEXA      80900       1   99722   98390   98391   99725   99726   98388+
+          98389   99729
CHEXA      80901       1   99726   98388   98389   99729   99730   98386+
+          98387   99733
CHEXA      80902       1   99730   98386   98387   99733   99734   98384+
+          98385   99737
CHEXA      80903       1   99734   98384   98385   99737   99738   98382+
+          98383   99741
CHEXA      80904       1   99738   98382   98383   99741   99742   98380+
+          98381   99745
CHEXA      80905       1   99742   98380   98381   99745   99746   98378+
+          98379   99749
CHEXA      80906       1   99746   98378   98379   99749   99750   98376+
+          98377   99753
CHEXA      80907       1   99750   98376   98377   99753   99754   98374+
+          98375   99757
CHEXA      80908       1   99754   98374   98375   99757   99758   98372+
+          98373   99761
CHEXA      80909       1   99758   98372   98373   99761   99762   98370+
+          98371   99765
CHEXA      80910       1   99762   98370   98371   99765   99766   98368+
+          98369   99769
CHEXA      80911       1   99766   98368   98369   99769   99770   98366+
+          98367   99773
CHEXA      80912       1   99770   98366   98367   99773   99774   98364+
+          98365   99777
CHEXA      80913       1   99774   98364   98365   99777   99778   98362+
+          98363   99781
CHEXA      80914       1   99778   98362   98363   99781   99782   98360+
+          98361   99785
CHEXA      80915       1   99782   98360   98361   99785   99786   98358+
+          98359   99789
CHEXA      80916       1   99786   98358   98359   99789   99790   98356+
+          98357   99793
CHEXA      80917       1   99790   98356   98357   99793   99794   98354+
+          98355   99797
CHEXA      80918       1   99794   98354   98355   99797   99798   98352+
+          98353   99801
CHEXA      80919       1   99798   98352   98353   99801   99802   98350+
+          98351   99805
CHEXA      80920       1   99802   98350   98351   99805   99806   98348+
+          98349   99809
CHEXA      80921       1   99806   98348   98349   99809   99810   98346+
+          98347   99813
CHEXA      80922       1   99810   98346   98347   99813   99814   98344+
+          98345   99817
CHEXA      80923       1   99814   98344   98345   99817   99818   98342+
+          98343   99821
CHEXA      80924       1   99818   98342   98343   99821   99822   98340+
+          98341   99825
CHEXA      80925       1   99822   98340   98341   99825   99826   98338+
+          98339   99829
CHEXA      80926       1   99826   98338   98339   99829   99830   98336+
+          98337   99833
CHEXA      80927       1   99830   98336   98337   99833   99834   98334+
+          98335   99837
CHEXA      80928       1   99834   98334   98335   99837   99838   98332+
+          98333   99841
CHEXA      80929       1   99838   98332   98333   99841   99842   98330+
+          98331   99845
CHEXA      80930       1   99842   98330   98331   99845   99846   98328+
+          98329   99849
CHEXA      80931       1   99846   98328   98329   99849   99850   98326+
+          98327   99853
CHEXA      80932       1   99850   98326   98327   99853   99854   98324+
+          98325   99857
CHEXA      80933       1   99854   98324   98325   99857   99858   98322+
+          98323   99861
CHEXA      80934       1   99858   98322   98323   99861   99862   98320+
+          98321   99865
CHEXA      80935       1   99862   98320   98321   99865   99866   98318+
+          98319   99869
CHEXA      80936       1   99866   98318   98319   99869   99870   98316+
+          98317   99873
CHEXA      80937       1   99870   98316   98317   99873   99874   98314+
+          98315   99877
CHEXA      80938       1   99874   98314   98315   99877   99878   98312+
+          98313   99881
CHEXA      80939       1   99878   98312   98313   99881   99882   98310+
+          98311   99885
CHEXA      80940       1   99882   98310   98311   99885   99886   98308+
+          98309   99889
CHEXA      80941       1   99886   98308   98309   99889   99890   98306+
+          98307   99893
CHEXA      80942       1   99890   98306   98307   99893   99894   98304+
+          98305   99897
CHEXA      80943       1   99894   98304   98305   99897   99898   98302+
+          98303   99901
CHEXA      80944       1   99898   98302   98303   99901   99902   98300+
+          98301   99905
CHEXA      80945       1   99902   98300   98301   99905   99906   98298+
+          98299   99909
CHEXA      80946       1   99906   98298   98299   99909   99910   98296+
+          98297   99913
CHEXA      80947       1   99910   98296   98297   99913   99914   98294+
+          98295   99917
CHEXA      80948       1   99914   98294   98295   99917   99918   98292+
+          98293   99921
CHEXA      80949       1   99918   98292   98293   99921   99922   98290+
+          98291   99925
CHEXA      80950       1   99922   98290   98291   99925   99926   98288+
+          98289   99929
CHEXA      80951       1   99926   98288   98289   99929   99930   98286+
+          98287   99933
CHEXA      80952       1   99930   98286   98287   99933   99934   98284+
+          98285   99937
CHEXA      80953       1   99934   98284   98285   99937   99938   98282+
+          98283   99941
CHEXA      80954       1   99938   98282   98283   99941   99942   98280+
+          98281   99945
CHEXA      80955       1   99942   98280   98281   99945   99946   98278+
+          98279   99949
CHEXA      80956       1   99946   98278   98279   99949   99950   98276+
+          98277   99953
CHEXA      80957       1   99950   98276   98277   99953   99954   98274+
+          98275   99957
CHEXA      80958       1   99954   98274   98275   99957   99958   98272+
+          98273   99961
CHEXA      80959       1   99958   98272   98273   99961   99962   98270+
+          98271   99965
CHEXA      80960       1   99962   98270   98271   99965   99966   98268+
+          98269   99969
CHEXA      80961       1   99966   98268   98269   99969   99970   98266+
+          98267   99973
CHEXA      80962       1   99970   98266   98267   99973   99974   98264+
+          98265   99977
CHEXA      80963       1   99974   98264   98265   99977   99978   98262+
+          98263   99981
CHEXA      80964       1   99978   98262   98263   99981   99982   98260+
+          98261   99985
CHEXA      80965       1   99982   98260   98261   99985   99986   98258+
+          98259   99989
CHEXA      80966       1   99986   98258   98259   99989   99990   98256+
+          98257   99993
CHEXA      80967       1   99990   98256   98257   99993   99994   98254+
+          98255   99997
CHEXA      80968       1   99994   98254   98255   99997   99998   98252+
+          98253  100001
CHEXA      80969       1   99998   98252   98253  100001  100002   98250+
+          98251  100005
CHEXA      80970       1  100002   98250   98251  100005  100006   98248+
+          98249  100009
CHEXA      80971       1  100006   98248   98249  100009  100010   98246+
+          98247  100013
CHEXA      80972       1  100010   98246   98247  100013  100014   98244+
+          98245  100017
CHEXA      80973       1  100014   98244   98245  100017  100018   98242+
+          98243  100021
CHEXA      80974       1  100018   98242   98243  100021  100022   98240+
+          98241  100025
CHEXA      80975       1  100022   98240   98241  100025  100026   98238+
+          98239  100029
CHEXA      80976       1  100026   98238   98239  100029  100030   98236+
+          98237  100033
CHEXA      80977       1  100030   98236   98237  100033  100034   98234+
+          98235  100037
CHEXA      80978       1  100034   98234   98235  100037  100038   98232+
+          98233  100041
CHEXA      80979       1  100038   98232   98233  100041  100042   98230+
+          98231  100045
CHEXA      80980       1  100042   98230   98231  100045  100046   98228+
+          98229  100049
CHEXA      80981       1  100046   98228   98229  100049  100050   98226+
+          98227  100053
CHEXA      80982       1  100050   98226   98227  100053  100054   98224+
+          98225  100057
CHEXA      80983       1  100054   98224   98225  100057  100058   98222+
+          98223  100061
CHEXA      80984       1  100058   98222   98223  100061  100062   98220+
+          98221  100065
CHEXA      80985       1  100062   98220   98221  100065  100066   98218+
+          98219  100069
CHEXA      80986       1  100066   98218   98219  100069  100070   98216+
+          98217  100073
CHEXA      80987       1  100070   98216   98217  100073  100074   98214+
+          98215  100077
CHEXA      80988       1  100074   98214   98215  100077  100078   98212+
+          98213  100081
CHEXA      80989       1  100078   98212   98213  100081  100082   98210+
+          98211  100085
CHEXA      80990       1  100082   98210   98211  100085  100086   98208+
+          98209  100089
CHEXA      80991       1  100086   98208   98209  100089  100090   98206+
+          98207  100093
CHEXA      80992       1  100090   98206   98207  100093  100094   98204+
+          98205  100097
CHEXA      80993       1  100094   98204   98205  100097  100098   98202+
+          98203  100101
CHEXA      80994       1  100098   98202   98203  100101  100102   98200+
+          98201  100105
CHEXA      80995       1  100102   98200   98201  100105  100106   98198+
+          98199  100109
CHEXA      80996       1  100106   98198   98199  100109  100110   98196+
+          98197  100113
CHEXA      80997       1  100110   98196   98197  100113  100114   98194+
+          98195  100117
CHEXA      80998       1  100114   98194   98195  100117  100118   98192+
+          98193  100121
CHEXA      80999       1  100118   98192   98193  100121  100122   98190+
+          98191  100125
CHEXA      81000       1  100122   98190   98191  100125  100126   98188+
+          98189  100129
CHEXA      81001       1  100126   98188   98189  100129  100130   98186+
+          98187  100133
CHEXA      81002       1  100130   98186   98187  100133  100134   98184+
+          98185  100137
CHEXA      81003       1  100134   98184   98185  100137  100138   98182+
+          98183  100141
CHEXA      81004       1  100138   98182   98183  100141  100142   98180+
+          98181  100145
CHEXA      81005       1  100142   98180   98181  100145  100146   98178+
+          98179  100149
CHEXA      81006       1  100146   98178   98179  100149  100150   98176+
+          98177  100153
CHEXA      81007       1  100150   98176   98177  100153  100154   98174+
+          98175  100157
CHEXA      81008       1  100154   98174   98175  100157  100158   98172+
+          98173  100161
CHEXA      81009       1  100158   98172   98173  100161   97770   96968+
+          96969   97773
CHEXA      81010       1   96925   96944   96958   96938   99369   98569+
+          96974   97775
CHEXA      81011       1   99369   98569   96974   97775   99373   98567+
+          96975   97777
CHEXA      81012       1   99373   98567   96975   97777   99377   98565+
+          96976   97779
CHEXA      81013       1   99377   98565   96976   97779   99381   98563+
+          96977   97781
CHEXA      81014       1   99381   98563   96977   97781   99385   98561+
+          96978   97783
CHEXA      81015       1   99385   98561   96978   97783   99389   98559+
+          96979   97785
CHEXA      81016       1   99389   98559   96979   97785   99393   98557+
+          96980   97787
CHEXA      81017       1   99393   98557   96980   97787   99397   98555+
+          96981   97789
CHEXA      81018       1   99397   98555   96981   97789   99401   98553+
+          96982   97791
CHEXA      81019       1   99401   98553   96982   97791   99405   98551+
+          96983   97793
CHEXA      81020       1   99405   98551   96983   97793   99409   98549+
+          96984   97795
CHEXA      81021       1   99409   98549   96984   97795   99413   98547+
+          96985   97797
CHEXA      81022       1   99413   98547   96985   97797   99417   98545+
+          96986   97799
CHEXA      81023       1   99417   98545   96986   97799   99421   98543+
+          96987   97801
CHEXA      81024       1   99421   98543   96987   97801   99425   98541+
+          96988   97803
CHEXA      81025       1   99425   98541   96988   97803   99429   98539+
+          96989   97805
CHEXA      81026       1   99429   98539   96989   97805   99433   98537+
+          96990   97807
CHEXA      81027       1   99433   98537   96990   97807   99437   98535+
+          96991   97809
CHEXA      81028       1   99437   98535   96991   97809   99441   98533+
+          96992   97811
CHEXA      81029       1   99441   98533   96992   97811   99445   98531+
+          96993   97813
CHEXA      81030       1   99445   98531   96993   97813   99449   98529+
+          96994   97815
CHEXA      81031       1   99449   98529   96994   97815   99453   98527+
+          96995   97817
CHEXA      81032       1   99453   98527   96995   97817   99457   98525+
+          96996   97819
CHEXA      81033       1   99457   98525   96996   97819   99461   98523+
+          96997   97821
CHEXA      81034       1   99461   98523   96997   97821   99465   98521+
+          96998   97823
CHEXA      81035       1   99465   98521   96998   97823   99469   98519+
+          96999   97825
CHEXA      81036       1   99469   98519   96999   97825   99473   98517+
+          97000   97827
CHEXA      81037       1   99473   98517   97000   97827   99477   98515+
+          97001   97829
CHEXA      81038       1   99477   98515   97001   97829   99481   98513+
+          97002   97831
CHEXA      81039       1   99481   98513   97002   97831   99485   98511+
+          97003   97833
CHEXA      81040       1   99485   98511   97003   97833   99489   98509+
+          97004   97835
CHEXA      81041       1   99489   98509   97004   97835   99493   98507+
+          97005   97837
CHEXA      81042       1   99493   98507   97005   97837   99497   98505+
+          97006   97839
CHEXA      81043       1   99497   98505   97006   97839   99501   98503+
+          97007   97841
CHEXA      81044       1   99501   98503   97007   97841   99505   98501+
+          97008   97843
CHEXA      81045       1   99505   98501   97008   97843   99509   98499+
+          97009   97845
CHEXA      81046       1   99509   98499   97009   97845   99513   98497+
+          97010   97847
CHEXA      81047       1   99513   98497   97010   97847   99517   98495+
+          97011   97849
CHEXA      81048       1   99517   98495   97011   97849   99521   98493+
+          97012   97851
CHEXA      81049       1   99521   98493   97012   97851   99525   98491+
+          97013   97853
CHEXA      81050       1   99525   98491   97013   97853   99529   98489+
+          97014   97855
CHEXA      81051       1   99529   98489   97014   97855   99533   98487+
+          97015   97857
CHEXA      81052       1   99533   98487   97015   97857   99537   98485+
+          97016   97859
CHEXA      81053       1   99537   98485   97016   97859   99541   98483+
+          97017   97861
CHEXA      81054       1   99541   98483   97017   97861   99545   98481+
+          97018   97863
CHEXA      81055       1   99545   98481   97018   97863   99549   98479+
+          97019   97865
CHEXA      81056       1   99549   98479   97019   97865   99553   98477+
+          97020   97867
CHEXA      81057       1   99553   98477   97020   97867   99557   98475+
+          97021   97869
CHEXA      81058       1   99557   98475   97021   97869   99561   98473+
+          97022   97871
CHEXA      81059       1   99561   98473   97022   97871   99565   98471+
+          97023   97873
CHEXA      81060       1   99565   98471   97023   97873   99569   98469+
+          97024   97875
CHEXA      81061       1   99569   98469   97024   97875   99573   98467+
+          97025   97877
CHEXA      81062       1   99573   98467   97025   97877   99577   98465+
+          97026   97879
CHEXA      81063       1   99577   98465   97026   97879   99581   98463+
+          97027   97881
CHEXA      81064       1   99581   98463   97027   97881   99585   98461+
+          97028   97883
CHEXA      81065       1   99585   98461   97028   97883   99589   98459+
+          97029   97885
CHEXA      81066       1   99589   98459   97029   97885   99593   98457+
+          97030   97887
CHEXA      81067       1   99593   98457   97030   97887   99597   98455+
+          97031   97889
CHEXA      81068       1   99597   98455   97031   97889   99601   98453+
+          97032   97891
CHEXA      81069       1   99601   98453   97032   97891   99605   98451+
+          97033   97893
CHEXA      81070       1   99605   98451   97033   97893   99609   98449+
+          97034   97895
CHEXA      81071       1   99609   98449   97034   97895   99613   98447+
+          97035   97897
CHEXA      81072       1   99613   98447   97035   97897   99617   98445+
+          97036   97899
CHEXA      81073       1   99617   98445   97036   97899   99621   98443+
+          97037   97901
CHEXA      81074       1   99621   98443   97037   97901   99625   98441+
+          97038   97903
CHEXA      81075       1   99625   98441   97038   97903   99629   98439+
+          97039   97905
CHEXA      81076       1   99629   98439   97039   97905   99633   98437+
+          97040   97907
CHEXA      81077       1   99633   98437   97040   97907   99637   98435+
+          97041   97909
CHEXA      81078       1   99637   98435   97041   97909   99641   98433+
+          97042   97911
CHEXA      81079       1   99641   98433   97042   97911   99645   98431+
+          97043   97913
CHEXA      81080       1   99645   98431   97043   97913   99649   98429+
+          97044   97915
CHEXA      81081       1   99649   98429   97044   97915   99653   98427+
+          97045   97917
CHEXA      81082       1   99653   98427   97045   97917   99657   98425+
+          97046   97919
CHEXA      81083       1   99657   98425   97046   97919   99661   98423+
+          97047   97921
CHEXA      81084       1   99661   98423   97047   97921   99665   98421+
+          97048   97923
CHEXA      81085       1   99665   98421   97048   97923   99669   98419+
+          97049   97925
CHEXA      81086       1   99669   98419   97049   97925   99673   98417+
+          97050   97927
CHEXA      81087       1   99673   98417   97050   97927   99677   98415+
+          97051   97929
CHEXA      81088       1   99677   98415   97051   97929   99681   98413+
+          97052   97931
CHEXA      81089       1   99681   98413   97052   97931   99685   98411+
+          97053   97933
CHEXA      81090       1   99685   98411   97053   97933   99689   98409+
+          97054   97935
CHEXA      81091       1   99689   98409   97054   97935   99693   98407+
+          97055   97937
CHEXA      81092       1   99693   98407   97055   97937   99697   98405+
+          97056   97939
CHEXA      81093       1   99697   98405   97056   97939   99701   98403+
+          97057   97941
CHEXA      81094       1   99701   98403   97057   97941   99705   98401+
+          97058   97943
CHEXA      81095       1   99705   98401   97058   97943   99709   98399+
+          97059   97945
CHEXA      81096       1   99709   98399   97059   97945   99713   98397+
+          97060   97947
CHEXA      81097       1   99713   98397   97060   97947   99717   98395+
+          97061   97949
CHEXA      81098       1   99717   98395   97061   97949   99721   98393+
+          97062   97951
CHEXA      81099       1   99721   98393   97062   97951   99725   98391+
+          97063   97953
CHEXA      81100       1   99725   98391   97063   97953   99729   98389+
+          97064   97955
CHEXA      81101       1   99729   98389   97064   97955   99733   98387+
+          97065   97957
CHEXA      81102       1   99733   98387   97065   97957   99737   98385+
+          97066   97959
CHEXA      81103       1   99737   98385   97066   97959   99741   98383+
+          97067   97961
CHEXA      81104       1   99741   98383   97067   97961   99745   98381+
+          97068   97963
CHEXA      81105       1   99745   98381   97068   97963   99749   98379+
+          97069   97965
CHEXA      81106       1   99749   98379   97069   97965   99753   98377+
+          97070   97967
CHEXA      81107       1   99753   98377   97070   97967   99757   98375+
+          97071   97969
CHEXA      81108       1   99757   98375   97071   97969   99761   98373+
+          97072   97971
CHEXA      81109       1   99761   98373   97072   97971   99765   98371+
+          97073   97973
CHEXA      81110       1   99765   98371   97073   97973   99769   98369+
+          97074   97975
CHEXA      81111       1   99769   98369   97074   97975   99773   98367+
+          97075   97977
CHEXA      81112       1   99773   98367   97075   97977   99777   98365+
+          97076   97979
CHEXA      81113       1   99777   98365   97076   97979   99781   98363+
+          97077   97981
CHEXA      81114       1   99781   98363   97077   97981   99785   98361+
+          97078   97983
CHEXA      81115       1   99785   98361   97078   97983   99789   98359+
+          97079   97985
CHEXA      81116       1   99789   98359   97079   97985   99793   98357+
+          97080   97987
CHEXA      81117       1   99793   98357   97080   97987   99797   98355+
+          97081   97989
CHEXA      81118       1   99797   98355   97081   97989   99801   98353+
+          97082   97991
CHEXA      81119       1   99801   98353   97082   97991   99805   98351+
+          97083   97993
CHEXA      81120       1   99805   98351   97083   97993   99809   98349+
+          97084   97995
CHEXA      81121       1   99809   98349   97084   97995   99813   98347+
+          97085   97997
CHEXA      81122       1   99813   98347   97085   97997   99817   98345+
+          97086   97999
CHEXA      81123       1   99817   98345   97086   97999   99821   98343+
+          97087   98001
CHEXA      81124       1   99821   98343   97087   98001   99825   98341+
+          97088   98003
CHEXA      81125       1   99825   98341   97088   98003   99829   98339+
+          97089   98005
CHEXA      81126       1   99829   98339   97089   98005   99833   98337+
+          97090   98007
CHEXA      81127       1   99833   98337   97090   98007   99837   98335+
+          97091   98009
CHEXA      81128       1   99837   98335   97091   98009   99841   98333+
+          97092   98011
CHEXA      81129       1   99841   98333   97092   98011   99845   98331+
+          97093   98013
CHEXA      81130       1   99845   98331   97093   98013   99849   98329+
+          97094   98015
CHEXA      81131       1   99849   98329   97094   98015   99853   98327+
+          97095   98017
CHEXA      81132       1   99853   98327   97095   98017   99857   98325+
+          97096   98019
CHEXA      81133       1   99857   98325   97096   98019   99861   98323+
+          97097   98021
CHEXA      81134       1   99861   98323   97097   98021   99865   98321+
+          97098   98023
CHEXA      81135       1   99865   98321   97098   98023   99869   98319+
+          97099   98025
CHEXA      81136       1   99869   98319   97099   98025   99873   98317+
+          97100   98027
CHEXA      81137       1   99873   98317   97100   98027   99877   98315+
+          97101   98029
CHEXA      81138       1   99877   98315   97101   98029   99881   98313+
+          97102   98031
CHEXA      81139       1   99881   98313   97102   98031   99885   98311+
+          97103   98033
CHEXA      81140       1   99885   98311   97103   98033   99889   98309+
+          97104   98035
CHEXA      81141       1   99889   98309   97104   98035   99893   98307+
+          97105   98037
CHEXA      81142       1   99893   98307   97105   98037   99897   98305+
+          97106   98039
CHEXA      81143       1   99897   98305   97106   98039   99901   98303+
+          97107   98041
CHEXA      81144       1   99901   98303   97107   98041   99905   98301+
+          97108   98043
CHEXA      81145       1   99905   98301   97108   98043   99909   98299+
+          97109   98045
CHEXA      81146       1   99909   98299   97109   98045   99913   98297+
+          97110   98047
CHEXA      81147       1   99913   98297   97110   98047   99917   98295+
+          97111   98049
CHEXA      81148       1   99917   98295   97111   98049   99921   98293+
+          97112   98051
CHEXA      81149       1   99921   98293   97112   98051   99925   98291+
+          97113   98053
CHEXA      81150       1   99925   98291   97113   98053   99929   98289+
+          97114   98055
CHEXA      81151       1   99929   98289   97114   98055   99933   98287+
+          97115   98057
CHEXA      81152       1   99933   98287   97115   98057   99937   98285+
+          97116   98059
CHEXA      81153       1   99937   98285   97116   98059   99941   98283+
+          97117   98061
CHEXA      81154       1   99941   98283   97117   98061   99945   98281+
+          97118   98063
CHEXA      81155       1   99945   98281   97118   98063   99949   98279+
+          97119   98065
CHEXA      81156       1   99949   98279   97119   98065   99953   98277+
+          97120   98067
CHEXA      81157       1   99953   98277   97120   98067   99957   98275+
+          97121   98069
CHEXA      81158       1   99957   98275   97121   98069   99961   98273+
+          97122   98071
CHEXA      81159       1   99961   98273   97122   98071   99965   98271+
+          97123   98073
CHEXA      81160       1   99965   98271   97123   98073   99969   98269+
+          97124   98075
CHEXA      81161       1   99969   98269   97124   98075   99973   98267+
+          97125   98077
CHEXA      81162       1   99973   98267   97125   98077   99977   98265+
+          97126   98079
CHEXA      81163       1   99977   98265   97126   98079   99981   98263+
+          97127   98081
CHEXA      81164       1   99981   98263   97127   98081   99985   98261+
+          97128   98083
CHEXA      81165       1   99985   98261   97128   98083   99989   98259+
+          97129   98085
CHEXA      81166       1   99989   98259   97129   98085   99993   98257+
+          97130   98087
CHEXA      81167       1   99993   98257   97130   98087   99997   98255+
+          97131   98089
CHEXA      81168       1   99997   98255   97131   98089  100001   98253+
+          97132   98091
CHEXA      81169       1  100001   98253   97132   98091  100005   98251+
+          97133   98093
CHEXA      81170       1  100005   98251   97133   98093  100009   98249+
+          97134   98095
CHEXA      81171       1  100009   98249   97134   98095  100013   98247+
+          97135   98097
CHEXA      81172       1  100013   98247   97135   98097  100017   98245+
+          97136   98099
CHEXA      81173       1  100017   98245   97136   98099  100021   98243+
+          97137   98101
CHEXA      81174       1  100021   98243   97137   98101  100025   98241+
+          97138   98103
CHEXA      81175       1  100025   98241   97138   98103  100029   98239+
+          97139   98105
CHEXA      81176       1  100029   98239   97139   98105  100033   98237+
+          97140   98107
CHEXA      81177       1  100033   98237   97140   98107  100037   98235+
+          97141   98109
CHEXA      81178       1  100037   98235   97141   98109  100041   98233+
+          97142   98111
CHEXA      81179       1  100041   98233   97142   98111  100045   98231+
+          97143   98113
CHEXA      81180       1  100045   98231   97143   98113  100049   98229+
+          97144   98115
CHEXA      81181       1  100049   98229   97144   98115  100053   98227+
+          97145   98117
CHEXA      81182       1  100053   98227   97145   98117  100057   98225+
+          97146   98119
CHEXA      81183       1  100057   98225   97146   98119  100061   98223+
+          97147   98121
CHEXA      81184       1  100061   98223   97147   98121  100065   98221+
+          97148   98123
CHEXA      81185       1  100065   98221   97148   98123  100069   98219+
+          97149   98125
CHEXA      81186       1  100069   98219   97149   98125  100073   98217+
+          97150   98127
CHEXA      81187       1  100073   98217   97150   98127  100077   98215+
+          97151   98129
CHEXA      81188       1  100077   98215   97151   98129  100081   98213+
+          97152   98131
CHEXA      81189       1  100081   98213   97152   98131  100085   98211+
+          97153   98133
CHEXA      81190       1  100085   98211   97153   98133  100089   98209+
+          97154   98135
CHEXA      81191       1  100089   98209   97154   98135  100093   98207+
+          97155   98137
CHEXA      81192       1  100093   98207   97155   98137  100097   98205+
+          97156   98139
CHEXA      81193       1  100097   98205   97156   98139  100101   98203+
+          97157   98141
CHEXA      81194       1  100101   98203   97157   98141  100105   98201+
+          97158   98143
CHEXA      81195       1  100105   98201   97158   98143  100109   98199+
+          97159   98145
CHEXA      81196       1  100109   98199   97159   98145  100113   98197+
+          97160   98147
CHEXA      81197       1  100113   98197   97160   98147  100117   98195+
+          97161   98149
CHEXA      81198       1  100117   98195   97161   98149  100121   98193+
+          97162   98151
CHEXA      81199       1  100121   98193   97162   98151  100125   98191+
+          97163   98153
CHEXA      81200       1  100125   98191   97163   98153  100129   98189+
+          97164   98155
CHEXA      81201       1  100129   98189   97164   98155  100133   98187+
+          97165   98157
CHEXA      81202       1  100133   98187   97165   98157  100137   98185+
+          97166   98159
CHEXA      81203       1  100137   98185   97166   98159  100141   98183+
+          97167   98161
CHEXA      81204       1  100141   98183   97167   98161  100145   98181+
+          97168   98163
CHEXA      81205       1  100145   98181   97168   98163  100149   98179+
+          97169   98165
CHEXA      81206       1  100149   98179   97169   98165  100153   98177+
+          97170   98167
CHEXA      81207       1  100153   98177   97170   98167  100157   98175+
+          97171   98169
CHEXA      81208       1  100157   98175   97171   98169  100161   98173+
+          97172   98171
CHEXA      81209       1  100161   98173   97172   98171   97773   96969+
+          96962   96966
CHEXA      81210       1   96923   96925   96938   96939   99368   99369+
+          97775   97774
CHEXA      81211       1   99368   99369   97775   97774   99372   99373+
+          97777   97776
CHEXA      81212       1   99372   99373   97777   97776   99376   99377+
+          97779   97778
CHEXA      81213       1   99376   99377   97779   97778   99380   99381+
+          97781   97780
CHEXA      81214       1   99380   99381   97781   97780   99384   99385+
+          97783   97782
CHEXA      81215       1   99384   99385   97783   97782   99388   99389+
+          97785   97784
CHEXA      81216       1   99388   99389   97785   97784   99392   99393+
+          97787   97786
CHEXA      81217       1   99392   99393   97787   97786   99396   99397+
+          97789   97788
CHEXA      81218       1   99396   99397   97789   97788   99400   99401+
+          97791   97790
CHEXA      81219       1   99400   99401   97791   97790   99404   99405+
+          97793   97792
CHEXA      81220       1   99404   99405   97793   97792   99408   99409+
+          97795   97794
CHEXA      81221       1   99408   99409   97795   97794   99412   99413+
+          97797   97796
CHEXA      81222       1   99412   99413   97797   97796   99416   99417+
+          97799   97798
CHEXA      81223       1   99416   99417   97799   97798   99420   99421+
+          97801   97800
CHEXA      81224       1   99420   99421   97801   97800   99424   99425+
+          97803   97802
CHEXA      81225       1   99424   99425   97803   97802   99428   99429+
+          97805   97804
CHEXA      81226       1   99428   99429   97805   97804   99432   99433+
+          97807   97806
CHEXA      81227       1   99432   99433   97807   97806   99436   99437+
+          97809   97808
CHEXA      81228       1   99436   99437   97809   97808   99440   99441+
+          97811   97810
CHEXA      81229       1   99440   99441   97811   97810   99444   99445+
+          97813   97812
CHEXA      81230       1   99444   99445   97813   97812   99448   99449+
+          97815   97814
CHEXA      81231       1   99448   99449   97815   97814   99452   99453+
+          97817   97816
CHEXA      81232       1   99452   99453   97817   97816   99456   99457+
+          97819   97818
CHEXA      81233       1   99456   99457   97819   97818   99460   99461+
+          97821   97820
CHEXA      81234       1   99460   99461   97821   97820   99464   99465+
+          97823   97822
CHEXA      81235       1   99464   99465   97823   97822   99468   99469+
+          97825   97824
CHEXA      81236       1   99468   99469   97825   97824   99472   99473+
+          97827   97826
CHEXA      81237       1   99472   99473   97827   97826   99476   99477+
+          97829   97828
CHEXA      81238       1   99476   99477   97829   97828   99480   99481+
+          97831   97830
CHEXA      81239       1   99480   99481   97831   97830   99484   99485+
+          97833   97832
CHEXA      81240       1   99484   99485   97833   97832   99488   99489+
+          97835   97834
CHEXA      81241       1   99488   99489   97835   97834   99492   99493+
+          97837   97836
CHEXA      81242       1   99492   99493   97837   97836   99496   99497+
+          97839   97838
CHEXA      81243       1   99496   99497   97839   97838   99500   99501+
+          97841   97840
CHEXA      81244       1   99500   99501   97841   97840   99504   99505+
+          97843   97842
CHEXA      81245       1   99504   99505   97843   97842   99508   99509+
+          97845   97844
CHEXA      81246       1   99508   99509   97845   97844   99512   99513+
+          97847   97846
CHEXA      81247       1   99512   99513   97847   97846   99516   99517+
+          97849   97848
CHEXA      81248       1   99516   99517   97849   97848   99520   99521+
+          97851   97850
CHEXA      81249       1   99520   99521   97851   97850   99524   99525+
+          97853   97852
CHEXA      81250       1   99524   99525   97853   97852   99528   99529+
+          97855   97854
CHEXA      81251       1   99528   99529   97855   97854   99532   99533+
+          97857   97856
CHEXA      81252       1   99532   99533   97857   97856   99536   99537+
+          97859   97858
CHEXA      81253       1   99536   99537   97859   97858   99540   99541+
+          97861   97860
CHEXA      81254       1   99540   99541   97861   97860   99544   99545+
+          97863   97862
CHEXA      81255       1   99544   99545   97863   97862   99548   99549+
+          97865   97864
CHEXA      81256       1   99548   99549   97865   97864   99552   99553+
+          97867   97866
CHEXA      81257       1   99552   99553   97867   97866   99556   99557+
+          97869   97868
CHEXA      81258       1   99556   99557   97869   97868   99560   99561+
+          97871   97870
CHEXA      81259       1   99560   99561   97871   97870   99564   99565+
+          97873   97872
CHEXA      81260       1   99564   99565   97873   97872   99568   99569+
+          97875   97874
CHEXA      81261       1   99568   99569   97875   97874   99572   99573+
+          97877   97876
CHEXA      81262       1   99572   99573   97877   97876   99576   99577+
+          97879   97878
CHEXA      81263       1   99576   99577   97879   97878   99580   99581+
+          97881   97880
CHEXA      81264       1   99580   99581   97881   97880   99584   99585+
+          97883   97882
CHEXA      81265       1   99584   99585   97883   97882   99588   99589+
+          97885   97884
CHEXA      81266       1   99588   99589   97885   97884   99592   99593+
+          97887   97886
CHEXA      81267       1   99592   99593   97887   97886   99596   99597+
+          97889   97888
CHEXA      81268       1   99596   99597   97889   97888   99600   99601+
+          97891   97890
CHEXA      81269       1   99600   99601   97891   97890   99604   99605+
+          97893   97892
CHEXA      81270       1   99604   99605   97893   97892   99608   99609+
+          97895   97894
CHEXA      81271       1   99608   99609   97895   97894   99612   99613+
+          97897   97896
CHEXA      81272       1   99612   99613   97897   97896   99616   99617+
+          97899   97898
CHEXA      81273       1   99616   99617   97899   97898   99620   99621+
+          97901   97900
CHEXA      81274       1   99620   99621   97901   97900   99624   99625+
+          97903   97902
CHEXA      81275       1   99624   99625   97903   97902   99628   99629+
+          97905   97904
CHEXA      81276       1   99628   99629   97905   97904   99632   99633+
+          97907   97906
CHEXA      81277       1   99632   99633   97907   97906   99636   99637+
+          97909   97908
CHEXA      81278       1   99636   99637   97909   97908   99640   99641+
+          97911   97910
CHEXA      81279       1   99640   99641   97911   97910   99644   99645+
+          97913   97912
CHEXA      81280       1   99644   99645   97913   97912   99648   99649+
+          97915   97914
CHEXA      81281       1   99648   99649   97915   97914   99652   99653+
+          97917   97916
CHEXA      81282       1   99652   99653   97917   97916   99656   99657+
+          97919   97918
CHEXA      81283       1   99656   99657   97919   97918   99660   99661+
+          97921   97920
CHEXA      81284       1   99660   99661   97921   97920   99664   99665+
+          97923   97922
CHEXA      81285       1   99664   99665   97923   97922   99668   99669+
+          97925   97924
CHEXA      81286       1   99668   99669   97925   97924   99672   99673+
+          97927   97926
CHEXA      81287       1   99672   99673   97927   97926   99676   99677+
+          97929   97928
CHEXA      81288       1   99676   99677   97929   97928   99680   99681+
+          97931   97930
CHEXA      81289       1   99680   99681   97931   97930   99684   99685+
+          97933   97932
CHEXA      81290       1   99684   99685   97933   97932   99688   99689+
+          97935   97934
CHEXA      81291       1   99688   99689   97935   97934   99692   99693+
+          97937   97936
CHEXA      81292       1   99692   99693   97937   97936   99696   99697+
+          97939   97938
CHEXA      81293       1   99696   99697   97939   97938   99700   99701+
+          97941   97940
CHEXA      81294       1   99700   99701   97941   97940   99704   99705+
+          97943   97942
CHEXA      81295       1   99704   99705   97943   97942   99708   99709+
+          97945   97944
CHEXA      81296       1   99708   99709   97945   97944   99712   99713+
+          97947   97946
CHEXA      81297       1   99712   99713   97947   97946   99716   99717+
+          97949   97948
CHEXA      81298       1   99716   99717   97949   97948   99720   99721+
+          97951   97950
CHEXA      81299       1   99720   99721   97951   97950   99724   99725+
+          97953   97952
CHEXA      81300       1   99724   99725   97953   97952   99728   99729+
+          97955   97954
CHEXA      81301       1   99728   99729   97955   97954   99732   99733+
+          97957   97956
CHEXA      81302       1   99732   99733   97957   97956   99736   99737+
+          97959   97958
CHEXA      81303       1   99736   99737   97959   97958   99740   99741+
+          97961   97960
CHEXA      81304       1   99740   99741   97961   97960   99744   99745+
+          97963   97962
CHEXA      81305       1   99744   99745   97963   97962   99748   99749+
+          97965   97964
CHEXA      81306       1   99748   99749   97965   97964   99752   99753+
+          97967   97966
CHEXA      81307       1   99752   99753   97967   97966   99756   99757+
+          97969   97968
CHEXA      81308       1   99756   99757   97969   97968   99760   99761+
+          97971   97970
CHEXA      81309       1   99760   99761   97971   97970   99764   99765+
+          97973   97972
CHEXA      81310       1   99764   99765   97973   97972   99768   99769+
+          97975   97974
CHEXA      81311       1   99768   99769   97975   97974   99772   99773+
+          97977   97976
CHEXA      81312       1   99772   99773   97977   97976   99776   99777+
+          97979   97978
CHEXA      81313       1   99776   99777   97979   97978   99780   99781+
+          97981   97980
CHEXA      81314       1   99780   99781   97981   97980   99784   99785+
+          97983   97982
CHEXA      81315       1   99784   99785   97983   97982   99788   99789+
+          97985   97984
CHEXA      81316       1   99788   99789   97985   97984   99792   99793+
+          97987   97986
CHEXA      81317       1   99792   99793   97987   97986   99796   99797+
+          97989   97988
CHEXA      81318       1   99796   99797   97989   97988   99800   99801+
+          97991   97990
CHEXA      81319       1   99800   99801   97991   97990   99804   99805+
+          97993   97992
CHEXA      81320       1   99804   99805   97993   97992   99808   99809+
+          97995   97994
CHEXA      81321       1   99808   99809   97995   97994   99812   99813+
+          97997   97996
CHEXA      81322       1   99812   99813   97997   97996   99816   99817+
+          97999   97998
CHEXA      81323       1   99816   99817   97999   97998   99820   99821+
+          98001   98000
CHEXA      81324       1   99820   99821   98001   98000   99824   99825+
+          98003   98002
CHEXA      81325       1   99824   99825   98003   98002   99828   99829+
+          98005   98004
CHEXA      81326       1   99828   99829   98005   98004   99832   99833+
+          98007   98006
CHEXA      81327       1   99832   99833   98007   98006   99836   99837+
+          98009   98008
CHEXA      81328       1   99836   99837   98009   98008   99840   99841+
+          98011   98010
CHEXA      81329       1   99840   99841   98011   98010   99844   99845+
+          98013   98012
CHEXA      81330       1   99844   99845   98013   98012   99848   99849+
+          98015   98014
CHEXA      81331       1   99848   99849   98015   98014   99852   99853+
+          98017   98016
CHEXA      81332       1   99852   99853   98017   98016   99856   99857+
+          98019   98018
CHEXA      81333       1   99856   99857   98019   98018   99860   99861+
+          98021   98020
CHEXA      81334       1   99860   99861   98021   98020   99864   99865+
+          98023   98022
CHEXA      81335       1   99864   99865   98023   98022   99868   99869+
+          98025   98024
CHEXA      81336       1   99868   99869   98025   98024   99872   99873+
+          98027   98026
CHEXA      81337       1   99872   99873   98027   98026   99876   99877+
+          98029   98028
CHEXA      81338       1   99876   99877   98029   98028   99880   99881+
+          98031   98030
CHEXA      81339       1   99880   99881   98031   98030   99884   99885+
+          98033   98032
CHEXA      81340       1   99884   99885   98033   98032   99888   99889+
+          98035   98034
CHEXA      81341       1   99888   99889   98035   98034   99892   99893+
+          98037   98036
CHEXA      81342       1   99892   99893   98037   98036   99896   99897+
+          98039   98038
CHEXA      81343       1   99896   99897   98039   98038   99900   99901+
+          98041   98040
CHEXA      81344       1   99900   99901   98041   98040   99904   99905+
+          98043   98042
CHEXA      81345       1   99904   99905   98043   98042   99908   99909+
+          98045   98044
CHEXA      81346       1   99908   99909   98045   98044   99912   99913+
+          98047   98046
CHEXA      81347       1   99912   99913   98047   98046   99916   99917+
+          98049   98048
CHEXA      81348       1   99916   99917   98049   98048   99920   99921+
+          98051   98050
CHEXA      81349       1   99920   99921   98051   98050   99924   99925+
+          98053   98052
CHEXA      81350       1   99924   99925   98053   98052   99928   99929+
+          98055   98054
CHEXA      81351       1   99928   99929   98055   98054   99932   99933+
+          98057   98056
CHEXA      81352       1   99932   99933   98057   98056   99936   99937+
+          98059   98058
CHEXA      81353       1   99936   99937   98059   98058   99940   99941+
+          98061   98060
CHEXA      81354       1   99940   99941   98061   98060   99944   99945+
+          98063   98062
CHEXA      81355       1   99944   99945   98063   98062   99948   99949+
+          98065   98064
CHEXA      81356       1   99948   99949   98065   98064   99952   99953+
+          98067   98066
CHEXA      81357       1   99952   99953   98067   98066   99956   99957+
+          98069   98068
CHEXA      81358       1   99956   99957   98069   98068   99960   99961+
+          98071   98070
CHEXA      81359       1   99960   99961   98071   98070   99964   99965+
+          98073   98072
CHEXA      81360       1   99964   99965   98073   98072   99968   99969+
+          98075   98074
CHEXA      81361       1   99968   99969   98075   98074   99972   99973+
+          98077   98076
CHEXA      81362       1   99972   99973   98077   98076   99976   99977+
+          98079   98078
CHEXA      81363       1   99976   99977   98079   98078   99980   99981+
+          98081   98080
CHEXA      81364       1   99980   99981   98081   98080   99984   99985+
+          98083   98082
CHEXA      81365       1   99984   99985   98083   98082   99988   99989+
+          98085   98084
CHEXA      81366       1   99988   99989   98085   98084   99992   99993+
+          98087   98086
CHEXA      81367       1   99992   99993   98087   98086   99996   99997+
+          98089   98088
CHEXA      81368       1   99996   99997   98089   98088  100000  100001+
+          98091   98090
CHEXA      81369       1  100000  100001   98091   98090  100004  100005+
+          98093   98092
CHEXA      81370       1  100004  100005   98093   98092  100008  100009+
+          98095   98094
CHEXA      81371       1  100008  100009   98095   98094  100012  100013+
+          98097   98096
CHEXA      81372       1  100012  100013   98097   98096  100016  100017+
+          98099   98098
CHEXA      81373       1  100016  100017   98099   98098  100020  100021+
+          98101   98100
CHEXA      81374       1  100020  100021   98101   98100  100024  100025+
+          98103   98102
CHEXA      81375       1  100024  100025   98103   98102  100028  100029+
+          98105   98104
CHEXA      81376       1  100028  100029   98105   98104  100032  100033+
+          98107   98106
CHEXA      81377       1  100032  100033   98107   98106  100036  100037+
+          98109   98108
CHEXA      81378       1  100036  100037   98109   98108  100040  100041+
+          98111   98110
CHEXA      81379       1  100040  100041   98111   98110  100044  100045+
+          98113   98112
CHEXA      81380       1  100044  100045   98113   98112  100048  100049+
+          98115   98114
CHEXA      81381       1  100048  100049   98115   98114  100052  100053+
+          98117   98116
CHEXA      81382       1  100052  100053   98117   98116  100056  100057+
+          98119   98118
CHEXA      81383       1  100056  100057   98119   98118  100060  100061+
+          98121   98120
CHEXA      81384       1  100060  100061   98121   98120  100064  100065+
+          98123   98122
CHEXA      81385       1  100064  100065   98123   98122  100068  100069+
+          98125   98124
CHEXA      81386       1  100068  100069   98125   98124  100072  100073+
+          98127   98126
CHEXA      81387       1  100072  100073   98127   98126  100076  100077+
+          98129   98128
CHEXA      81388       1  100076  100077   98129   98128  100080  100081+
+          98131   98130
CHEXA      81389       1  100080  100081   98131   98130  100084  100085+
+          98133   98132
CHEXA      81390       1  100084  100085   98133   98132  100088  100089+
+          98135   98134
CHEXA      81391       1  100088  100089   98135   98134  100092  100093+
+          98137   98136
CHEXA      81392       1  100092  100093   98137   98136  100096  100097+
+          98139   98138
CHEXA      81393       1  100096  100097   98139   98138  100100  100101+
+          98141   98140
CHEXA      81394       1  100100  100101   98141   98140  100104  100105+
+          98143   98142
CHEXA      81395       1  100104  100105   98143   98142  100108  100109+
+          98145   98144
CHEXA      81396       1  100108  100109   98145   98144  100112  100113+
+          98147   98146
CHEXA      81397       1  100112  100113   98147   98146  100116  100117+
+          98149   98148
CHEXA      81398       1  100116  100117   98149   98148  100120  100121+
+          98151   98150
CHEXA      81399       1  100120  100121   98151   98150  100124  100125+
+          98153   98152
CHEXA      81400       1  100124  100125   98153   98152  100128  100129+
+          98155   98154
CHEXA      81401       1  100128  100129   98155   98154  100132  100133+
+          98157   98156
CHEXA      81402       1  100132  100133   98157   98156  100136  100137+
+          98159   98158
CHEXA      81403       1  100136  100137   98159   98158  100140  100141+
+          98161   98160
CHEXA      81404       1  100140  100141   98161   98160  100144  100145+
+          98163   98162
CHEXA      81405       1  100144  100145   98163   98162  100148  100149+
+          98165   98164
CHEXA      81406       1  100148  100149   98165   98164  100152  100153+
+          98167   98166
CHEXA      81407       1  100152  100153   98167   98166  100156  100157+
+          98169   98168
CHEXA      81408       1  100156  100157   98169   98168  100160  100161+
+          98171   98170
CHEXA      81409       1  100160  100161   98171   98170   97772   97773+
+          96966   96967
CHEXA      81410       1   96949   96923   96939   96959   98571   99368+
+          97774   97173
CHEXA      81411       1   98571   99368   97774   97173   98573   99372+
+          97776   97174
CHEXA      81412       1   98573   99372   97776   97174   98575   99376+
+          97778   97175
CHEXA      81413       1   98575   99376   97778   97175   98577   99380+
+          97780   97176
CHEXA      81414       1   98577   99380   97780   97176   98579   99384+
+          97782   97177
CHEXA      81415       1   98579   99384   97782   97177   98581   99388+
+          97784   97178
CHEXA      81416       1   98581   99388   97784   97178   98583   99392+
+          97786   97179
CHEXA      81417       1   98583   99392   97786   97179   98585   99396+
+          97788   97180
CHEXA      81418       1   98585   99396   97788   97180   98587   99400+
+          97790   97181
CHEXA      81419       1   98587   99400   97790   97181   98589   99404+
+          97792   97182
CHEXA      81420       1   98589   99404   97792   97182   98591   99408+
+          97794   97183
CHEXA      81421       1   98591   99408   97794   97183   98593   99412+
+          97796   97184
CHEXA      81422       1   98593   99412   97796   97184   98595   99416+
+          97798   97185
CHEXA      81423       1   98595   99416   97798   97185   98597   99420+
+          97800   97186
CHEXA      81424       1   98597   99420   97800   97186   98599   99424+
+          97802   97187
CHEXA      81425       1   98599   99424   97802   97187   98601   99428+
+          97804   97188
CHEXA      81426       1   98601   99428   97804   97188   98603   99432+
+          97806   97189
CHEXA      81427       1   98603   99432   97806   97189   98605   99436+
+          97808   97190
CHEXA      81428       1   98605   99436   97808   97190   98607   99440+
+          97810   97191
CHEXA      81429       1   98607   99440   97810   97191   98609   99444+
+          97812   97192
CHEXA      81430       1   98609   99444   97812   97192   98611   99448+
+          97814   97193
CHEXA      81431       1   98611   99448   97814   97193   98613   99452+
+          97816   97194
CHEXA      81432       1   98613   99452   97816   97194   98615   99456+
+          97818   97195
CHEXA      81433       1   98615   99456   97818   97195   98617   99460+
+          97820   97196
CHEXA      81434       1   98617   99460   97820   97196   98619   99464+
+          97822   97197
CHEXA      81435       1   98619   99464   97822   97197   98621   99468+
+          97824   97198
CHEXA      81436       1   98621   99468   97824   97198   98623   99472+
+          97826   97199
CHEXA      81437       1   98623   99472   97826   97199   98625   99476+
+          97828   97200
CHEXA      81438       1   98625   99476   97828   97200   98627   99480+
+          97830   97201
CHEXA      81439       1   98627   99480   97830   97201   98629   99484+
+          97832   97202
CHEXA      81440       1   98629   99484   97832   97202   98631   99488+
+          97834   97203
CHEXA      81441       1   98631   99488   97834   97203   98633   99492+
+          97836   97204
CHEXA      81442       1   98633   99492   97836   97204   98635   99496+
+          97838   97205
CHEXA      81443       1   98635   99496   97838   97205   98637   99500+
+          97840   97206
CHEXA      81444       1   98637   99500   97840   97206   98639   99504+
+          97842   97207
CHEXA      81445       1   98639   99504   97842   97207   98641   99508+
+          97844   97208
CHEXA      81446       1   98641   99508   97844   97208   98643   99512+
+          97846   97209
CHEXA      81447       1   98643   99512   97846   97209   98645   99516+
+          97848   97210
CHEXA      81448       1   98645   99516   97848   97210   98647   99520+
+          97850   97211
CHEXA      81449       1   98647   99520   97850   97211   98649   99524+
+          97852   97212
CHEXA      81450       1   98649   99524   97852   97212   98651   99528+
+          97854   97213
CHEXA      81451       1   98651   99528   97854   97213   98653   99532+
+          97856   97214
CHEXA      81452       1   98653   99532   97856   97214   98655   99536+
+          97858   97215
CHEXA      81453       1   98655   99536   97858   97215   98657   99540+
+          97860   97216
CHEXA      81454       1   98657   99540   97860   97216   98659   99544+
+          97862   97217
CHEXA      81455       1   98659   99544   97862   97217   98661   99548+
+          97864   97218
CHEXA      81456       1   98661   99548   97864   97218   98663   99552+
+          97866   97219
CHEXA      81457       1   98663   99552   97866   97219   98665   99556+
+          97868   97220
CHEXA      81458       1   98665   99556   97868   97220   98667   99560+
+          97870   97221
CHEXA      81459       1   98667   99560   97870   97221   98669   99564+
+          97872   97222
CHEXA      81460       1   98669   99564   97872   97222   98671   99568+
+          97874   97223
CHEXA      81461       1   98671   99568   97874   97223   98673   99572+
+          97876   97224
CHEXA      81462       1   98673   99572   97876   97224   98675   99576+
+          97878   97225
CHEXA      81463       1   98675   99576   97878   97225   98677   99580+
+          97880   97226
CHEXA      81464       1   98677   99580   97880   97226   98679   99584+
+          97882   97227
CHEXA      81465       1   98679   99584   97882   97227   98681   99588+
+          97884   97228
CHEXA      81466       1   98681   99588   97884   97228   98683   99592+
+          97886   97229
CHEXA      81467       1   98683   99592   97886   97229   98685   99596+
+          97888   97230
CHEXA      81468       1   98685   99596   97888   97230   98687   99600+
+          97890   97231
CHEXA      81469       1   98687   99600   97890   97231   98689   99604+
+          97892   97232
CHEXA      81470       1   98689   99604   97892   97232   98691   99608+
+          97894   97233
CHEXA      81471       1   98691   99608   97894   97233   98693   99612+
+          97896   97234
CHEXA      81472       1   98693   99612   97896   97234   98695   99616+
+          97898   97235
CHEXA      81473       1   98695   99616   97898   97235   98697   99620+
+          97900   97236
CHEXA      81474       1   98697   99620   97900   97236   98699   99624+
+          97902   97237
CHEXA      81475       1   98699   99624   97902   97237   98701   99628+
+          97904   97238
CHEXA      81476       1   98701   99628   97904   97238   98703   99632+
+          97906   97239
CHEXA      81477       1   98703   99632   97906   97239   98705   99636+
+          97908   97240
CHEXA      81478       1   98705   99636   97908   97240   98707   99640+
+          97910   97241
CHEXA      81479       1   98707   99640   97910   97241   98709   99644+
+          97912   97242
CHEXA      81480       1   98709   99644   97912   97242   98711   99648+
+          97914   97243
CHEXA      81481       1   98711   99648   97914   97243   98713   99652+
+          97916   97244
CHEXA      81482       1   98713   99652   97916   97244   98715   99656+
+          97918   97245
CHEXA      81483       1   98715   99656   97918   97245   98717   99660+
+          97920   97246
CHEXA      81484       1   98717   99660   97920   97246   98719   99664+
+          97922   97247
CHEXA      81485       1   98719   99664   97922   97247   98721   99668+
+          97924   97248
CHEXA      81486       1   98721   99668   97924   97248   98723   99672+
+          97926   97249
CHEXA      81487       1   98723   99672   97926   97249   98725   99676+
+          97928   97250
CHEXA      81488       1   98725   99676   97928   97250   98727   99680+
+          97930   97251
CHEXA      81489       1   98727   99680   97930   97251   98729   99684+
+          97932   97252
CHEXA      81490       1   98729   99684   97932   97252   98731   99688+
+          97934   97253
CHEXA      81491       1   98731   99688   97934   97253   98733   99692+
+          97936   97254
CHEXA      81492       1   98733   99692   97936   97254   98735   99696+
+          97938   97255
CHEXA      81493       1   98735   99696   97938   97255   98737   99700+
+          97940   97256
CHEXA      81494       1   98737   99700   97940   97256   98739   99704+
+          97942   97257
CHEXA      81495       1   98739   99704   97942   97257   98741   99708+
+          97944   97258
CHEXA      81496       1   98741   99708   97944   97258   98743   99712+
+          97946   97259
CHEXA      81497       1   98743   99712   97946   97259   98745   99716+
+          97948   97260
CHEXA      81498       1   98745   99716   97948   97260   98747   99720+
+          97950   97261
CHEXA      81499       1   98747   99720   97950   97261   98749   99724+
+          97952   97262
CHEXA      81500       1   98749   99724   97952   97262   98751   99728+
+          97954   97263
CHEXA      81501       1   98751   99728   97954   97263   98753   99732+
+          97956   97264
CHEXA      81502       1   98753   99732   97956   97264   98755   99736+
+          97958   97265
CHEXA      81503       1   98755   99736   97958   97265   98757   99740+
+          97960   97266
CHEXA      81504       1   98757   99740   97960   97266   98759   99744+
+          97962   97267
CHEXA      81505       1   98759   99744   97962   97267   98761   99748+
+          97964   97268
CHEXA      81506       1   98761   99748   97964   97268   98763   99752+
+          97966   97269
CHEXA      81507       1   98763   99752   97966   97269   98765   99756+
+          97968   97270
CHEXA      81508       1   98765   99756   97968   97270   98767   99760+
+          97970   97271
CHEXA      81509       1   98767   99760   97970   97271   98769   99764+
+          97972   97272
CHEXA      81510       1   98769   99764   97972   97272   98771   99768+
+          97974   97273
CHEXA      81511       1   98771   99768   97974   97273   98773   99772+
+          97976   97274
CHEXA      81512       1   98773   99772   97976   97274   98775   99776+
+          97978   97275
CHEXA      81513       1   98775   99776   97978   97275   98777   99780+
+          97980   97276
CHEXA      81514       1   98777   99780   97980   97276   98779   99784+
+          97982   97277
CHEXA      81515       1   98779   99784   97982   97277   98781   99788+
+          97984   97278
CHEXA      81516       1   98781   99788   97984   97278   98783   99792+
+          97986   97279
CHEXA      81517       1   98783   99792   97986   97279   98785   99796+
+          97988   97280
CHEXA      81518       1   98785   99796   97988   97280   98787   99800+
+          97990   97281
CHEXA      81519       1   98787   99800   97990   97281   98789   99804+
+          97992   97282
CHEXA      81520       1   98789   99804   97992   97282   98791   99808+
+          97994   97283
CHEXA      81521       1   98791   99808   97994   97283   98793   99812+
+          97996   97284
CHEXA      81522       1   98793   99812   97996   97284   98795   99816+
+          97998   97285
CHEXA      81523       1   98795   99816   97998   97285   98797   99820+
+          98000   97286
CHEXA      81524       1   98797   99820   98000   97286   98799   99824+
+          98002   97287
CHEXA      81525       1   98799   99824   98002   97287   98801   99828+
+          98004   97288
CHEXA      81526       1   98801   99828   98004   97288   98803   99832+
+          98006   97289
CHEXA      81527       1   98803   99832   98006   97289   98805   99836+
+          98008   97290
CHEXA      81528       1   98805   99836   98008   97290   98807   99840+
+          98010   97291
CHEXA      81529       1   98807   99840   98010   97291   98809   99844+
+          98012   97292
CHEXA      81530       1   98809   99844   98012   97292   98811   99848+
+          98014   97293
CHEXA      81531       1   98811   99848   98014   97293   98813   99852+
+          98016   97294
CHEXA      81532       1   98813   99852   98016   97294   98815   99856+
+          98018   97295
CHEXA      81533       1   98815   99856   98018   97295   98817   99860+
+          98020   97296
CHEXA      81534       1   98817   99860   98020   97296   98819   99864+
+          98022   97297
CHEXA      81535       1   98819   99864   98022   97297   98821   99868+
+          98024   97298
CHEXA      81536       1   98821   99868   98024   97298   98823   99872+
+          98026   97299
CHEXA      81537       1   98823   99872   98026   97299   98825   99876+
+          98028   97300
CHEXA      81538       1   98825   99876   98028   97300   98827   99880+
+          98030   97301
CHEXA      81539       1   98827   99880   98030   97301   98829   99884+
+          98032   97302
CHEXA      81540       1   98829   99884   98032   97302   98831   99888+
+          98034   97303
CHEXA      81541       1   98831   99888   98034   97303   98833   99892+
+          98036   97304
CHEXA      81542       1   98833   99892   98036   97304   98835   99896+
+          98038   97305
CHEXA      81543       1   98835   99896   98038   97305   98837   99900+
+          98040   97306
CHEXA      81544       1   98837   99900   98040   97306   98839   99904+
+          98042   97307
CHEXA      81545       1   98839   99904   98042   97307   98841   99908+
+          98044   97308
CHEXA      81546       1   98841   99908   98044   97308   98843   99912+
+          98046   97309
CHEXA      81547       1   98843   99912   98046   97309   98845   99916+
+          98048   97310
CHEXA      81548       1   98845   99916   98048   97310   98847   99920+
+          98050   97311
CHEXA      81549       1   98847   99920   98050   97311   98849   99924+
+          98052   97312
CHEXA      81550       1   98849   99924   98052   97312   98851   99928+
+          98054   97313
CHEXA      81551       1   98851   99928   98054   97313   98853   99932+
+          98056   97314
CHEXA      81552       1   98853   99932   98056   97314   98855   99936+
+          98058   97315
CHEXA      81553       1   98855   99936   98058   97315   98857   99940+
+          98060   97316
CHEXA      81554       1   98857   99940   98060   97316   98859   99944+
+          98062   97317
CHEXA      81555       1   98859   99944   98062   97317   98861   99948+
+          98064   97318
CHEXA      81556       1   98861   99948   98064   97318   98863   99952+
+          98066   97319
CHEXA      81557       1   98863   99952   98066   97319   98865   99956+
+          98068   97320
CHEXA      81558       1   98865   99956   98068   97320   98867   99960+
+          98070   97321
CHEXA      81559       1   98867   99960   98070   97321   98869   99964+
+          98072   97322
CHEXA      81560       1   98869   99964   98072   97322   98871   99968+
+          98074   97323
CHEXA      81561       1   98871   99968   98074   97323   98873   99972+
+          98076   97324
CHEXA      81562       1   98873   99972   98076   97324   98875   99976+
+          98078   97325
CHEXA      81563       1   98875   99976   98078   97325   98877   99980+
+          98080   97326
CHEXA      81564       1   98877   99980   98080   97326   98879   99984+
+          98082   97327
CHEXA      81565       1   98879   99984   98082   97327   98881   99988+
+          98084   97328
CHEXA      81566       1   98881   99988   98084   97328   98883   99992+
+          98086   97329
CHEXA      81567       1   98883   99992   98086   97329   98885   99996+
+          98088   97330
CHEXA      81568       1   98885   99996   98088   97330   98887  100000+
+          98090   97331
CHEXA      81569       1   98887  100000   98090   97331   98889  100004+
+          98092   97332
CHEXA      81570       1   98889  100004   98092   97332   98891  100008+
+          98094   97333
CHEXA      81571       1   98891  100008   98094   97333   98893  100012+
+          98096   97334
CHEXA      81572       1   98893  100012   98096   97334   98895  100016+
+          98098   97335
CHEXA      81573       1   98895  100016   98098   97335   98897  100020+
+          98100   97336
CHEXA      81574       1   98897  100020   98100   97336   98899  100024+
+          98102   97337
CHEXA      81575       1   98899  100024   98102   97337   98901  100028+
+          98104   97338
CHEXA      81576       1   98901  100028   98104   97338   98903  100032+
+          98106   97339
CHEXA      81577       1   98903  100032   98106   97339   98905  100036+
+          98108   97340
CHEXA      81578       1   98905  100036   98108   97340   98907  100040+
+          98110   97341
CHEXA      81579       1   98907  100040   98110   97341   98909  100044+
+          98112   97342
CHEXA      81580       1   98909  100044   98112   97342   98911  100048+
+          98114   97343
CHEXA      81581       1   98911  100048   98114   97343   98913  100052+
+          98116   97344
CHEXA      81582       1   98913  100052   98116   97344   98915  100056+
+          98118   97345
CHEXA      81583       1   98915  100056   98118   97345   98917  100060+
+          98120   97346
CHEXA      81584       1   98917  100060   98120   97346   98919  100064+
+          98122   97347
CHEXA      81585       1   98919  100064   98122   97347   98921  100068+
+          98124   97348
CHEXA      81586       1   98921  100068   98124   97348   98923  100072+
+          98126   97349
CHEXA      81587       1   98923  100072   98126   97349   98925  100076+
+          98128   97350
CHEXA      81588       1   98925  100076   98128   97350   98927  100080+
+          98130   97351
CHEXA      81589       1   98927  100080   98130   97351   98929  100084+
+          98132   97352
CHEXA      81590       1   98929  100084   98132   97352   98931  100088+
+          98134   97353
CHEXA      81591       1   98931  100088   98134   97353   98933  100092+
+          98136   97354
CHEXA      81592       1   98933  100092   98136   97354   98935  100096+
+          98138   97355
CHEXA      81593       1   98935  100096   98138   97355   98937  100100+
+          98140   97356
CHEXA      81594       1   98937  100100   98140   97356   98939  100104+
+          98142   97357
CHEXA      81595       1   98939  100104   98142   97357   98941  100108+
+          98144   97358
CHEXA      81596       1   98941  100108   98144   97358   98943  100112+
+          98146   97359
CHEXA      81597       1   98943  100112   98146   97359   98945  100116+
+          98148   97360
CHEXA      81598       1   98945  100116   98148   97360   98947  100120+
+          98150   97361
CHEXA      81599       1   98947  100120   98150   97361   98949  100124+
+          98152   97362
CHEXA      81600       1   98949  100124   98152   97362   98951  100128+
+          98154   97363
CHEXA      81601       1   98951  100128   98154   97363   98953  100132+
+          98156   97364
CHEXA      81602       1   98953  100132   98156   97364   98955  100136+
+          98158   97365
CHEXA      81603       1   98955  100136   98158   97365   98957  100140+
+          98160   97366
CHEXA      81604       1   98957  100140   98160   97366   98959  100144+
+          98162   97367
CHEXA      81605       1   98959  100144   98162   97367   98961  100148+
+          98164   97368
CHEXA      81606       1   98961  100148   98164   97368   98963  100152+
+          98166   97369
CHEXA      81607       1   98963  100152   98166   97369   98965  100156+
+          98168   97370
CHEXA      81608       1   98965  100156   98168   97370   98967  100160+
+          98170   97371
CHEXA      81609       1   98967  100160   98170   97371   96970   97772+
+          96967   96963
CHEXA      81610       1   96948   96922   96923   96949   98570   99367+
+          99368   98571
CHEXA      81611       1   98570   99367   99368   98571   98572   99371+
+          99372   98573
CHEXA      81612       1   98572   99371   99372   98573   98574   99375+
+          99376   98575
CHEXA      81613       1   98574   99375   99376   98575   98576   99379+
+          99380   98577
CHEXA      81614       1   98576   99379   99380   98577   98578   99383+
+          99384   98579
CHEXA      81615       1   98578   99383   99384   98579   98580   99387+
+          99388   98581
CHEXA      81616       1   98580   99387   99388   98581   98582   99391+
+          99392   98583
CHEXA      81617       1   98582   99391   99392   98583   98584   99395+
+          99396   98585
CHEXA      81618       1   98584   99395   99396   98585   98586   99399+
+          99400   98587
CHEXA      81619       1   98586   99399   99400   98587   98588   99403+
+          99404   98589
CHEXA      81620       1   98588   99403   99404   98589   98590   99407+
+          99408   98591
CHEXA      81621       1   98590   99407   99408   98591   98592   99411+
+          99412   98593
CHEXA      81622       1   98592   99411   99412   98593   98594   99415+
+          99416   98595
CHEXA      81623       1   98594   99415   99416   98595   98596   99419+
+          99420   98597
CHEXA      81624       1   98596   99419   99420   98597   98598   99423+
+          99424   98599
CHEXA      81625       1   98598   99423   99424   98599   98600   99427+
+          99428   98601
CHEXA      81626       1   98600   99427   99428   98601   98602   99431+
+          99432   98603
CHEXA      81627       1   98602   99431   99432   98603   98604   99435+
+          99436   98605
CHEXA      81628       1   98604   99435   99436   98605   98606   99439+
+          99440   98607
CHEXA      81629       1   98606   99439   99440   98607   98608   99443+
+          99444   98609
CHEXA      81630       1   98608   99443   99444   98609   98610   99447+
+          99448   98611
CHEXA      81631       1   98610   99447   99448   98611   98612   99451+
+          99452   98613
CHEXA      81632       1   98612   99451   99452   98613   98614   99455+
+          99456   98615
CHEXA      81633       1   98614   99455   99456   98615   98616   99459+
+          99460   98617
CHEXA      81634       1   98616   99459   99460   98617   98618   99463+
+          99464   98619
CHEXA      81635       1   98618   99463   99464   98619   98620   99467+
+          99468   98621
CHEXA      81636       1   98620   99467   99468   98621   98622   99471+
+          99472   98623
CHEXA      81637       1   98622   99471   99472   98623   98624   99475+
+          99476   98625
CHEXA      81638       1   98624   99475   99476   98625   98626   99479+
+          99480   98627
CHEXA      81639       1   98626   99479   99480   98627   98628   99483+
+          99484   98629
CHEXA      81640       1   98628   99483   99484   98629   98630   99487+
+          99488   98631
CHEXA      81641       1   98630   99487   99488   98631   98632   99491+
+          99492   98633
CHEXA      81642       1   98632   99491   99492   98633   98634   99495+
+          99496   98635
CHEXA      81643       1   98634   99495   99496   98635   98636   99499+
+          99500   98637
CHEXA      81644       1   98636   99499   99500   98637   98638   99503+
+          99504   98639
CHEXA      81645       1   98638   99503   99504   98639   98640   99507+
+          99508   98641
CHEXA      81646       1   98640   99507   99508   98641   98642   99511+
+          99512   98643
CHEXA      81647       1   98642   99511   99512   98643   98644   99515+
+          99516   98645
CHEXA      81648       1   98644   99515   99516   98645   98646   99519+
+          99520   98647
CHEXA      81649       1   98646   99519   99520   98647   98648   99523+
+          99524   98649
CHEXA      81650       1   98648   99523   99524   98649   98650   99527+
+          99528   98651
CHEXA      81651       1   98650   99527   99528   98651   98652   99531+
+          99532   98653
CHEXA      81652       1   98652   99531   99532   98653   98654   99535+
+          99536   98655
CHEXA      81653       1   98654   99535   99536   98655   98656   99539+
+          99540   98657
CHEXA      81654       1   98656   99539   99540   98657   98658   99543+
+          99544   98659
CHEXA      81655       1   98658   99543   99544   98659   98660   99547+
+          99548   98661
CHEXA      81656       1   98660   99547   99548   98661   98662   99551+
+          99552   98663
CHEXA      81657       1   98662   99551   99552   98663   98664   99555+
+          99556   98665
CHEXA      81658       1   98664   99555   99556   98665   98666   99559+
+          99560   98667
CHEXA      81659       1   98666   99559   99560   98667   98668   99563+
+          99564   98669
CHEXA      81660       1   98668   99563   99564   98669   98670   99567+
+          99568   98671
CHEXA      81661       1   98670   99567   99568   98671   98672   99571+
+          99572   98673
CHEXA      81662       1   98672   99571   99572   98673   98674   99575+
+          99576   98675
CHEXA      81663       1   98674   99575   99576   98675   98676   99579+
+          99580   98677
CHEXA      81664       1   98676   99579   99580   98677   98678   99583+
+          99584   98679
CHEXA      81665       1   98678   99583   99584   98679   98680   99587+
+          99588   98681
CHEXA      81666       1   98680   99587   99588   98681   98682   99591+
+          99592   98683
CHEXA      81667       1   98682   99591   99592   98683   98684   99595+
+          99596   98685
CHEXA      81668       1   98684   99595   99596   98685   98686   99599+
+          99600   98687
CHEXA      81669       1   98686   99599   99600   98687   98688   99603+
+          99604   98689
CHEXA      81670       1   98688   99603   99604   98689   98690   99607+
+          99608   98691
CHEXA      81671       1   98690   99607   99608   98691   98692   99611+
+          99612   98693
CHEXA      81672       1   98692   99611   99612   98693   98694   99615+
+          99616   98695
CHEXA      81673       1   98694   99615   99616   98695   98696   99619+
+          99620   98697
CHEXA      81674       1   98696   99619   99620   98697   98698   99623+
+          99624   98699
CHEXA      81675       1   98698   99623   99624   98699   98700   99627+
+          99628   98701
CHEXA      81676       1   98700   99627   99628   98701   98702   99631+
+          99632   98703
CHEXA      81677       1   98702   99631   99632   98703   98704   99635+
+          99636   98705
CHEXA      81678       1   98704   99635   99636   98705   98706   99639+
+          99640   98707
CHEXA      81679       1   98706   99639   99640   98707   98708   99643+
+          99644   98709
CHEXA      81680       1   98708   99643   99644   98709   98710   99647+
+          99648   98711
CHEXA      81681       1   98710   99647   99648   98711   98712   99651+
+          99652   98713
CHEXA      81682       1   98712   99651   99652   98713   98714   99655+
+          99656   98715
CHEXA      81683       1   98714   99655   99656   98715   98716   99659+
+          99660   98717
CHEXA      81684       1   98716   99659   99660   98717   98718   99663+
+          99664   98719
CHEXA      81685       1   98718   99663   99664   98719   98720   99667+
+          99668   98721
CHEXA      81686       1   98720   99667   99668   98721   98722   99671+
+          99672   98723
CHEXA      81687       1   98722   99671   99672   98723   98724   99675+
+          99676   98725
CHEXA      81688       1   98724   99675   99676   98725   98726   99679+
+          99680   98727
CHEXA      81689       1   98726   99679   99680   98727   98728   99683+
+          99684   98729
CHEXA      81690       1   98728   99683   99684   98729   98730   99687+
+          99688   98731
CHEXA      81691       1   98730   99687   99688   98731   98732   99691+
+          99692   98733
CHEXA      81692       1   98732   99691   99692   98733   98734   99695+
+          99696   98735
CHEXA      81693       1   98734   99695   99696   98735   98736   99699+
+          99700   98737
CHEXA      81694       1   98736   99699   99700   98737   98738   99703+
+          99704   98739
CHEXA      81695       1   98738   99703   99704   98739   98740   99707+
+          99708   98741
CHEXA      81696       1   98740   99707   99708   98741   98742   99711+
+          99712   98743
CHEXA      81697       1   98742   99711   99712   98743   98744   99715+
+          99716   98745
CHEXA      81698       1   98744   99715   99716   98745   98746   99719+
+          99720   98747
CHEXA      81699       1   98746   99719   99720   98747   98748   99723+
+          99724   98749
CHEXA      81700       1   98748   99723   99724   98749   98750   99727+
+          99728   98751
CHEXA      81701       1   98750   99727   99728   98751   98752   99731+
+          99732   98753
CHEXA      81702       1   98752   99731   99732   98753   98754   99735+
+          99736   98755
CHEXA      81703       1   98754   99735   99736   98755   98756   99739+
+          99740   98757
CHEXA      81704       1   98756   99739   99740   98757   98758   99743+
+          99744   98759
CHEXA      81705       1   98758   99743   99744   98759   98760   99747+
+          99748   98761
CHEXA      81706       1   98760   99747   99748   98761   98762   99751+
+          99752   98763
CHEXA      81707       1   98762   99751   99752   98763   98764   99755+
+          99756   98765
CHEXA      81708       1   98764   99755   99756   98765   98766   99759+
+          99760   98767
CHEXA      81709       1   98766   99759   99760   98767   98768   99763+
+          99764   98769
CHEXA      81710       1   98768   99763   99764   98769   98770   99767+
+          99768   98771
CHEXA      81711       1   98770   99767   99768   98771   98772   99771+
+          99772   98773
CHEXA      81712       1   98772   99771   99772   98773   98774   99775+
+          99776   98775
CHEXA      81713       1   98774   99775   99776   98775   98776   99779+
+          99780   98777
CHEXA      81714       1   98776   99779   99780   98777   98778   99783+
+          99784   98779
CHEXA      81715       1   98778   99783   99784   98779   98780   99787+
+          99788   98781
CHEXA      81716       1   98780   99787   99788   98781   98782   99791+
+          99792   98783
CHEXA      81717       1   98782   99791   99792   98783   98784   99795+
+          99796   98785
CHEXA      81718       1   98784   99795   99796   98785   98786   99799+
+          99800   98787
CHEXA      81719       1   98786   99799   99800   98787   98788   99803+
+          99804   98789
CHEXA      81720       1   98788   99803   99804   98789   98790   99807+
+          99808   98791
CHEXA      81721       1   98790   99807   99808   98791   98792   99811+
+          99812   98793
CHEXA      81722       1   98792   99811   99812   98793   98794   99815+
+          99816   98795
CHEXA      81723       1   98794   99815   99816   98795   98796   99819+
+          99820   98797
CHEXA      81724       1   98796   99819   99820   98797   98798   99823+
+          99824   98799
CHEXA      81725       1   98798   99823   99824   98799   98800   99827+
+          99828   98801
CHEXA      81726       1   98800   99827   99828   98801   98802   99831+
+          99832   98803
CHEXA      81727       1   98802   99831   99832   98803   98804   99835+
+          99836   98805
CHEXA      81728       1   98804   99835   99836   98805   98806   99839+
+          99840   98807
CHEXA      81729       1   98806   99839   99840   98807   98808   99843+
+          99844   98809
CHEXA      81730       1   98808   99843   99844   98809   98810   99847+
+          99848   98811
CHEXA      81731       1   98810   99847   99848   98811   98812   99851+
+          99852   98813
CHEXA      81732       1   98812   99851   99852   98813   98814   99855+
+          99856   98815
CHEXA      81733       1   98814   99855   99856   98815   98816   99859+
+          99860   98817
CHEXA      81734       1   98816   99859   99860   98817   98818   99863+
+          99864   98819
CHEXA      81735       1   98818   99863   99864   98819   98820   99867+
+          99868   98821
CHEXA      81736       1   98820   99867   99868   98821   98822   99871+
+          99872   98823
CHEXA      81737       1   98822   99871   99872   98823   98824   99875+
+          99876   98825
CHEXA      81738       1   98824   99875   99876   98825   98826   99879+
+          99880   98827
CHEXA      81739       1   98826   99879   99880   98827   98828   99883+
+          99884   98829
CHEXA      81740       1   98828   99883   99884   98829   98830   99887+
+          99888   98831
CHEXA      81741       1   98830   99887   99888   98831   98832   99891+
+          99892   98833
CHEXA      81742       1   98832   99891   99892   98833   98834   99895+
+          99896   98835
CHEXA      81743       1   98834   99895   99896   98835   98836   99899+
+          99900   98837
CHEXA      81744       1   98836   99899   99900   98837   98838   99903+
+          99904   98839
CHEXA      81745       1   98838   99903   99904   98839   98840   99907+
+          99908   98841
CHEXA      81746       1   98840   99907   99908   98841   98842   99911+
+          99912   98843
CHEXA      81747       1   98842   99911   99912   98843   98844   99915+
+          99916   98845
CHEXA      81748       1   98844   99915   99916   98845   98846   99919+
+          99920   98847
CHEXA      81749       1   98846   99919   99920   98847   98848   99923+
+          99924   98849
CHEXA      81750       1   98848   99923   99924   98849   98850   99927+
+          99928   98851
CHEXA      81751       1   98850   99927   99928   98851   98852   99931+
+          99932   98853
CHEXA      81752       1   98852   99931   99932   98853   98854   99935+
+          99936   98855
CHEXA      81753       1   98854   99935   99936   98855   98856   99939+
+          99940   98857
CHEXA      81754       1   98856   99939   99940   98857   98858   99943+
+          99944   98859
CHEXA      81755       1   98858   99943   99944   98859   98860   99947+
+          99948   98861
CHEXA      81756       1   98860   99947   99948   98861   98862   99951+
+          99952   98863
CHEXA      81757       1   98862   99951   99952   98863   98864   99955+
+          99956   98865
CHEXA      81758       1   98864   99955   99956   98865   98866   99959+
+          99960   98867
CHEXA      81759       1   98866   99959   99960   98867   98868   99963+
+          99964   98869
CHEXA      81760       1   98868   99963   99964   98869   98870   99967+
+          99968   98871
CHEXA      81761       1   98870   99967   99968   98871   98872   99971+
+          99972   98873
CHEXA      81762       1   98872   99971   99972   98873   98874   99975+
+          99976   98875
CHEXA      81763       1   98874   99975   99976   98875   98876   99979+
+          99980   98877
CHEXA      81764       1   98876   99979   99980   98877   98878   99983+
+          99984   98879
CHEXA      81765       1   98878   99983   99984   98879   98880   99987+
+          99988   98881
CHEXA      81766       1   98880   99987   99988   98881   98882   99991+
+          99992   98883
CHEXA      81767       1   98882   99991   99992   98883   98884   99995+
+          99996   98885
CHEXA      81768       1   98884   99995   99996   98885   98886   99999+
+         100000   98887
CHEXA      81769       1   98886   99999  100000   98887   98888  100003+
+         100004   98889
CHEXA      81770       1   98888  100003  100004   98889   98890  100007+
+         100008   98891
CHEXA      81771       1   98890  100007  100008   98891   98892  100011+
+         100012   98893
CHEXA      81772       1   98892  100011  100012   98893   98894  100015+
+         100016   98895
CHEXA      81773       1   98894  100015  100016   98895   98896  100019+
+         100020   98897
CHEXA      81774       1   98896  100019  100020   98897   98898  100023+
+         100024   98899
CHEXA      81775       1   98898  100023  100024   98899   98900  100027+
+         100028   98901
CHEXA      81776       1   98900  100027  100028   98901   98902  100031+
+         100032   98903
CHEXA      81777       1   98902  100031  100032   98903   98904  100035+
+         100036   98905
CHEXA      81778       1   98904  100035  100036   98905   98906  100039+
+         100040   98907
CHEXA      81779       1   98906  100039  100040   98907   98908  100043+
+         100044   98909
CHEXA      81780       1   98908  100043  100044   98909   98910  100047+
+         100048   98911
CHEXA      81781       1   98910  100047  100048   98911   98912  100051+
+         100052   98913
CHEXA      81782       1   98912  100051  100052   98913   98914  100055+
+         100056   98915
CHEXA      81783       1   98914  100055  100056   98915   98916  100059+
+         100060   98917
CHEXA      81784       1   98916  100059  100060   98917   98918  100063+
+         100064   98919
CHEXA      81785       1   98918  100063  100064   98919   98920  100067+
+         100068   98921
CHEXA      81786       1   98920  100067  100068   98921   98922  100071+
+         100072   98923
CHEXA      81787       1   98922  100071  100072   98923   98924  100075+
+         100076   98925
CHEXA      81788       1   98924  100075  100076   98925   98926  100079+
+         100080   98927
CHEXA      81789       1   98926  100079  100080   98927   98928  100083+
+         100084   98929
CHEXA      81790       1   98928  100083  100084   98929   98930  100087+
+         100088   98931
CHEXA      81791       1   98930  100087  100088   98931   98932  100091+
+         100092   98933
CHEXA      81792       1   98932  100091  100092   98933   98934  100095+
+         100096   98935
CHEXA      81793       1   98934  100095  100096   98935   98936  100099+
+         100100   98937
CHEXA      81794       1   98936  100099  100100   98937   98938  100103+
+         100104   98939
CHEXA      81795       1   98938  100103  100104   98939   98940  100107+
+         100108   98941
CHEXA      81796       1   98940  100107  100108   98941   98942  100111+
+         100112   98943
CHEXA      81797       1   98942  100111  100112   98943   98944  100115+
+         100116   98945
CHEXA      81798       1   98944  100115  100116   98945   98946  100119+
+         100120   98947
CHEXA      81799       1   98946  100119  100120   98947   98948  100123+
+         100124   98949
CHEXA      81800       1   98948  100123  100124   98949   98950  100127+
+         100128   98951
CHEXA      81801       1   98950  100127  100128   98951   98952  100131+
+         100132   98953
CHEXA      81802       1   98952  100131  100132   98953   98954  100135+
+         100136   98955
CHEXA      81803       1   98954  100135  100136   98955   98956  100139+
+         100140   98957
CHEXA      81804       1   98956  100139  100140   98957   98958  100143+
+         100144   98959
CHEXA      81805       1   98958  100143  100144   98959   98960  100147+
+         100148   98961
CHEXA      81806       1   98960  100147  100148   98961   98962  100151+
+         100152   98963
CHEXA      81807       1   98962  100151  100152   98963   98964  100155+
+         100156   98965
CHEXA      81808       1   98964  100155  100156   98965   98966  100159+
+         100160   98967
CHEXA      81809       1   98966  100159  100160   98967   96971   97771+
+          97772   96970
$*  Mesh Collector: Solid(1)
$*  Mesh: 3d_mesh(2)
CHEXA      81810       1   96923   96925   96924   96922  102569  102568+
+         102567  102566
CHEXA      81811       1  102569  102568  102567  102566  102573  102572+
+         102571  102570
CHEXA      81812       1  102573  102572  102571  102570  102577  102576+
+         102575  102574
CHEXA      81813       1  102577  102576  102575  102574  102581  102580+
+         102579  102578
CHEXA      81814       1  102581  102580  102579  102578  102585  102584+
+         102583  102582
CHEXA      81815       1  102585  102584  102583  102582  102589  102588+
+         102587  102586
CHEXA      81816       1  102589  102588  102587  102586  102593  102592+
+         102591  102590
CHEXA      81817       1  102593  102592  102591  102590  102597  102596+
+         102595  102594
CHEXA      81818       1  102597  102596  102595  102594  102601  102600+
+         102599  102598
CHEXA      81819       1  102601  102600  102599  102598  102605  102604+
+         102603  102602
CHEXA      81820       1  102605  102604  102603  102602  102609  102608+
+         102607  102606
CHEXA      81821       1  102609  102608  102607  102606  102613  102612+
+         102611  102610
CHEXA      81822       1  102613  102612  102611  102610  102617  102616+
+         102615  102614
CHEXA      81823       1  102617  102616  102615  102614  102621  102620+
+         102619  102618
CHEXA      81824       1  102621  102620  102619  102618  102625  102624+
+         102623  102622
CHEXA      81825       1  102625  102624  102623  102622  102629  102628+
+         102627  102626
CHEXA      81826       1  102629  102628  102627  102626  102633  102632+
+         102631  102630
CHEXA      81827       1  102633  102632  102631  102630  102637  102636+
+         102635  102634
CHEXA      81828       1  102637  102636  102635  102634  102641  102640+
+         102639  102638
CHEXA      81829       1  102641  102640  102639  102638  102645  102644+
+         102643  102642
CHEXA      81830       1  102645  102644  102643  102642  102649  102648+
+         102647  102646
CHEXA      81831       1  102649  102648  102647  102646  102653  102652+
+         102651  102650
CHEXA      81832       1  102653  102652  102651  102650  102657  102656+
+         102655  102654
CHEXA      81833       1  102657  102656  102655  102654  102661  102660+
+         102659  102658
CHEXA      81834       1  102661  102660  102659  102658  102665  102664+
+         102663  102662
CHEXA      81835       1  102665  102664  102663  102662  102669  102668+
+         102667  102666
CHEXA      81836       1  102669  102668  102667  102666  102673  102672+
+         102671  102670
CHEXA      81837       1  102673  102672  102671  102670  102677  102676+
+         102675  102674
CHEXA      81838       1  102677  102676  102675  102674  102681  102680+
+         102679  102678
CHEXA      81839       1  102681  102680  102679  102678  102685  102684+
+         102683  102682
CHEXA      81840       1  102685  102684  102683  102682  102689  102688+
+         102687  102686
CHEXA      81841       1  102689  102688  102687  102686  102693  102692+
+         102691  102690
CHEXA      81842       1  102693  102692  102691  102690  102697  102696+
+         102695  102694
CHEXA      81843       1  102697  102696  102695  102694  102701  102700+
+         102699  102698
CHEXA      81844       1  102701  102700  102699  102698  102705  102704+
+         102703  102702
CHEXA      81845       1  102705  102704  102703  102702  102709  102708+
+         102707  102706
CHEXA      81846       1  102709  102708  102707  102706  102713  102712+
+         102711  102710
CHEXA      81847       1  102713  102712  102711  102710  102717  102716+
+         102715  102714
CHEXA      81848       1  102717  102716  102715  102714  102721  102720+
+         102719  102718
CHEXA      81849       1  102721  102720  102719  102718  102725  102724+
+         102723  102722
CHEXA      81850       1  102725  102724  102723  102722  102729  102728+
+         102727  102726
CHEXA      81851       1  102729  102728  102727  102726  102733  102732+
+         102731  102730
CHEXA      81852       1  102733  102732  102731  102730  102737  102736+
+         102735  102734
CHEXA      81853       1  102737  102736  102735  102734  102741  102740+
+         102739  102738
CHEXA      81854       1  102741  102740  102739  102738  102745  102744+
+         102743  102742
CHEXA      81855       1  102745  102744  102743  102742  102749  102748+
+         102747  102746
CHEXA      81856       1  102749  102748  102747  102746  102753  102752+
+         102751  102750
CHEXA      81857       1  102753  102752  102751  102750  102757  102756+
+         102755  102754
CHEXA      81858       1  102757  102756  102755  102754  102761  102760+
+         102759  102758
CHEXA      81859       1  102761  102760  102759  102758  102765  102764+
+         102763  102762
CHEXA      81860       1  102765  102764  102763  102762  102769  102768+
+         102767  102766
CHEXA      81861       1  102769  102768  102767  102766  102773  102772+
+         102771  102770
CHEXA      81862       1  102773  102772  102771  102770  102777  102776+
+         102775  102774
CHEXA      81863       1  102777  102776  102775  102774  102781  102780+
+         102779  102778
CHEXA      81864       1  102781  102780  102779  102778  102785  102784+
+         102783  102782
CHEXA      81865       1  102785  102784  102783  102782  102789  102788+
+         102787  102786
CHEXA      81866       1  102789  102788  102787  102786  102793  102792+
+         102791  102790
CHEXA      81867       1  102793  102792  102791  102790  102797  102796+
+         102795  102794
CHEXA      81868       1  102797  102796  102795  102794  102801  102800+
+         102799  102798
CHEXA      81869       1  102801  102800  102799  102798  102805  102804+
+         102803  102802
CHEXA      81870       1  102805  102804  102803  102802  102809  102808+
+         102807  102806
CHEXA      81871       1  102809  102808  102807  102806  102813  102812+
+         102811  102810
CHEXA      81872       1  102813  102812  102811  102810  102817  102816+
+         102815  102814
CHEXA      81873       1  102817  102816  102815  102814  102821  102820+
+         102819  102818
CHEXA      81874       1  102821  102820  102819  102818  102825  102824+
+         102823  102822
CHEXA      81875       1  102825  102824  102823  102822  102829  102828+
+         102827  102826
CHEXA      81876       1  102829  102828  102827  102826  102833  102832+
+         102831  102830
CHEXA      81877       1  102833  102832  102831  102830  102837  102836+
+         102835  102834
CHEXA      81878       1  102837  102836  102835  102834  102841  102840+
+         102839  102838
CHEXA      81879       1  102841  102840  102839  102838  102845  102844+
+         102843  102842
CHEXA      81880       1  102845  102844  102843  102842  102849  102848+
+         102847  102846
CHEXA      81881       1  102849  102848  102847  102846  102853  102852+
+         102851  102850
CHEXA      81882       1  102853  102852  102851  102850  102857  102856+
+         102855  102854
CHEXA      81883       1  102857  102856  102855  102854  102861  102860+
+         102859  102858
CHEXA      81884       1  102861  102860  102859  102858  102865  102864+
+         102863  102862
CHEXA      81885       1  102865  102864  102863  102862  102869  102868+
+         102867  102866
CHEXA      81886       1  102869  102868  102867  102866  102873  102872+
+         102871  102870
CHEXA      81887       1  102873  102872  102871  102870  102877  102876+
+         102875  102874
CHEXA      81888       1  102877  102876  102875  102874  102881  102880+
+         102879  102878
CHEXA      81889       1  102881  102880  102879  102878  102885  102884+
+         102883  102882
CHEXA      81890       1  102885  102884  102883  102882  102889  102888+
+         102887  102886
CHEXA      81891       1  102889  102888  102887  102886  102893  102892+
+         102891  102890
CHEXA      81892       1  102893  102892  102891  102890  102897  102896+
+         102895  102894
CHEXA      81893       1  102897  102896  102895  102894  102901  102900+
+         102899  102898
CHEXA      81894       1  102901  102900  102899  102898  102905  102904+
+         102903  102902
CHEXA      81895       1  102905  102904  102903  102902  102909  102908+
+         102907  102906
CHEXA      81896       1  102909  102908  102907  102906  102913  102912+
+         102911  102910
CHEXA      81897       1  102913  102912  102911  102910  102917  102916+
+         102915  102914
CHEXA      81898       1  102917  102916  102915  102914  102921  102920+
+         102919  102918
CHEXA      81899       1  102921  102920  102919  102918  102925  102924+
+         102923  102922
CHEXA      81900       1  102925  102924  102923  102922  102929  102928+
+         102927  102926
CHEXA      81901       1  102929  102928  102927  102926  102933  102932+
+         102931  102930
CHEXA      81902       1  102933  102932  102931  102930  102937  102936+
+         102935  102934
CHEXA      81903       1  102937  102936  102935  102934  102941  102940+
+         102939  102938
CHEXA      81904       1  102941  102940  102939  102938  102945  102944+
+         102943  102942
CHEXA      81905       1  102945  102944  102943  102942  102949  102948+
+         102947  102946
CHEXA      81906       1  102949  102948  102947  102946  102953  102952+
+         102951  102950
CHEXA      81907       1  102953  102952  102951  102950  102957  102956+
+         102955  102954
CHEXA      81908       1  102957  102956  102955  102954  102961  102960+
+         102959  102958
CHEXA      81909       1  102961  102960  102959  102958  102965  102964+
+         102963  102962
CHEXA      81910       1  102965  102964  102963  102962  102969  102968+
+         102967  102966
CHEXA      81911       1  102969  102968  102967  102966  102973  102972+
+         102971  102970
CHEXA      81912       1  102973  102972  102971  102970  102977  102976+
+         102975  102974
CHEXA      81913       1  102977  102976  102975  102974  102981  102980+
+         102979  102978
CHEXA      81914       1  102981  102980  102979  102978  102985  102984+
+         102983  102982
CHEXA      81915       1  102985  102984  102983  102982  102989  102988+
+         102987  102986
CHEXA      81916       1  102989  102988  102987  102986  102993  102992+
+         102991  102990
CHEXA      81917       1  102993  102992  102991  102990  102997  102996+
+         102995  102994
CHEXA      81918       1  102997  102996  102995  102994  103001  103000+
+         102999  102998
CHEXA      81919       1  103001  103000  102999  102998  103005  103004+
+         103003  103002
CHEXA      81920       1  103005  103004  103003  103002  103009  103008+
+         103007  103006
CHEXA      81921       1  103009  103008  103007  103006  103013  103012+
+         103011  103010
CHEXA      81922       1  103013  103012  103011  103010  103017  103016+
+         103015  103014
CHEXA      81923       1  103017  103016  103015  103014  103021  103020+
+         103019  103018
CHEXA      81924       1  103021  103020  103019  103018  103025  103024+
+         103023  103022
CHEXA      81925       1  103025  103024  103023  103022  103029  103028+
+         103027  103026
CHEXA      81926       1  103029  103028  103027  103026  103033  103032+
+         103031  103030
CHEXA      81927       1  103033  103032  103031  103030  103037  103036+
+         103035  103034
CHEXA      81928       1  103037  103036  103035  103034  103041  103040+
+         103039  103038
CHEXA      81929       1  103041  103040  103039  103038  103045  103044+
+         103043  103042
CHEXA      81930       1  103045  103044  103043  103042  103049  103048+
+         103047  103046
CHEXA      81931       1  103049  103048  103047  103046  103053  103052+
+         103051  103050
CHEXA      81932       1  103053  103052  103051  103050  103057  103056+
+         103055  103054
CHEXA      81933       1  103057  103056  103055  103054  103061  103060+
+         103059  103058
CHEXA      81934       1  103061  103060  103059  103058  103065  103064+
+         103063  103062
CHEXA      81935       1  103065  103064  103063  103062  103069  103068+
+         103067  103066
CHEXA      81936       1  103069  103068  103067  103066  103073  103072+
+         103071  103070
CHEXA      81937       1  103073  103072  103071  103070  103077  103076+
+         103075  103074
CHEXA      81938       1  103077  103076  103075  103074  103081  103080+
+         103079  103078
CHEXA      81939       1  103081  103080  103079  103078  103085  103084+
+         103083  103082
CHEXA      81940       1  103085  103084  103083  103082  103089  103088+
+         103087  103086
CHEXA      81941       1  103089  103088  103087  103086  103093  103092+
+         103091  103090
CHEXA      81942       1  103093  103092  103091  103090  103097  103096+
+         103095  103094
CHEXA      81943       1  103097  103096  103095  103094  103101  103100+
+         103099  103098
CHEXA      81944       1  103101  103100  103099  103098  103105  103104+
+         103103  103102
CHEXA      81945       1  103105  103104  103103  103102  103109  103108+
+         103107  103106
CHEXA      81946       1  103109  103108  103107  103106  103113  103112+
+         103111  103110
CHEXA      81947       1  103113  103112  103111  103110  103117  103116+
+         103115  103114
CHEXA      81948       1  103117  103116  103115  103114  103121  103120+
+         103119  103118
CHEXA      81949       1  103121  103120  103119  103118  103125  103124+
+         103123  103122
CHEXA      81950       1  103125  103124  103123  103122  103129  103128+
+         103127  103126
CHEXA      81951       1  103129  103128  103127  103126  103133  103132+
+         103131  103130
CHEXA      81952       1  103133  103132  103131  103130  103137  103136+
+         103135  103134
CHEXA      81953       1  103137  103136  103135  103134  103141  103140+
+         103139  103138
CHEXA      81954       1  103141  103140  103139  103138  103145  103144+
+         103143  103142
CHEXA      81955       1  103145  103144  103143  103142  103149  103148+
+         103147  103146
CHEXA      81956       1  103149  103148  103147  103146  103153  103152+
+         103151  103150
CHEXA      81957       1  103153  103152  103151  103150  103157  103156+
+         103155  103154
CHEXA      81958       1  103157  103156  103155  103154  103161  103160+
+         103159  103158
CHEXA      81959       1  103161  103160  103159  103158  103165  103164+
+         103163  103162
CHEXA      81960       1  103165  103164  103163  103162  103169  103168+
+         103167  103166
CHEXA      81961       1  103169  103168  103167  103166  103173  103172+
+         103171  103170
CHEXA      81962       1  103173  103172  103171  103170  103177  103176+
+         103175  103174
CHEXA      81963       1  103177  103176  103175  103174  103181  103180+
+         103179  103178
CHEXA      81964       1  103181  103180  103179  103178  103185  103184+
+         103183  103182
CHEXA      81965       1  103185  103184  103183  103182  103189  103188+
+         103187  103186
CHEXA      81966       1  103189  103188  103187  103186  103193  103192+
+         103191  103190
CHEXA      81967       1  103193  103192  103191  103190  103197  103196+
+         103195  103194
CHEXA      81968       1  103197  103196  103195  103194  103201  103200+
+         103199  103198
CHEXA      81969       1  103201  103200  103199  103198  103205  103204+
+         103203  103202
CHEXA      81970       1  103205  103204  103203  103202  103209  103208+
+         103207  103206
CHEXA      81971       1  103209  103208  103207  103206  103213  103212+
+         103211  103210
CHEXA      81972       1  103213  103212  103211  103210  103217  103216+
+         103215  103214
CHEXA      81973       1  103217  103216  103215  103214  103221  103220+
+         103219  103218
CHEXA      81974       1  103221  103220  103219  103218  103225  103224+
+         103223  103222
CHEXA      81975       1  103225  103224  103223  103222  103229  103228+
+         103227  103226
CHEXA      81976       1  103229  103228  103227  103226  103233  103232+
+         103231  103230
CHEXA      81977       1  103233  103232  103231  103230  103237  103236+
+         103235  103234
CHEXA      81978       1  103237  103236  103235  103234  103241  103240+
+         103239  103238
CHEXA      81979       1  103241  103240  103239  103238  103245  103244+
+         103243  103242
CHEXA      81980       1  103245  103244  103243  103242  103249  103248+
+         103247  103246
CHEXA      81981       1  103249  103248  103247  103246  103253  103252+
+         103251  103250
CHEXA      81982       1  103253  103252  103251  103250  103257  103256+
+         103255  103254
CHEXA      81983       1  103257  103256  103255  103254  103261  103260+
+         103259  103258
CHEXA      81984       1  103261  103260  103259  103258  103265  103264+
+         103263  103262
CHEXA      81985       1  103265  103264  103263  103262  103269  103268+
+         103267  103266
CHEXA      81986       1  103269  103268  103267  103266  103273  103272+
+         103271  103270
CHEXA      81987       1  103273  103272  103271  103270  103277  103276+
+         103275  103274
CHEXA      81988       1  103277  103276  103275  103274  103281  103280+
+         103279  103278
CHEXA      81989       1  103281  103280  103279  103278  103285  103284+
+         103283  103282
CHEXA      81990       1  103285  103284  103283  103282  103289  103288+
+         103287  103286
CHEXA      81991       1  103289  103288  103287  103286  103293  103292+
+         103291  103290
CHEXA      81992       1  103293  103292  103291  103290  103297  103296+
+         103295  103294
CHEXA      81993       1  103297  103296  103295  103294  103301  103300+
+         103299  103298
CHEXA      81994       1  103301  103300  103299  103298  103305  103304+
+         103303  103302
CHEXA      81995       1  103305  103304  103303  103302  103309  103308+
+         103307  103306
CHEXA      81996       1  103309  103308  103307  103306  103313  103312+
+         103311  103310
CHEXA      81997       1  103313  103312  103311  103310  103317  103316+
+         103315  103314
CHEXA      81998       1  103317  103316  103315  103314  103321  103320+
+         103319  103318
CHEXA      81999       1  103321  103320  103319  103318  103325  103324+
+         103323  103322
CHEXA      82000       1  103325  103324  103323  103322  103329  103328+
+         103327  103326
CHEXA      82001       1  103329  103328  103327  103326  103333  103332+
+         103331  103330
CHEXA      82002       1  103333  103332  103331  103330  103337  103336+
+         103335  103334
CHEXA      82003       1  103337  103336  103335  103334  103341  103340+
+         103339  103338
CHEXA      82004       1  103341  103340  103339  103338  103345  103344+
+         103343  103342
CHEXA      82005       1  103345  103344  103343  103342  103349  103348+
+         103347  103346
CHEXA      82006       1  103349  103348  103347  103346  103353  103352+
+         103351  103350
CHEXA      82007       1  103353  103352  103351  103350  103357  103356+
+         103355  103354
CHEXA      82008       1  103357  103356  103355  103354  103361  103360+
+         103359  103358
CHEXA      82009       1  103361  103360  103359  103358  102565  102564+
+         102563  102562
CHEXA      82010       1   96948   96922   96954   96961  102162  102566+
+         102164  100961
CHEXA      82011       1  102162  102566  102164  100961  102160  102570+
+         102166  100960
CHEXA      82012       1  102160  102570  102166  100960  102158  102574+
+         102168  100959
CHEXA      82013       1  102158  102574  102168  100959  102156  102578+
+         102170  100958
CHEXA      82014       1  102156  102578  102170  100958  102154  102582+
+         102172  100957
CHEXA      82015       1  102154  102582  102172  100957  102152  102586+
+         102174  100956
CHEXA      82016       1  102152  102586  102174  100956  102150  102590+
+         102176  100955
CHEXA      82017       1  102150  102590  102176  100955  102148  102594+
+         102178  100954
CHEXA      82018       1  102148  102594  102178  100954  102146  102598+
+         102180  100953
CHEXA      82019       1  102146  102598  102180  100953  102144  102602+
+         102182  100952
CHEXA      82020       1  102144  102602  102182  100952  102142  102606+
+         102184  100951
CHEXA      82021       1  102142  102606  102184  100951  102140  102610+
+         102186  100950
CHEXA      82022       1  102140  102610  102186  100950  102138  102614+
+         102188  100949
CHEXA      82023       1  102138  102614  102188  100949  102136  102618+
+         102190  100948
CHEXA      82024       1  102136  102618  102190  100948  102134  102622+
+         102192  100947
CHEXA      82025       1  102134  102622  102192  100947  102132  102626+
+         102194  100946
CHEXA      82026       1  102132  102626  102194  100946  102130  102630+
+         102196  100945
CHEXA      82027       1  102130  102630  102196  100945  102128  102634+
+         102198  100944
CHEXA      82028       1  102128  102634  102198  100944  102126  102638+
+         102200  100943
CHEXA      82029       1  102126  102638  102200  100943  102124  102642+
+         102202  100942
CHEXA      82030       1  102124  102642  102202  100942  102122  102646+
+         102204  100941
CHEXA      82031       1  102122  102646  102204  100941  102120  102650+
+         102206  100940
CHEXA      82032       1  102120  102650  102206  100940  102118  102654+
+         102208  100939
CHEXA      82033       1  102118  102654  102208  100939  102116  102658+
+         102210  100938
CHEXA      82034       1  102116  102658  102210  100938  102114  102662+
+         102212  100937
CHEXA      82035       1  102114  102662  102212  100937  102112  102666+
+         102214  100936
CHEXA      82036       1  102112  102666  102214  100936  102110  102670+
+         102216  100935
CHEXA      82037       1  102110  102670  102216  100935  102108  102674+
+         102218  100934
CHEXA      82038       1  102108  102674  102218  100934  102106  102678+
+         102220  100933
CHEXA      82039       1  102106  102678  102220  100933  102104  102682+
+         102222  100932
CHEXA      82040       1  102104  102682  102222  100932  102102  102686+
+         102224  100931
CHEXA      82041       1  102102  102686  102224  100931  102100  102690+
+         102226  100930
CHEXA      82042       1  102100  102690  102226  100930  102098  102694+
+         102228  100929
CHEXA      82043       1  102098  102694  102228  100929  102096  102698+
+         102230  100928
CHEXA      82044       1  102096  102698  102230  100928  102094  102702+
+         102232  100927
CHEXA      82045       1  102094  102702  102232  100927  102092  102706+
+         102234  100926
CHEXA      82046       1  102092  102706  102234  100926  102090  102710+
+         102236  100925
CHEXA      82047       1  102090  102710  102236  100925  102088  102714+
+         102238  100924
CHEXA      82048       1  102088  102714  102238  100924  102086  102718+
+         102240  100923
CHEXA      82049       1  102086  102718  102240  100923  102084  102722+
+         102242  100922
CHEXA      82050       1  102084  102722  102242  100922  102082  102726+
+         102244  100921
CHEXA      82051       1  102082  102726  102244  100921  102080  102730+
+         102246  100920
CHEXA      82052       1  102080  102730  102246  100920  102078  102734+
+         102248  100919
CHEXA      82053       1  102078  102734  102248  100919  102076  102738+
+         102250  100918
CHEXA      82054       1  102076  102738  102250  100918  102074  102742+
+         102252  100917
CHEXA      82055       1  102074  102742  102252  100917  102072  102746+
+         102254  100916
CHEXA      82056       1  102072  102746  102254  100916  102070  102750+
+         102256  100915
CHEXA      82057       1  102070  102750  102256  100915  102068  102754+
+         102258  100914
CHEXA      82058       1  102068  102754  102258  100914  102066  102758+
+         102260  100913
CHEXA      82059       1  102066  102758  102260  100913  102064  102762+
+         102262  100912
CHEXA      82060       1  102064  102762  102262  100912  102062  102766+
+         102264  100911
CHEXA      82061       1  102062  102766  102264  100911  102060  102770+
+         102266  100910
CHEXA      82062       1  102060  102770  102266  100910  102058  102774+
+         102268  100909
CHEXA      82063       1  102058  102774  102268  100909  102056  102778+
+         102270  100908
CHEXA      82064       1  102056  102778  102270  100908  102054  102782+
+         102272  100907
CHEXA      82065       1  102054  102782  102272  100907  102052  102786+
+         102274  100906
CHEXA      82066       1  102052  102786  102274  100906  102050  102790+
+         102276  100905
CHEXA      82067       1  102050  102790  102276  100905  102048  102794+
+         102278  100904
CHEXA      82068       1  102048  102794  102278  100904  102046  102798+
+         102280  100903
CHEXA      82069       1  102046  102798  102280  100903  102044  102802+
+         102282  100902
CHEXA      82070       1  102044  102802  102282  100902  102042  102806+
+         102284  100901
CHEXA      82071       1  102042  102806  102284  100901  102040  102810+
+         102286  100900
CHEXA      82072       1  102040  102810  102286  100900  102038  102814+
+         102288  100899
CHEXA      82073       1  102038  102814  102288  100899  102036  102818+
+         102290  100898
CHEXA      82074       1  102036  102818  102290  100898  102034  102822+
+         102292  100897
CHEXA      82075       1  102034  102822  102292  100897  102032  102826+
+         102294  100896
CHEXA      82076       1  102032  102826  102294  100896  102030  102830+
+         102296  100895
CHEXA      82077       1  102030  102830  102296  100895  102028  102834+
+         102298  100894
CHEXA      82078       1  102028  102834  102298  100894  102026  102838+
+         102300  100893
CHEXA      82079       1  102026  102838  102300  100893  102024  102842+
+         102302  100892
CHEXA      82080       1  102024  102842  102302  100892  102022  102846+
+         102304  100891
CHEXA      82081       1  102022  102846  102304  100891  102020  102850+
+         102306  100890
CHEXA      82082       1  102020  102850  102306  100890  102018  102854+
+         102308  100889
CHEXA      82083       1  102018  102854  102308  100889  102016  102858+
+         102310  100888
CHEXA      82084       1  102016  102858  102310  100888  102014  102862+
+         102312  100887
CHEXA      82085       1  102014  102862  102312  100887  102012  102866+
+         102314  100886
CHEXA      82086       1  102012  102866  102314  100886  102010  102870+
+         102316  100885
CHEXA      82087       1  102010  102870  102316  100885  102008  102874+
+         102318  100884
CHEXA      82088       1  102008  102874  102318  100884  102006  102878+
+         102320  100883
CHEXA      82089       1  102006  102878  102320  100883  102004  102882+
+         102322  100882
CHEXA      82090       1  102004  102882  102322  100882  102002  102886+
+         102324  100881
CHEXA      82091       1  102002  102886  102324  100881  102000  102890+
+         102326  100880
CHEXA      82092       1  102000  102890  102326  100880  101998  102894+
+         102328  100879
CHEXA      82093       1  101998  102894  102328  100879  101996  102898+
+         102330  100878
CHEXA      82094       1  101996  102898  102330  100878  101994  102902+
+         102332  100877
CHEXA      82095       1  101994  102902  102332  100877  101992  102906+
+         102334  100876
CHEXA      82096       1  101992  102906  102334  100876  101990  102910+
+         102336  100875
CHEXA      82097       1  101990  102910  102336  100875  101988  102914+
+         102338  100874
CHEXA      82098       1  101988  102914  102338  100874  101986  102918+
+         102340  100873
CHEXA      82099       1  101986  102918  102340  100873  101984  102922+
+         102342  100872
CHEXA      82100       1  101984  102922  102342  100872  101982  102926+
+         102344  100871
CHEXA      82101       1  101982  102926  102344  100871  101980  102930+
+         102346  100870
CHEXA      82102       1  101980  102930  102346  100870  101978  102934+
+         102348  100869
CHEXA      82103       1  101978  102934  102348  100869  101976  102938+
+         102350  100868
CHEXA      82104       1  101976  102938  102350  100868  101974  102942+
+         102352  100867
CHEXA      82105       1  101974  102942  102352  100867  101972  102946+
+         102354  100866
CHEXA      82106       1  101972  102946  102354  100866  101970  102950+
+         102356  100865
CHEXA      82107       1  101970  102950  102356  100865  101968  102954+
+         102358  100864
CHEXA      82108       1  101968  102954  102358  100864  101966  102958+
+         102360  100863
CHEXA      82109       1  101966  102958  102360  100863  101964  102962+
+         102362  100862
CHEXA      82110       1  101964  102962  102362  100862  101962  102966+
+         102364  100861
CHEXA      82111       1  101962  102966  102364  100861  101960  102970+
+         102366  100860
CHEXA      82112       1  101960  102970  102366  100860  101958  102974+
+         102368  100859
CHEXA      82113       1  101958  102974  102368  100859  101956  102978+
+         102370  100858
CHEXA      82114       1  101956  102978  102370  100858  101954  102982+
+         102372  100857
CHEXA      82115       1  101954  102982  102372  100857  101952  102986+
+         102374  100856
CHEXA      82116       1  101952  102986  102374  100856  101950  102990+
+         102376  100855
CHEXA      82117       1  101950  102990  102376  100855  101948  102994+
+         102378  100854
CHEXA      82118       1  101948  102994  102378  100854  101946  102998+
+         102380  100853
CHEXA      82119       1  101946  102998  102380  100853  101944  103002+
+         102382  100852
CHEXA      82120       1  101944  103002  102382  100852  101942  103006+
+         102384  100851
CHEXA      82121       1  101942  103006  102384  100851  101940  103010+
+         102386  100850
CHEXA      82122       1  101940  103010  102386  100850  101938  103014+
+         102388  100849
CHEXA      82123       1  101938  103014  102388  100849  101936  103018+
+         102390  100848
CHEXA      82124       1  101936  103018  102390  100848  101934  103022+
+         102392  100847
CHEXA      82125       1  101934  103022  102392  100847  101932  103026+
+         102394  100846
CHEXA      82126       1  101932  103026  102394  100846  101930  103030+
+         102396  100845
CHEXA      82127       1  101930  103030  102396  100845  101928  103034+
+         102398  100844
CHEXA      82128       1  101928  103034  102398  100844  101926  103038+
+         102400  100843
CHEXA      82129       1  101926  103038  102400  100843  101924  103042+
+         102402  100842
CHEXA      82130       1  101924  103042  102402  100842  101922  103046+
+         102404  100841
CHEXA      82131       1  101922  103046  102404  100841  101920  103050+
+         102406  100840
CHEXA      82132       1  101920  103050  102406  100840  101918  103054+
+         102408  100839
CHEXA      82133       1  101918  103054  102408  100839  101916  103058+
+         102410  100838
CHEXA      82134       1  101916  103058  102410  100838  101914  103062+
+         102412  100837
CHEXA      82135       1  101914  103062  102412  100837  101912  103066+
+         102414  100836
CHEXA      82136       1  101912  103066  102414  100836  101910  103070+
+         102416  100835
CHEXA      82137       1  101910  103070  102416  100835  101908  103074+
+         102418  100834
CHEXA      82138       1  101908  103074  102418  100834  101906  103078+
+         102420  100833
CHEXA      82139       1  101906  103078  102420  100833  101904  103082+
+         102422  100832
CHEXA      82140       1  101904  103082  102422  100832  101902  103086+
+         102424  100831
CHEXA      82141       1  101902  103086  102424  100831  101900  103090+
+         102426  100830
CHEXA      82142       1  101900  103090  102426  100830  101898  103094+
+         102428  100829
CHEXA      82143       1  101898  103094  102428  100829  101896  103098+
+         102430  100828
CHEXA      82144       1  101896  103098  102430  100828  101894  103102+
+         102432  100827
CHEXA      82145       1  101894  103102  102432  100827  101892  103106+
+         102434  100826
CHEXA      82146       1  101892  103106  102434  100826  101890  103110+
+         102436  100825
CHEXA      82147       1  101890  103110  102436  100825  101888  103114+
+         102438  100824
CHEXA      82148       1  101888  103114  102438  100824  101886  103118+
+         102440  100823
CHEXA      82149       1  101886  103118  102440  100823  101884  103122+
+         102442  100822
CHEXA      82150       1  101884  103122  102442  100822  101882  103126+
+         102444  100821
CHEXA      82151       1  101882  103126  102444  100821  101880  103130+
+         102446  100820
CHEXA      82152       1  101880  103130  102446  100820  101878  103134+
+         102448  100819
CHEXA      82153       1  101878  103134  102448  100819  101876  103138+
+         102450  100818
CHEXA      82154       1  101876  103138  102450  100818  101874  103142+
+         102452  100817
CHEXA      82155       1  101874  103142  102452  100817  101872  103146+
+         102454  100816
CHEXA      82156       1  101872  103146  102454  100816  101870  103150+
+         102456  100815
CHEXA      82157       1  101870  103150  102456  100815  101868  103154+
+         102458  100814
CHEXA      82158       1  101868  103154  102458  100814  101866  103158+
+         102460  100813
CHEXA      82159       1  101866  103158  102460  100813  101864  103162+
+         102462  100812
CHEXA      82160       1  101864  103162  102462  100812  101862  103166+
+         102464  100811
CHEXA      82161       1  101862  103166  102464  100811  101860  103170+
+         102466  100810
CHEXA      82162       1  101860  103170  102466  100810  101858  103174+
+         102468  100809
CHEXA      82163       1  101858  103174  102468  100809  101856  103178+
+         102470  100808
CHEXA      82164       1  101856  103178  102470  100808  101854  103182+
+         102472  100807
CHEXA      82165       1  101854  103182  102472  100807  101852  103186+
+         102474  100806
CHEXA      82166       1  101852  103186  102474  100806  101850  103190+
+         102476  100805
CHEXA      82167       1  101850  103190  102476  100805  101848  103194+
+         102478  100804
CHEXA      82168       1  101848  103194  102478  100804  101846  103198+
+         102480  100803
CHEXA      82169       1  101846  103198  102480  100803  101844  103202+
+         102482  100802
CHEXA      82170       1  101844  103202  102482  100802  101842  103206+
+         102484  100801
CHEXA      82171       1  101842  103206  102484  100801  101840  103210+
+         102486  100800
CHEXA      82172       1  101840  103210  102486  100800  101838  103214+
+         102488  100799
CHEXA      82173       1  101838  103214  102488  100799  101836  103218+
+         102490  100798
CHEXA      82174       1  101836  103218  102490  100798  101834  103222+
+         102492  100797
CHEXA      82175       1  101834  103222  102492  100797  101832  103226+
+         102494  100796
CHEXA      82176       1  101832  103226  102494  100796  101830  103230+
+         102496  100795
CHEXA      82177       1  101830  103230  102496  100795  101828  103234+
+         102498  100794
CHEXA      82178       1  101828  103234  102498  100794  101826  103238+
+         102500  100793
CHEXA      82179       1  101826  103238  102500  100793  101824  103242+
+         102502  100792
CHEXA      82180       1  101824  103242  102502  100792  101822  103246+
+         102504  100791
CHEXA      82181       1  101822  103246  102504  100791  101820  103250+
+         102506  100790
CHEXA      82182       1  101820  103250  102506  100790  101818  103254+
+         102508  100789
CHEXA      82183       1  101818  103254  102508  100789  101816  103258+
+         102510  100788
CHEXA      82184       1  101816  103258  102510  100788  101814  103262+
+         102512  100787
CHEXA      82185       1  101814  103262  102512  100787  101812  103266+
+         102514  100786
CHEXA      82186       1  101812  103266  102514  100786  101810  103270+
+         102516  100785
CHEXA      82187       1  101810  103270  102516  100785  101808  103274+
+         102518  100784
CHEXA      82188       1  101808  103274  102518  100784  101806  103278+
+         102520  100783
CHEXA      82189       1  101806  103278  102520  100783  101804  103282+
+         102522  100782
CHEXA      82190       1  101804  103282  102522  100782  101802  103286+
+         102524  100781
CHEXA      82191       1  101802  103286  102524  100781  101800  103290+
+         102526  100780
CHEXA      82192       1  101800  103290  102526  100780  101798  103294+
+         102528  100779
CHEXA      82193       1  101798  103294  102528  100779  101796  103298+
+         102530  100778
CHEXA      82194       1  101796  103298  102530  100778  101794  103302+
+         102532  100777
CHEXA      82195       1  101794  103302  102532  100777  101792  103306+
+         102534  100776
CHEXA      82196       1  101792  103306  102534  100776  101790  103310+
+         102536  100775
CHEXA      82197       1  101790  103310  102536  100775  101788  103314+
+         102538  100774
CHEXA      82198       1  101788  103314  102538  100774  101786  103318+
+         102540  100773
CHEXA      82199       1  101786  103318  102540  100773  101784  103322+
+         102542  100772
CHEXA      82200       1  101784  103322  102542  100772  101782  103326+
+         102544  100771
CHEXA      82201       1  101782  103326  102544  100771  101780  103330+
+         102546  100770
CHEXA      82202       1  101780  103330  102546  100770  101778  103334+
+         102548  100769
CHEXA      82203       1  101778  103334  102548  100769  101776  103338+
+         102550  100768
CHEXA      82204       1  101776  103338  102550  100768  101774  103342+
+         102552  100767
CHEXA      82205       1  101774  103342  102552  100767  101772  103346+
+         102554  100766
CHEXA      82206       1  101772  103346  102554  100766  101770  103350+
+         102556  100765
CHEXA      82207       1  101770  103350  102556  100765  101768  103354+
+         102558  100764
CHEXA      82208       1  101768  103354  102558  100764  101766  103358+
+         102560  100763
CHEXA      82209       1  101766  103358  102560  100763  100966  102562+
+         100968  100165
CHEXA      82210       1   96922   96924   96953   96954  102566  102567+
+         102165  102164
CHEXA      82211       1  102566  102567  102165  102164  102570  102571+
+         102167  102166
CHEXA      82212       1  102570  102571  102167  102166  102574  102575+
+         102169  102168
CHEXA      82213       1  102574  102575  102169  102168  102578  102579+
+         102171  102170
CHEXA      82214       1  102578  102579  102171  102170  102582  102583+
+         102173  102172
CHEXA      82215       1  102582  102583  102173  102172  102586  102587+
+         102175  102174
CHEXA      82216       1  102586  102587  102175  102174  102590  102591+
+         102177  102176
CHEXA      82217       1  102590  102591  102177  102176  102594  102595+
+         102179  102178
CHEXA      82218       1  102594  102595  102179  102178  102598  102599+
+         102181  102180
CHEXA      82219       1  102598  102599  102181  102180  102602  102603+
+         102183  102182
CHEXA      82220       1  102602  102603  102183  102182  102606  102607+
+         102185  102184
CHEXA      82221       1  102606  102607  102185  102184  102610  102611+
+         102187  102186
CHEXA      82222       1  102610  102611  102187  102186  102614  102615+
+         102189  102188
CHEXA      82223       1  102614  102615  102189  102188  102618  102619+
+         102191  102190
CHEXA      82224       1  102618  102619  102191  102190  102622  102623+
+         102193  102192
CHEXA      82225       1  102622  102623  102193  102192  102626  102627+
+         102195  102194
CHEXA      82226       1  102626  102627  102195  102194  102630  102631+
+         102197  102196
CHEXA      82227       1  102630  102631  102197  102196  102634  102635+
+         102199  102198
CHEXA      82228       1  102634  102635  102199  102198  102638  102639+
+         102201  102200
CHEXA      82229       1  102638  102639  102201  102200  102642  102643+
+         102203  102202
CHEXA      82230       1  102642  102643  102203  102202  102646  102647+
+         102205  102204
CHEXA      82231       1  102646  102647  102205  102204  102650  102651+
+         102207  102206
CHEXA      82232       1  102650  102651  102207  102206  102654  102655+
+         102209  102208
CHEXA      82233       1  102654  102655  102209  102208  102658  102659+
+         102211  102210
CHEXA      82234       1  102658  102659  102211  102210  102662  102663+
+         102213  102212
CHEXA      82235       1  102662  102663  102213  102212  102666  102667+
+         102215  102214
CHEXA      82236       1  102666  102667  102215  102214  102670  102671+
+         102217  102216
CHEXA      82237       1  102670  102671  102217  102216  102674  102675+
+         102219  102218
CHEXA      82238       1  102674  102675  102219  102218  102678  102679+
+         102221  102220
CHEXA      82239       1  102678  102679  102221  102220  102682  102683+
+         102223  102222
CHEXA      82240       1  102682  102683  102223  102222  102686  102687+
+         102225  102224
CHEXA      82241       1  102686  102687  102225  102224  102690  102691+
+         102227  102226
CHEXA      82242       1  102690  102691  102227  102226  102694  102695+
+         102229  102228
CHEXA      82243       1  102694  102695  102229  102228  102698  102699+
+         102231  102230
CHEXA      82244       1  102698  102699  102231  102230  102702  102703+
+         102233  102232
CHEXA      82245       1  102702  102703  102233  102232  102706  102707+
+         102235  102234
CHEXA      82246       1  102706  102707  102235  102234  102710  102711+
+         102237  102236
CHEXA      82247       1  102710  102711  102237  102236  102714  102715+
+         102239  102238
CHEXA      82248       1  102714  102715  102239  102238  102718  102719+
+         102241  102240
CHEXA      82249       1  102718  102719  102241  102240  102722  102723+
+         102243  102242
CHEXA      82250       1  102722  102723  102243  102242  102726  102727+
+         102245  102244
CHEXA      82251       1  102726  102727  102245  102244  102730  102731+
+         102247  102246
CHEXA      82252       1  102730  102731  102247  102246  102734  102735+
+         102249  102248
CHEXA      82253       1  102734  102735  102249  102248  102738  102739+
+         102251  102250
CHEXA      82254       1  102738  102739  102251  102250  102742  102743+
+         102253  102252
CHEXA      82255       1  102742  102743  102253  102252  102746  102747+
+         102255  102254
CHEXA      82256       1  102746  102747  102255  102254  102750  102751+
+         102257  102256
CHEXA      82257       1  102750  102751  102257  102256  102754  102755+
+         102259  102258
CHEXA      82258       1  102754  102755  102259  102258  102758  102759+
+         102261  102260
CHEXA      82259       1  102758  102759  102261  102260  102762  102763+
+         102263  102262
CHEXA      82260       1  102762  102763  102263  102262  102766  102767+
+         102265  102264
CHEXA      82261       1  102766  102767  102265  102264  102770  102771+
+         102267  102266
CHEXA      82262       1  102770  102771  102267  102266  102774  102775+
+         102269  102268
CHEXA      82263       1  102774  102775  102269  102268  102778  102779+
+         102271  102270
CHEXA      82264       1  102778  102779  102271  102270  102782  102783+
+         102273  102272
CHEXA      82265       1  102782  102783  102273  102272  102786  102787+
+         102275  102274
CHEXA      82266       1  102786  102787  102275  102274  102790  102791+
+         102277  102276
CHEXA      82267       1  102790  102791  102277  102276  102794  102795+
+         102279  102278
CHEXA      82268       1  102794  102795  102279  102278  102798  102799+
+         102281  102280
CHEXA      82269       1  102798  102799  102281  102280  102802  102803+
+         102283  102282
CHEXA      82270       1  102802  102803  102283  102282  102806  102807+
+         102285  102284
CHEXA      82271       1  102806  102807  102285  102284  102810  102811+
+         102287  102286
CHEXA      82272       1  102810  102811  102287  102286  102814  102815+
+         102289  102288
CHEXA      82273       1  102814  102815  102289  102288  102818  102819+
+         102291  102290
CHEXA      82274       1  102818  102819  102291  102290  102822  102823+
+         102293  102292
CHEXA      82275       1  102822  102823  102293  102292  102826  102827+
+         102295  102294
CHEXA      82276       1  102826  102827  102295  102294  102830  102831+
+         102297  102296
CHEXA      82277       1  102830  102831  102297  102296  102834  102835+
+         102299  102298
CHEXA      82278       1  102834  102835  102299  102298  102838  102839+
+         102301  102300
CHEXA      82279       1  102838  102839  102301  102300  102842  102843+
+         102303  102302
CHEXA      82280       1  102842  102843  102303  102302  102846  102847+
+         102305  102304
CHEXA      82281       1  102846  102847  102305  102304  102850  102851+
+         102307  102306
CHEXA      82282       1  102850  102851  102307  102306  102854  102855+
+         102309  102308
CHEXA      82283       1  102854  102855  102309  102308  102858  102859+
+         102311  102310
CHEXA      82284       1  102858  102859  102311  102310  102862  102863+
+         102313  102312
CHEXA      82285       1  102862  102863  102313  102312  102866  102867+
+         102315  102314
CHEXA      82286       1  102866  102867  102315  102314  102870  102871+
+         102317  102316
CHEXA      82287       1  102870  102871  102317  102316  102874  102875+
+         102319  102318
CHEXA      82288       1  102874  102875  102319  102318  102878  102879+
+         102321  102320
CHEXA      82289       1  102878  102879  102321  102320  102882  102883+
+         102323  102322
CHEXA      82290       1  102882  102883  102323  102322  102886  102887+
+         102325  102324
CHEXA      82291       1  102886  102887  102325  102324  102890  102891+
+         102327  102326
CHEXA      82292       1  102890  102891  102327  102326  102894  102895+
+         102329  102328
CHEXA      82293       1  102894  102895  102329  102328  102898  102899+
+         102331  102330
CHEXA      82294       1  102898  102899  102331  102330  102902  102903+
+         102333  102332
CHEXA      82295       1  102902  102903  102333  102332  102906  102907+
+         102335  102334
CHEXA      82296       1  102906  102907  102335  102334  102910  102911+
+         102337  102336
CHEXA      82297       1  102910  102911  102337  102336  102914  102915+
+         102339  102338
CHEXA      82298       1  102914  102915  102339  102338  102918  102919+
+         102341  102340
CHEXA      82299       1  102918  102919  102341  102340  102922  102923+
+         102343  102342
CHEXA      82300       1  102922  102923  102343  102342  102926  102927+
+         102345  102344
CHEXA      82301       1  102926  102927  102345  102344  102930  102931+
+         102347  102346
CHEXA      82302       1  102930  102931  102347  102346  102934  102935+
+         102349  102348
CHEXA      82303       1  102934  102935  102349  102348  102938  102939+
+         102351  102350
CHEXA      82304       1  102938  102939  102351  102350  102942  102943+
+         102353  102352
CHEXA      82305       1  102942  102943  102353  102352  102946  102947+
+         102355  102354
CHEXA      82306       1  102946  102947  102355  102354  102950  102951+
+         102357  102356
CHEXA      82307       1  102950  102951  102357  102356  102954  102955+
+         102359  102358
CHEXA      82308       1  102954  102955  102359  102358  102958  102959+
+         102361  102360
CHEXA      82309       1  102958  102959  102361  102360  102962  102963+
+         102363  102362
CHEXA      82310       1  102962  102963  102363  102362  102966  102967+
+         102365  102364
CHEXA      82311       1  102966  102967  102365  102364  102970  102971+
+         102367  102366
CHEXA      82312       1  102970  102971  102367  102366  102974  102975+
+         102369  102368
CHEXA      82313       1  102974  102975  102369  102368  102978  102979+
+         102371  102370
CHEXA      82314       1  102978  102979  102371  102370  102982  102983+
+         102373  102372
CHEXA      82315       1  102982  102983  102373  102372  102986  102987+
+         102375  102374
CHEXA      82316       1  102986  102987  102375  102374  102990  102991+
+         102377  102376
CHEXA      82317       1  102990  102991  102377  102376  102994  102995+
+         102379  102378
CHEXA      82318       1  102994  102995  102379  102378  102998  102999+
+         102381  102380
CHEXA      82319       1  102998  102999  102381  102380  103002  103003+
+         102383  102382
CHEXA      82320       1  103002  103003  102383  102382  103006  103007+
+         102385  102384
CHEXA      82321       1  103006  103007  102385  102384  103010  103011+
+         102387  102386
CHEXA      82322       1  103010  103011  102387  102386  103014  103015+
+         102389  102388
CHEXA      82323       1  103014  103015  102389  102388  103018  103019+
+         102391  102390
CHEXA      82324       1  103018  103019  102391  102390  103022  103023+
+         102393  102392
CHEXA      82325       1  103022  103023  102393  102392  103026  103027+
+         102395  102394
CHEXA      82326       1  103026  103027  102395  102394  103030  103031+
+         102397  102396
CHEXA      82327       1  103030  103031  102397  102396  103034  103035+
+         102399  102398
CHEXA      82328       1  103034  103035  102399  102398  103038  103039+
+         102401  102400
CHEXA      82329       1  103038  103039  102401  102400  103042  103043+
+         102403  102402
CHEXA      82330       1  103042  103043  102403  102402  103046  103047+
+         102405  102404
CHEXA      82331       1  103046  103047  102405  102404  103050  103051+
+         102407  102406
CHEXA      82332       1  103050  103051  102407  102406  103054  103055+
+         102409  102408
CHEXA      82333       1  103054  103055  102409  102408  103058  103059+
+         102411  102410
CHEXA      82334       1  103058  103059  102411  102410  103062  103063+
+         102413  102412
CHEXA      82335       1  103062  103063  102413  102412  103066  103067+
+         102415  102414
CHEXA      82336       1  103066  103067  102415  102414  103070  103071+
+         102417  102416
CHEXA      82337       1  103070  103071  102417  102416  103074  103075+
+         102419  102418
CHEXA      82338       1  103074  103075  102419  102418  103078  103079+
+         102421  102420
CHEXA      82339       1  103078  103079  102421  102420  103082  103083+
+         102423  102422
CHEXA      82340       1  103082  103083  102423  102422  103086  103087+
+         102425  102424
CHEXA      82341       1  103086  103087  102425  102424  103090  103091+
+         102427  102426
CHEXA      82342       1  103090  103091  102427  102426  103094  103095+
+         102429  102428
CHEXA      82343       1  103094  103095  102429  102428  103098  103099+
+         102431  102430
CHEXA      82344       1  103098  103099  102431  102430  103102  103103+
+         102433  102432
CHEXA      82345       1  103102  103103  102433  102432  103106  103107+
+         102435  102434
CHEXA      82346       1  103106  103107  102435  102434  103110  103111+
+         102437  102436
CHEXA      82347       1  103110  103111  102437  102436  103114  103115+
+         102439  102438
CHEXA      82348       1  103114  103115  102439  102438  103118  103119+
+         102441  102440
CHEXA      82349       1  103118  103119  102441  102440  103122  103123+
+         102443  102442
CHEXA      82350       1  103122  103123  102443  102442  103126  103127+
+         102445  102444
CHEXA      82351       1  103126  103127  102445  102444  103130  103131+
+         102447  102446
CHEXA      82352       1  103130  103131  102447  102446  103134  103135+
+         102449  102448
CHEXA      82353       1  103134  103135  102449  102448  103138  103139+
+         102451  102450
CHEXA      82354       1  103138  103139  102451  102450  103142  103143+
+         102453  102452
CHEXA      82355       1  103142  103143  102453  102452  103146  103147+
+         102455  102454
CHEXA      82356       1  103146  103147  102455  102454  103150  103151+
+         102457  102456
CHEXA      82357       1  103150  103151  102457  102456  103154  103155+
+         102459  102458
CHEXA      82358       1  103154  103155  102459  102458  103158  103159+
+         102461  102460
CHEXA      82359       1  103158  103159  102461  102460  103162  103163+
+         102463  102462
CHEXA      82360       1  103162  103163  102463  102462  103166  103167+
+         102465  102464
CHEXA      82361       1  103166  103167  102465  102464  103170  103171+
+         102467  102466
CHEXA      82362       1  103170  103171  102467  102466  103174  103175+
+         102469  102468
CHEXA      82363       1  103174  103175  102469  102468  103178  103179+
+         102471  102470
CHEXA      82364       1  103178  103179  102471  102470  103182  103183+
+         102473  102472
CHEXA      82365       1  103182  103183  102473  102472  103186  103187+
+         102475  102474
CHEXA      82366       1  103186  103187  102475  102474  103190  103191+
+         102477  102476
CHEXA      82367       1  103190  103191  102477  102476  103194  103195+
+         102479  102478
CHEXA      82368       1  103194  103195  102479  102478  103198  103199+
+         102481  102480
CHEXA      82369       1  103198  103199  102481  102480  103202  103203+
+         102483  102482
CHEXA      82370       1  103202  103203  102483  102482  103206  103207+
+         102485  102484
CHEXA      82371       1  103206  103207  102485  102484  103210  103211+
+         102487  102486
CHEXA      82372       1  103210  103211  102487  102486  103214  103215+
+         102489  102488
CHEXA      82373       1  103214  103215  102489  102488  103218  103219+
+         102491  102490
CHEXA      82374       1  103218  103219  102491  102490  103222  103223+
+         102493  102492
CHEXA      82375       1  103222  103223  102493  102492  103226  103227+
+         102495  102494
CHEXA      82376       1  103226  103227  102495  102494  103230  103231+
+         102497  102496
CHEXA      82377       1  103230  103231  102497  102496  103234  103235+
+         102499  102498
CHEXA      82378       1  103234  103235  102499  102498  103238  103239+
+         102501  102500
CHEXA      82379       1  103238  103239  102501  102500  103242  103243+
+         102503  102502
CHEXA      82380       1  103242  103243  102503  102502  103246  103247+
+         102505  102504
CHEXA      82381       1  103246  103247  102505  102504  103250  103251+
+         102507  102506
CHEXA      82382       1  103250  103251  102507  102506  103254  103255+
+         102509  102508
CHEXA      82383       1  103254  103255  102509  102508  103258  103259+
+         102511  102510
CHEXA      82384       1  103258  103259  102511  102510  103262  103263+
+         102513  102512
CHEXA      82385       1  103262  103263  102513  102512  103266  103267+
+         102515  102514
CHEXA      82386       1  103266  103267  102515  102514  103270  103271+
+         102517  102516
CHEXA      82387       1  103270  103271  102517  102516  103274  103275+
+         102519  102518
CHEXA      82388       1  103274  103275  102519  102518  103278  103279+
+         102521  102520
CHEXA      82389       1  103278  103279  102521  102520  103282  103283+
+         102523  102522
CHEXA      82390       1  103282  103283  102523  102522  103286  103287+
+         102525  102524
CHEXA      82391       1  103286  103287  102525  102524  103290  103291+
+         102527  102526
CHEXA      82392       1  103290  103291  102527  102526  103294  103295+
+         102529  102528
CHEXA      82393       1  103294  103295  102529  102528  103298  103299+
+         102531  102530
CHEXA      82394       1  103298  103299  102531  102530  103302  103303+
+         102533  102532
CHEXA      82395       1  103302  103303  102533  102532  103306  103307+
+         102535  102534
CHEXA      82396       1  103306  103307  102535  102534  103310  103311+
+         102537  102536
CHEXA      82397       1  103310  103311  102537  102536  103314  103315+
+         102539  102538
CHEXA      82398       1  103314  103315  102539  102538  103318  103319+
+         102541  102540
CHEXA      82399       1  103318  103319  102541  102540  103322  103323+
+         102543  102542
CHEXA      82400       1  103322  103323  102543  102542  103326  103327+
+         102545  102544
CHEXA      82401       1  103326  103327  102545  102544  103330  103331+
+         102547  102546
CHEXA      82402       1  103330  103331  102547  102546  103334  103335+
+         102549  102548
CHEXA      82403       1  103334  103335  102549  102548  103338  103339+
+         102551  102550
CHEXA      82404       1  103338  103339  102551  102550  103342  103343+
+         102553  102552
CHEXA      82405       1  103342  103343  102553  102552  103346  103347+
+         102555  102554
CHEXA      82406       1  103346  103347  102555  102554  103350  103351+
+         102557  102556
CHEXA      82407       1  103350  103351  102557  102556  103354  103355+
+         102559  102558
CHEXA      82408       1  103354  103355  102559  102558  103358  103359+
+         102561  102560
CHEXA      82409       1  103358  103359  102561  102560  102562  102563+
+         100969  100968
CHEXA      82410       1   96924   96943   96960   96953  102567  101368+
+         100762  102165
CHEXA      82411       1  102567  101368  100762  102165  102571  101370+
+         100761  102167
CHEXA      82412       1  102571  101370  100761  102167  102575  101372+
+         100760  102169
CHEXA      82413       1  102575  101372  100760  102169  102579  101374+
+         100759  102171
CHEXA      82414       1  102579  101374  100759  102171  102583  101376+
+         100758  102173
CHEXA      82415       1  102583  101376  100758  102173  102587  101378+
+         100757  102175
CHEXA      82416       1  102587  101378  100757  102175  102591  101380+
+         100756  102177
CHEXA      82417       1  102591  101380  100756  102177  102595  101382+
+         100755  102179
CHEXA      82418       1  102595  101382  100755  102179  102599  101384+
+         100754  102181
CHEXA      82419       1  102599  101384  100754  102181  102603  101386+
+         100753  102183
CHEXA      82420       1  102603  101386  100753  102183  102607  101388+
+         100752  102185
CHEXA      82421       1  102607  101388  100752  102185  102611  101390+
+         100751  102187
CHEXA      82422       1  102611  101390  100751  102187  102615  101392+
+         100750  102189
CHEXA      82423       1  102615  101392  100750  102189  102619  101394+
+         100749  102191
CHEXA      82424       1  102619  101394  100749  102191  102623  101396+
+         100748  102193
CHEXA      82425       1  102623  101396  100748  102193  102627  101398+
+         100747  102195
CHEXA      82426       1  102627  101398  100747  102195  102631  101400+
+         100746  102197
CHEXA      82427       1  102631  101400  100746  102197  102635  101402+
+         100745  102199
CHEXA      82428       1  102635  101402  100745  102199  102639  101404+
+         100744  102201
CHEXA      82429       1  102639  101404  100744  102201  102643  101406+
+         100743  102203
CHEXA      82430       1  102643  101406  100743  102203  102647  101408+
+         100742  102205
CHEXA      82431       1  102647  101408  100742  102205  102651  101410+
+         100741  102207
CHEXA      82432       1  102651  101410  100741  102207  102655  101412+
+         100740  102209
CHEXA      82433       1  102655  101412  100740  102209  102659  101414+
+         100739  102211
CHEXA      82434       1  102659  101414  100739  102211  102663  101416+
+         100738  102213
CHEXA      82435       1  102663  101416  100738  102213  102667  101418+
+         100737  102215
CHEXA      82436       1  102667  101418  100737  102215  102671  101420+
+         100736  102217
CHEXA      82437       1  102671  101420  100736  102217  102675  101422+
+         100735  102219
CHEXA      82438       1  102675  101422  100735  102219  102679  101424+
+         100734  102221
CHEXA      82439       1  102679  101424  100734  102221  102683  101426+
+         100733  102223
CHEXA      82440       1  102683  101426  100733  102223  102687  101428+
+         100732  102225
CHEXA      82441       1  102687  101428  100732  102225  102691  101430+
+         100731  102227
CHEXA      82442       1  102691  101430  100731  102227  102695  101432+
+         100730  102229
CHEXA      82443       1  102695  101432  100730  102229  102699  101434+
+         100729  102231
CHEXA      82444       1  102699  101434  100729  102231  102703  101436+
+         100728  102233
CHEXA      82445       1  102703  101436  100728  102233  102707  101438+
+         100727  102235
CHEXA      82446       1  102707  101438  100727  102235  102711  101440+
+         100726  102237
CHEXA      82447       1  102711  101440  100726  102237  102715  101442+
+         100725  102239
CHEXA      82448       1  102715  101442  100725  102239  102719  101444+
+         100724  102241
CHEXA      82449       1  102719  101444  100724  102241  102723  101446+
+         100723  102243
CHEXA      82450       1  102723  101446  100723  102243  102727  101448+
+         100722  102245
CHEXA      82451       1  102727  101448  100722  102245  102731  101450+
+         100721  102247
CHEXA      82452       1  102731  101450  100721  102247  102735  101452+
+         100720  102249
CHEXA      82453       1  102735  101452  100720  102249  102739  101454+
+         100719  102251
CHEXA      82454       1  102739  101454  100719  102251  102743  101456+
+         100718  102253
CHEXA      82455       1  102743  101456  100718  102253  102747  101458+
+         100717  102255
CHEXA      82456       1  102747  101458  100717  102255  102751  101460+
+         100716  102257
CHEXA      82457       1  102751  101460  100716  102257  102755  101462+
+         100715  102259
CHEXA      82458       1  102755  101462  100715  102259  102759  101464+
+         100714  102261
CHEXA      82459       1  102759  101464  100714  102261  102763  101466+
+         100713  102263
CHEXA      82460       1  102763  101466  100713  102263  102767  101468+
+         100712  102265
CHEXA      82461       1  102767  101468  100712  102265  102771  101470+
+         100711  102267
CHEXA      82462       1  102771  101470  100711  102267  102775  101472+
+         100710  102269
CHEXA      82463       1  102775  101472  100710  102269  102779  101474+
+         100709  102271
CHEXA      82464       1  102779  101474  100709  102271  102783  101476+
+         100708  102273
CHEXA      82465       1  102783  101476  100708  102273  102787  101478+
+         100707  102275
CHEXA      82466       1  102787  101478  100707  102275  102791  101480+
+         100706  102277
CHEXA      82467       1  102791  101480  100706  102277  102795  101482+
+         100705  102279
CHEXA      82468       1  102795  101482  100705  102279  102799  101484+
+         100704  102281
CHEXA      82469       1  102799  101484  100704  102281  102803  101486+
+         100703  102283
CHEXA      82470       1  102803  101486  100703  102283  102807  101488+
+         100702  102285
CHEXA      82471       1  102807  101488  100702  102285  102811  101490+
+         100701  102287
CHEXA      82472       1  102811  101490  100701  102287  102815  101492+
+         100700  102289
CHEXA      82473       1  102815  101492  100700  102289  102819  101494+
+         100699  102291
CHEXA      82474       1  102819  101494  100699  102291  102823  101496+
+         100698  102293
CHEXA      82475       1  102823  101496  100698  102293  102827  101498+
+         100697  102295
CHEXA      82476       1  102827  101498  100697  102295  102831  101500+
+         100696  102297
CHEXA      82477       1  102831  101500  100696  102297  102835  101502+
+         100695  102299
CHEXA      82478       1  102835  101502  100695  102299  102839  101504+
+         100694  102301
CHEXA      82479       1  102839  101504  100694  102301  102843  101506+
+         100693  102303
CHEXA      82480       1  102843  101506  100693  102303  102847  101508+
+         100692  102305
CHEXA      82481       1  102847  101508  100692  102305  102851  101510+
+         100691  102307
CHEXA      82482       1  102851  101510  100691  102307  102855  101512+
+         100690  102309
CHEXA      82483       1  102855  101512  100690  102309  102859  101514+
+         100689  102311
CHEXA      82484       1  102859  101514  100689  102311  102863  101516+
+         100688  102313
CHEXA      82485       1  102863  101516  100688  102313  102867  101518+
+         100687  102315
CHEXA      82486       1  102867  101518  100687  102315  102871  101520+
+         100686  102317
CHEXA      82487       1  102871  101520  100686  102317  102875  101522+
+         100685  102319
CHEXA      82488       1  102875  101522  100685  102319  102879  101524+
+         100684  102321
CHEXA      82489       1  102879  101524  100684  102321  102883  101526+
+         100683  102323
CHEXA      82490       1  102883  101526  100683  102323  102887  101528+
+         100682  102325
CHEXA      82491       1  102887  101528  100682  102325  102891  101530+
+         100681  102327
CHEXA      82492       1  102891  101530  100681  102327  102895  101532+
+         100680  102329
CHEXA      82493       1  102895  101532  100680  102329  102899  101534+
+         100679  102331
CHEXA      82494       1  102899  101534  100679  102331  102903  101536+
+         100678  102333
CHEXA      82495       1  102903  101536  100678  102333  102907  101538+
+         100677  102335
CHEXA      82496       1  102907  101538  100677  102335  102911  101540+
+         100676  102337
CHEXA      82497       1  102911  101540  100676  102337  102915  101542+
+         100675  102339
CHEXA      82498       1  102915  101542  100675  102339  102919  101544+
+         100674  102341
CHEXA      82499       1  102919  101544  100674  102341  102923  101546+
+         100673  102343
CHEXA      82500       1  102923  101546  100673  102343  102927  101548+
+         100672  102345
CHEXA      82501       1  102927  101548  100672  102345  102931  101550+
+         100671  102347
CHEXA      82502       1  102931  101550  100671  102347  102935  101552+
+         100670  102349
CHEXA      82503       1  102935  101552  100670  102349  102939  101554+
+         100669  102351
CHEXA      82504       1  102939  101554  100669  102351  102943  101556+
+         100668  102353
CHEXA      82505       1  102943  101556  100668  102353  102947  101558+
+         100667  102355
CHEXA      82506       1  102947  101558  100667  102355  102951  101560+
+         100666  102357
CHEXA      82507       1  102951  101560  100666  102357  102955  101562+
+         100665  102359
CHEXA      82508       1  102955  101562  100665  102359  102959  101564+
+         100664  102361
CHEXA      82509       1  102959  101564  100664  102361  102963  101566+
+         100663  102363
CHEXA      82510       1  102963  101566  100663  102363  102967  101568+
+         100662  102365
CHEXA      82511       1  102967  101568  100662  102365  102971  101570+
+         100661  102367
CHEXA      82512       1  102971  101570  100661  102367  102975  101572+
+         100660  102369
CHEXA      82513       1  102975  101572  100660  102369  102979  101574+
+         100659  102371
CHEXA      82514       1  102979  101574  100659  102371  102983  101576+
+         100658  102373
CHEXA      82515       1  102983  101576  100658  102373  102987  101578+
+         100657  102375
CHEXA      82516       1  102987  101578  100657  102375  102991  101580+
+         100656  102377
CHEXA      82517       1  102991  101580  100656  102377  102995  101582+
+         100655  102379
CHEXA      82518       1  102995  101582  100655  102379  102999  101584+
+         100654  102381
CHEXA      82519       1  102999  101584  100654  102381  103003  101586+
+         100653  102383
CHEXA      82520       1  103003  101586  100653  102383  103007  101588+
+         100652  102385
CHEXA      82521       1  103007  101588  100652  102385  103011  101590+
+         100651  102387
CHEXA      82522       1  103011  101590  100651  102387  103015  101592+
+         100650  102389
CHEXA      82523       1  103015  101592  100650  102389  103019  101594+
+         100649  102391
CHEXA      82524       1  103019  101594  100649  102391  103023  101596+
+         100648  102393
CHEXA      82525       1  103023  101596  100648  102393  103027  101598+
+         100647  102395
CHEXA      82526       1  103027  101598  100647  102395  103031  101600+
+         100646  102397
CHEXA      82527       1  103031  101600  100646  102397  103035  101602+
+         100645  102399
CHEXA      82528       1  103035  101602  100645  102399  103039  101604+
+         100644  102401
CHEXA      82529       1  103039  101604  100644  102401  103043  101606+
+         100643  102403
CHEXA      82530       1  103043  101606  100643  102403  103047  101608+
+         100642  102405
CHEXA      82531       1  103047  101608  100642  102405  103051  101610+
+         100641  102407
CHEXA      82532       1  103051  101610  100641  102407  103055  101612+
+         100640  102409
CHEXA      82533       1  103055  101612  100640  102409  103059  101614+
+         100639  102411
CHEXA      82534       1  103059  101614  100639  102411  103063  101616+
+         100638  102413
CHEXA      82535       1  103063  101616  100638  102413  103067  101618+
+         100637  102415
CHEXA      82536       1  103067  101618  100637  102415  103071  101620+
+         100636  102417
CHEXA      82537       1  103071  101620  100636  102417  103075  101622+
+         100635  102419
CHEXA      82538       1  103075  101622  100635  102419  103079  101624+
+         100634  102421
CHEXA      82539       1  103079  101624  100634  102421  103083  101626+
+         100633  102423
CHEXA      82540       1  103083  101626  100633  102423  103087  101628+
+         100632  102425
CHEXA      82541       1  103087  101628  100632  102425  103091  101630+
+         100631  102427
CHEXA      82542       1  103091  101630  100631  102427  103095  101632+
+         100630  102429
CHEXA      82543       1  103095  101632  100630  102429  103099  101634+
+         100629  102431
CHEXA      82544       1  103099  101634  100629  102431  103103  101636+
+         100628  102433
CHEXA      82545       1  103103  101636  100628  102433  103107  101638+
+         100627  102435
CHEXA      82546       1  103107  101638  100627  102435  103111  101640+
+         100626  102437
CHEXA      82547       1  103111  101640  100626  102437  103115  101642+
+         100625  102439
CHEXA      82548       1  103115  101642  100625  102439  103119  101644+
+         100624  102441
CHEXA      82549       1  103119  101644  100624  102441  103123  101646+
+         100623  102443
CHEXA      82550       1  103123  101646  100623  102443  103127  101648+
+         100622  102445
CHEXA      82551       1  103127  101648  100622  102445  103131  101650+
+         100621  102447
CHEXA      82552       1  103131  101650  100621  102447  103135  101652+
+         100620  102449
CHEXA      82553       1  103135  101652  100620  102449  103139  101654+
+         100619  102451
CHEXA      82554       1  103139  101654  100619  102451  103143  101656+
+         100618  102453
CHEXA      82555       1  103143  101656  100618  102453  103147  101658+
+         100617  102455
CHEXA      82556       1  103147  101658  100617  102455  103151  101660+
+         100616  102457
CHEXA      82557       1  103151  101660  100616  102457  103155  101662+
+         100615  102459
CHEXA      82558       1  103155  101662  100615  102459  103159  101664+
+         100614  102461
CHEXA      82559       1  103159  101664  100614  102461  103163  101666+
+         100613  102463
CHEXA      82560       1  103163  101666  100613  102463  103167  101668+
+         100612  102465
CHEXA      82561       1  103167  101668  100612  102465  103171  101670+
+         100611  102467
CHEXA      82562       1  103171  101670  100611  102467  103175  101672+
+         100610  102469
CHEXA      82563       1  103175  101672  100610  102469  103179  101674+
+         100609  102471
CHEXA      82564       1  103179  101674  100609  102471  103183  101676+
+         100608  102473
CHEXA      82565       1  103183  101676  100608  102473  103187  101678+
+         100607  102475
CHEXA      82566       1  103187  101678  100607  102475  103191  101680+
+         100606  102477
CHEXA      82567       1  103191  101680  100606  102477  103195  101682+
+         100605  102479
CHEXA      82568       1  103195  101682  100605  102479  103199  101684+
+         100604  102481
CHEXA      82569       1  103199  101684  100604  102481  103203  101686+
+         100603  102483
CHEXA      82570       1  103203  101686  100603  102483  103207  101688+
+         100602  102485
CHEXA      82571       1  103207  101688  100602  102485  103211  101690+
+         100601  102487
CHEXA      82572       1  103211  101690  100601  102487  103215  101692+
+         100600  102489
CHEXA      82573       1  103215  101692  100600  102489  103219  101694+
+         100599  102491
CHEXA      82574       1  103219  101694  100599  102491  103223  101696+
+         100598  102493
CHEXA      82575       1  103223  101696  100598  102493  103227  101698+
+         100597  102495
CHEXA      82576       1  103227  101698  100597  102495  103231  101700+
+         100596  102497
CHEXA      82577       1  103231  101700  100596  102497  103235  101702+
+         100595  102499
CHEXA      82578       1  103235  101702  100595  102499  103239  101704+
+         100594  102501
CHEXA      82579       1  103239  101704  100594  102501  103243  101706+
+         100593  102503
CHEXA      82580       1  103243  101706  100593  102503  103247  101708+
+         100592  102505
CHEXA      82581       1  103247  101708  100592  102505  103251  101710+
+         100591  102507
CHEXA      82582       1  103251  101710  100591  102507  103255  101712+
+         100590  102509
CHEXA      82583       1  103255  101712  100590  102509  103259  101714+
+         100589  102511
CHEXA      82584       1  103259  101714  100589  102511  103263  101716+
+         100588  102513
CHEXA      82585       1  103263  101716  100588  102513  103267  101718+
+         100587  102515
CHEXA      82586       1  103267  101718  100587  102515  103271  101720+
+         100586  102517
CHEXA      82587       1  103271  101720  100586  102517  103275  101722+
+         100585  102519
CHEXA      82588       1  103275  101722  100585  102519  103279  101724+
+         100584  102521
CHEXA      82589       1  103279  101724  100584  102521  103283  101726+
+         100583  102523
CHEXA      82590       1  103283  101726  100583  102523  103287  101728+
+         100582  102525
CHEXA      82591       1  103287  101728  100582  102525  103291  101730+
+         100581  102527
CHEXA      82592       1  103291  101730  100581  102527  103295  101732+
+         100580  102529
CHEXA      82593       1  103295  101732  100580  102529  103299  101734+
+         100579  102531
CHEXA      82594       1  103299  101734  100579  102531  103303  101736+
+         100578  102533
CHEXA      82595       1  103303  101736  100578  102533  103307  101738+
+         100577  102535
CHEXA      82596       1  103307  101738  100577  102535  103311  101740+
+         100576  102537
CHEXA      82597       1  103311  101740  100576  102537  103315  101742+
+         100575  102539
CHEXA      82598       1  103315  101742  100575  102539  103319  101744+
+         100574  102541
CHEXA      82599       1  103319  101744  100574  102541  103323  101746+
+         100573  102543
CHEXA      82600       1  103323  101746  100573  102543  103327  101748+
+         100572  102545
CHEXA      82601       1  103327  101748  100572  102545  103331  101750+
+         100571  102547
CHEXA      82602       1  103331  101750  100571  102547  103335  101752+
+         100570  102549
CHEXA      82603       1  103335  101752  100570  102549  103339  101754+
+         100569  102551
CHEXA      82604       1  103339  101754  100569  102551  103343  101756+
+         100568  102553
CHEXA      82605       1  103343  101756  100568  102553  103347  101758+
+         100567  102555
CHEXA      82606       1  103347  101758  100567  102555  103351  101760+
+         100566  102557
CHEXA      82607       1  103351  101760  100566  102557  103355  101762+
+         100565  102559
CHEXA      82608       1  103355  101762  100565  102559  103359  101764+
+         100564  102561
CHEXA      82609       1  103359  101764  100564  102561  102563  100964+
+         100164  100969
CHEXA      82610       1   96925   96944   96943   96924  102568  101369+
+         101368  102567
CHEXA      82611       1  102568  101369  101368  102567  102572  101371+
+         101370  102571
CHEXA      82612       1  102572  101371  101370  102571  102576  101373+
+         101372  102575
CHEXA      82613       1  102576  101373  101372  102575  102580  101375+
+         101374  102579
CHEXA      82614       1  102580  101375  101374  102579  102584  101377+
+         101376  102583
CHEXA      82615       1  102584  101377  101376  102583  102588  101379+
+         101378  102587
CHEXA      82616       1  102588  101379  101378  102587  102592  101381+
+         101380  102591
CHEXA      82617       1  102592  101381  101380  102591  102596  101383+
+         101382  102595
CHEXA      82618       1  102596  101383  101382  102595  102600  101385+
+         101384  102599
CHEXA      82619       1  102600  101385  101384  102599  102604  101387+
+         101386  102603
CHEXA      82620       1  102604  101387  101386  102603  102608  101389+
+         101388  102607
CHEXA      82621       1  102608  101389  101388  102607  102612  101391+
+         101390  102611
CHEXA      82622       1  102612  101391  101390  102611  102616  101393+
+         101392  102615
CHEXA      82623       1  102616  101393  101392  102615  102620  101395+
+         101394  102619
CHEXA      82624       1  102620  101395  101394  102619  102624  101397+
+         101396  102623
CHEXA      82625       1  102624  101397  101396  102623  102628  101399+
+         101398  102627
CHEXA      82626       1  102628  101399  101398  102627  102632  101401+
+         101400  102631
CHEXA      82627       1  102632  101401  101400  102631  102636  101403+
+         101402  102635
CHEXA      82628       1  102636  101403  101402  102635  102640  101405+
+         101404  102639
CHEXA      82629       1  102640  101405  101404  102639  102644  101407+
+         101406  102643
CHEXA      82630       1  102644  101407  101406  102643  102648  101409+
+         101408  102647
CHEXA      82631       1  102648  101409  101408  102647  102652  101411+
+         101410  102651
CHEXA      82632       1  102652  101411  101410  102651  102656  101413+
+         101412  102655
CHEXA      82633       1  102656  101413  101412  102655  102660  101415+
+         101414  102659
CHEXA      82634       1  102660  101415  101414  102659  102664  101417+
+         101416  102663
CHEXA      82635       1  102664  101417  101416  102663  102668  101419+
+         101418  102667
CHEXA      82636       1  102668  101419  101418  102667  102672  101421+
+         101420  102671
CHEXA      82637       1  102672  101421  101420  102671  102676  101423+
+         101422  102675
CHEXA      82638       1  102676  101423  101422  102675  102680  101425+
+         101424  102679
CHEXA      82639       1  102680  101425  101424  102679  102684  101427+
+         101426  102683
CHEXA      82640       1  102684  101427  101426  102683  102688  101429+
+         101428  102687
CHEXA      82641       1  102688  101429  101428  102687  102692  101431+
+         101430  102691
CHEXA      82642       1  102692  101431  101430  102691  102696  101433+
+         101432  102695
CHEXA      82643       1  102696  101433  101432  102695  102700  101435+
+         101434  102699
CHEXA      82644       1  102700  101435  101434  102699  102704  101437+
+         101436  102703
CHEXA      82645       1  102704  101437  101436  102703  102708  101439+
+         101438  102707
CHEXA      82646       1  102708  101439  101438  102707  102712  101441+
+         101440  102711
CHEXA      82647       1  102712  101441  101440  102711  102716  101443+
+         101442  102715
CHEXA      82648       1  102716  101443  101442  102715  102720  101445+
+         101444  102719
CHEXA      82649       1  102720  101445  101444  102719  102724  101447+
+         101446  102723
CHEXA      82650       1  102724  101447  101446  102723  102728  101449+
+         101448  102727
CHEXA      82651       1  102728  101449  101448  102727  102732  101451+
+         101450  102731
CHEXA      82652       1  102732  101451  101450  102731  102736  101453+
+         101452  102735
CHEXA      82653       1  102736  101453  101452  102735  102740  101455+
+         101454  102739
CHEXA      82654       1  102740  101455  101454  102739  102744  101457+
+         101456  102743
CHEXA      82655       1  102744  101457  101456  102743  102748  101459+
+         101458  102747
CHEXA      82656       1  102748  101459  101458  102747  102752  101461+
+         101460  102751
CHEXA      82657       1  102752  101461  101460  102751  102756  101463+
+         101462  102755
CHEXA      82658       1  102756  101463  101462  102755  102760  101465+
+         101464  102759
CHEXA      82659       1  102760  101465  101464  102759  102764  101467+
+         101466  102763
CHEXA      82660       1  102764  101467  101466  102763  102768  101469+
+         101468  102767
CHEXA      82661       1  102768  101469  101468  102767  102772  101471+
+         101470  102771
CHEXA      82662       1  102772  101471  101470  102771  102776  101473+
+         101472  102775
CHEXA      82663       1  102776  101473  101472  102775  102780  101475+
+         101474  102779
CHEXA      82664       1  102780  101475  101474  102779  102784  101477+
+         101476  102783
CHEXA      82665       1  102784  101477  101476  102783  102788  101479+
+         101478  102787
CHEXA      82666       1  102788  101479  101478  102787  102792  101481+
+         101480  102791
CHEXA      82667       1  102792  101481  101480  102791  102796  101483+
+         101482  102795
CHEXA      82668       1  102796  101483  101482  102795  102800  101485+
+         101484  102799
CHEXA      82669       1  102800  101485  101484  102799  102804  101487+
+         101486  102803
CHEXA      82670       1  102804  101487  101486  102803  102808  101489+
+         101488  102807
CHEXA      82671       1  102808  101489  101488  102807  102812  101491+
+         101490  102811
CHEXA      82672       1  102812  101491  101490  102811  102816  101493+
+         101492  102815
CHEXA      82673       1  102816  101493  101492  102815  102820  101495+
+         101494  102819
CHEXA      82674       1  102820  101495  101494  102819  102824  101497+
+         101496  102823
CHEXA      82675       1  102824  101497  101496  102823  102828  101499+
+         101498  102827
CHEXA      82676       1  102828  101499  101498  102827  102832  101501+
+         101500  102831
CHEXA      82677       1  102832  101501  101500  102831  102836  101503+
+         101502  102835
CHEXA      82678       1  102836  101503  101502  102835  102840  101505+
+         101504  102839
CHEXA      82679       1  102840  101505  101504  102839  102844  101507+
+         101506  102843
CHEXA      82680       1  102844  101507  101506  102843  102848  101509+
+         101508  102847
CHEXA      82681       1  102848  101509  101508  102847  102852  101511+
+         101510  102851
CHEXA      82682       1  102852  101511  101510  102851  102856  101513+
+         101512  102855
CHEXA      82683       1  102856  101513  101512  102855  102860  101515+
+         101514  102859
CHEXA      82684       1  102860  101515  101514  102859  102864  101517+
+         101516  102863
CHEXA      82685       1  102864  101517  101516  102863  102868  101519+
+         101518  102867
CHEXA      82686       1  102868  101519  101518  102867  102872  101521+
+         101520  102871
CHEXA      82687       1  102872  101521  101520  102871  102876  101523+
+         101522  102875
CHEXA      82688       1  102876  101523  101522  102875  102880  101525+
+         101524  102879
CHEXA      82689       1  102880  101525  101524  102879  102884  101527+
+         101526  102883
CHEXA      82690       1  102884  101527  101526  102883  102888  101529+
+         101528  102887
CHEXA      82691       1  102888  101529  101528  102887  102892  101531+
+         101530  102891
CHEXA      82692       1  102892  101531  101530  102891  102896  101533+
+         101532  102895
CHEXA      82693       1  102896  101533  101532  102895  102900  101535+
+         101534  102899
CHEXA      82694       1  102900  101535  101534  102899  102904  101537+
+         101536  102903
CHEXA      82695       1  102904  101537  101536  102903  102908  101539+
+         101538  102907
CHEXA      82696       1  102908  101539  101538  102907  102912  101541+
+         101540  102911
CHEXA      82697       1  102912  101541  101540  102911  102916  101543+
+         101542  102915
CHEXA      82698       1  102916  101543  101542  102915  102920  101545+
+         101544  102919
CHEXA      82699       1  102920  101545  101544  102919  102924  101547+
+         101546  102923
CHEXA      82700       1  102924  101547  101546  102923  102928  101549+
+         101548  102927
CHEXA      82701       1  102928  101549  101548  102927  102932  101551+
+         101550  102931
CHEXA      82702       1  102932  101551  101550  102931  102936  101553+
+         101552  102935
CHEXA      82703       1  102936  101553  101552  102935  102940  101555+
+         101554  102939
CHEXA      82704       1  102940  101555  101554  102939  102944  101557+
+         101556  102943
CHEXA      82705       1  102944  101557  101556  102943  102948  101559+
+         101558  102947
CHEXA      82706       1  102948  101559  101558  102947  102952  101561+
+         101560  102951
CHEXA      82707       1  102952  101561  101560  102951  102956  101563+
+         101562  102955
CHEXA      82708       1  102956  101563  101562  102955  102960  101565+
+         101564  102959
CHEXA      82709       1  102960  101565  101564  102959  102964  101567+
+         101566  102963
CHEXA      82710       1  102964  101567  101566  102963  102968  101569+
+         101568  102967
CHEXA      82711       1  102968  101569  101568  102967  102972  101571+
+         101570  102971
CHEXA      82712       1  102972  101571  101570  102971  102976  101573+
+         101572  102975
CHEXA      82713       1  102976  101573  101572  102975  102980  101575+
+         101574  102979
CHEXA      82714       1  102980  101575  101574  102979  102984  101577+
+         101576  102983
CHEXA      82715       1  102984  101577  101576  102983  102988  101579+
+         101578  102987
CHEXA      82716       1  102988  101579  101578  102987  102992  101581+
+         101580  102991
CHEXA      82717       1  102992  101581  101580  102991  102996  101583+
+         101582  102995
CHEXA      82718       1  102996  101583  101582  102995  103000  101585+
+         101584  102999
CHEXA      82719       1  103000  101585  101584  102999  103004  101587+
+         101586  103003
CHEXA      82720       1  103004  101587  101586  103003  103008  101589+
+         101588  103007
CHEXA      82721       1  103008  101589  101588  103007  103012  101591+
+         101590  103011
CHEXA      82722       1  103012  101591  101590  103011  103016  101593+
+         101592  103015
CHEXA      82723       1  103016  101593  101592  103015  103020  101595+
+         101594  103019
CHEXA      82724       1  103020  101595  101594  103019  103024  101597+
+         101596  103023
CHEXA      82725       1  103024  101597  101596  103023  103028  101599+
+         101598  103027
CHEXA      82726       1  103028  101599  101598  103027  103032  101601+
+         101600  103031
CHEXA      82727       1  103032  101601  101600  103031  103036  101603+
+         101602  103035
CHEXA      82728       1  103036  101603  101602  103035  103040  101605+
+         101604  103039
CHEXA      82729       1  103040  101605  101604  103039  103044  101607+
+         101606  103043
CHEXA      82730       1  103044  101607  101606  103043  103048  101609+
+         101608  103047
CHEXA      82731       1  103048  101609  101608  103047  103052  101611+
+         101610  103051
CHEXA      82732       1  103052  101611  101610  103051  103056  101613+
+         101612  103055
CHEXA      82733       1  103056  101613  101612  103055  103060  101615+
+         101614  103059
CHEXA      82734       1  103060  101615  101614  103059  103064  101617+
+         101616  103063
CHEXA      82735       1  103064  101617  101616  103063  103068  101619+
+         101618  103067
CHEXA      82736       1  103068  101619  101618  103067  103072  101621+
+         101620  103071
CHEXA      82737       1  103072  101621  101620  103071  103076  101623+
+         101622  103075
CHEXA      82738       1  103076  101623  101622  103075  103080  101625+
+         101624  103079
CHEXA      82739       1  103080  101625  101624  103079  103084  101627+
+         101626  103083
CHEXA      82740       1  103084  101627  101626  103083  103088  101629+
+         101628  103087
CHEXA      82741       1  103088  101629  101628  103087  103092  101631+
+         101630  103091
CHEXA      82742       1  103092  101631  101630  103091  103096  101633+
+         101632  103095
CHEXA      82743       1  103096  101633  101632  103095  103100  101635+
+         101634  103099
CHEXA      82744       1  103100  101635  101634  103099  103104  101637+
+         101636  103103
CHEXA      82745       1  103104  101637  101636  103103  103108  101639+
+         101638  103107
CHEXA      82746       1  103108  101639  101638  103107  103112  101641+
+         101640  103111
CHEXA      82747       1  103112  101641  101640  103111  103116  101643+
+         101642  103115
CHEXA      82748       1  103116  101643  101642  103115  103120  101645+
+         101644  103119
CHEXA      82749       1  103120  101645  101644  103119  103124  101647+
+         101646  103123
CHEXA      82750       1  103124  101647  101646  103123  103128  101649+
+         101648  103127
CHEXA      82751       1  103128  101649  101648  103127  103132  101651+
+         101650  103131
CHEXA      82752       1  103132  101651  101650  103131  103136  101653+
+         101652  103135
CHEXA      82753       1  103136  101653  101652  103135  103140  101655+
+         101654  103139
CHEXA      82754       1  103140  101655  101654  103139  103144  101657+
+         101656  103143
CHEXA      82755       1  103144  101657  101656  103143  103148  101659+
+         101658  103147
CHEXA      82756       1  103148  101659  101658  103147  103152  101661+
+         101660  103151
CHEXA      82757       1  103152  101661  101660  103151  103156  101663+
+         101662  103155
CHEXA      82758       1  103156  101663  101662  103155  103160  101665+
+         101664  103159
CHEXA      82759       1  103160  101665  101664  103159  103164  101667+
+         101666  103163
CHEXA      82760       1  103164  101667  101666  103163  103168  101669+
+         101668  103167
CHEXA      82761       1  103168  101669  101668  103167  103172  101671+
+         101670  103171
CHEXA      82762       1  103172  101671  101670  103171  103176  101673+
+         101672  103175
CHEXA      82763       1  103176  101673  101672  103175  103180  101675+
+         101674  103179
CHEXA      82764       1  103180  101675  101674  103179  103184  101677+
+         101676  103183
CHEXA      82765       1  103184  101677  101676  103183  103188  101679+
+         101678  103187
CHEXA      82766       1  103188  101679  101678  103187  103192  101681+
+         101680  103191
CHEXA      82767       1  103192  101681  101680  103191  103196  101683+
+         101682  103195
CHEXA      82768       1  103196  101683  101682  103195  103200  101685+
+         101684  103199
CHEXA      82769       1  103200  101685  101684  103199  103204  101687+
+         101686  103203
CHEXA      82770       1  103204  101687  101686  103203  103208  101689+
+         101688  103207
CHEXA      82771       1  103208  101689  101688  103207  103212  101691+
+         101690  103211
CHEXA      82772       1  103212  101691  101690  103211  103216  101693+
+         101692  103215
CHEXA      82773       1  103216  101693  101692  103215  103220  101695+
+         101694  103219
CHEXA      82774       1  103220  101695  101694  103219  103224  101697+
+         101696  103223
CHEXA      82775       1  103224  101697  101696  103223  103228  101699+
+         101698  103227
CHEXA      82776       1  103228  101699  101698  103227  103232  101701+
+         101700  103231
CHEXA      82777       1  103232  101701  101700  103231  103236  101703+
+         101702  103235
CHEXA      82778       1  103236  101703  101702  103235  103240  101705+
+         101704  103239
CHEXA      82779       1  103240  101705  101704  103239  103244  101707+
+         101706  103243
CHEXA      82780       1  103244  101707  101706  103243  103248  101709+
+         101708  103247
CHEXA      82781       1  103248  101709  101708  103247  103252  101711+
+         101710  103251
CHEXA      82782       1  103252  101711  101710  103251  103256  101713+
+         101712  103255
CHEXA      82783       1  103256  101713  101712  103255  103260  101715+
+         101714  103259
CHEXA      82784       1  103260  101715  101714  103259  103264  101717+
+         101716  103263
CHEXA      82785       1  103264  101717  101716  103263  103268  101719+
+         101718  103267
CHEXA      82786       1  103268  101719  101718  103267  103272  101721+
+         101720  103271
CHEXA      82787       1  103272  101721  101720  103271  103276  101723+
+         101722  103275
CHEXA      82788       1  103276  101723  101722  103275  103280  101725+
+         101724  103279
CHEXA      82789       1  103280  101725  101724  103279  103284  101727+
+         101726  103283
CHEXA      82790       1  103284  101727  101726  103283  103288  101729+
+         101728  103287
CHEXA      82791       1  103288  101729  101728  103287  103292  101731+
+         101730  103291
CHEXA      82792       1  103292  101731  101730  103291  103296  101733+
+         101732  103295
CHEXA      82793       1  103296  101733  101732  103295  103300  101735+
+         101734  103299
CHEXA      82794       1  103300  101735  101734  103299  103304  101737+
+         101736  103303
CHEXA      82795       1  103304  101737  101736  103303  103308  101739+
+         101738  103307
CHEXA      82796       1  103308  101739  101738  103307  103312  101741+
+         101740  103311
CHEXA      82797       1  103312  101741  101740  103311  103316  101743+
+         101742  103315
CHEXA      82798       1  103316  101743  101742  103315  103320  101745+
+         101744  103319
CHEXA      82799       1  103320  101745  101744  103319  103324  101747+
+         101746  103323
CHEXA      82800       1  103324  101747  101746  103323  103328  101749+
+         101748  103327
CHEXA      82801       1  103328  101749  101748  103327  103332  101751+
+         101750  103331
CHEXA      82802       1  103332  101751  101750  103331  103336  101753+
+         101752  103335
CHEXA      82803       1  103336  101753  101752  103335  103340  101755+
+         101754  103339
CHEXA      82804       1  103340  101755  101754  103339  103344  101757+
+         101756  103343
CHEXA      82805       1  103344  101757  101756  103343  103348  101759+
+         101758  103347
CHEXA      82806       1  103348  101759  101758  103347  103352  101761+
+         101760  103351
CHEXA      82807       1  103352  101761  101760  103351  103356  101763+
+         101762  103355
CHEXA      82808       1  103356  101763  101762  103355  103360  101765+
+         101764  103359
CHEXA      82809       1  103360  101765  101764  103359  102564  100965+
+         100964  102563
CHEXA      82810       1   96938   96958   96944   96925  101367  100364+
+         101369  102568
CHEXA      82811       1  101367  100364  101369  102568  101365  100363+
+         101371  102572
CHEXA      82812       1  101365  100363  101371  102572  101363  100362+
+         101373  102576
CHEXA      82813       1  101363  100362  101373  102576  101361  100361+
+         101375  102580
CHEXA      82814       1  101361  100361  101375  102580  101359  100360+
+         101377  102584
CHEXA      82815       1  101359  100360  101377  102584  101357  100359+
+         101379  102588
CHEXA      82816       1  101357  100359  101379  102588  101355  100358+
+         101381  102592
CHEXA      82817       1  101355  100358  101381  102592  101353  100357+
+         101383  102596
CHEXA      82818       1  101353  100357  101383  102596  101351  100356+
+         101385  102600
CHEXA      82819       1  101351  100356  101385  102600  101349  100355+
+         101387  102604
CHEXA      82820       1  101349  100355  101387  102604  101347  100354+
+         101389  102608
CHEXA      82821       1  101347  100354  101389  102608  101345  100353+
+         101391  102612
CHEXA      82822       1  101345  100353  101391  102612  101343  100352+
+         101393  102616
CHEXA      82823       1  101343  100352  101393  102616  101341  100351+
+         101395  102620
CHEXA      82824       1  101341  100351  101395  102620  101339  100350+
+         101397  102624
CHEXA      82825       1  101339  100350  101397  102624  101337  100349+
+         101399  102628
CHEXA      82826       1  101337  100349  101399  102628  101335  100348+
+         101401  102632
CHEXA      82827       1  101335  100348  101401  102632  101333  100347+
+         101403  102636
CHEXA      82828       1  101333  100347  101403  102636  101331  100346+
+         101405  102640
CHEXA      82829       1  101331  100346  101405  102640  101329  100345+
+         101407  102644
CHEXA      82830       1  101329  100345  101407  102644  101327  100344+
+         101409  102648
CHEXA      82831       1  101327  100344  101409  102648  101325  100343+
+         101411  102652
CHEXA      82832       1  101325  100343  101411  102652  101323  100342+
+         101413  102656
CHEXA      82833       1  101323  100342  101413  102656  101321  100341+
+         101415  102660
CHEXA      82834       1  101321  100341  101415  102660  101319  100340+
+         101417  102664
CHEXA      82835       1  101319  100340  101417  102664  101317  100339+
+         101419  102668
CHEXA      82836       1  101317  100339  101419  102668  101315  100338+
+         101421  102672
CHEXA      82837       1  101315  100338  101421  102672  101313  100337+
+         101423  102676
CHEXA      82838       1  101313  100337  101423  102676  101311  100336+
+         101425  102680
CHEXA      82839       1  101311  100336  101425  102680  101309  100335+
+         101427  102684
CHEXA      82840       1  101309  100335  101427  102684  101307  100334+
+         101429  102688
CHEXA      82841       1  101307  100334  101429  102688  101305  100333+
+         101431  102692
CHEXA      82842       1  101305  100333  101431  102692  101303  100332+
+         101433  102696
CHEXA      82843       1  101303  100332  101433  102696  101301  100331+
+         101435  102700
CHEXA      82844       1  101301  100331  101435  102700  101299  100330+
+         101437  102704
CHEXA      82845       1  101299  100330  101437  102704  101297  100329+
+         101439  102708
CHEXA      82846       1  101297  100329  101439  102708  101295  100328+
+         101441  102712
CHEXA      82847       1  101295  100328  101441  102712  101293  100327+
+         101443  102716
CHEXA      82848       1  101293  100327  101443  102716  101291  100326+
+         101445  102720
CHEXA      82849       1  101291  100326  101445  102720  101289  100325+
+         101447  102724
CHEXA      82850       1  101289  100325  101447  102724  101287  100324+
+         101449  102728
CHEXA      82851       1  101287  100324  101449  102728  101285  100323+
+         101451  102732
CHEXA      82852       1  101285  100323  101451  102732  101283  100322+
+         101453  102736
CHEXA      82853       1  101283  100322  101453  102736  101281  100321+
+         101455  102740
CHEXA      82854       1  101281  100321  101455  102740  101279  100320+
+         101457  102744
CHEXA      82855       1  101279  100320  101457  102744  101277  100319+
+         101459  102748
CHEXA      82856       1  101277  100319  101459  102748  101275  100318+
+         101461  102752
CHEXA      82857       1  101275  100318  101461  102752  101273  100317+
+         101463  102756
CHEXA      82858       1  101273  100317  101463  102756  101271  100316+
+         101465  102760
CHEXA      82859       1  101271  100316  101465  102760  101269  100315+
+         101467  102764
CHEXA      82860       1  101269  100315  101467  102764  101267  100314+
+         101469  102768
CHEXA      82861       1  101267  100314  101469  102768  101265  100313+
+         101471  102772
CHEXA      82862       1  101265  100313  101471  102772  101263  100312+
+         101473  102776
CHEXA      82863       1  101263  100312  101473  102776  101261  100311+
+         101475  102780
CHEXA      82864       1  101261  100311  101475  102780  101259  100310+
+         101477  102784
CHEXA      82865       1  101259  100310  101477  102784  101257  100309+
+         101479  102788
CHEXA      82866       1  101257  100309  101479  102788  101255  100308+
+         101481  102792
CHEXA      82867       1  101255  100308  101481  102792  101253  100307+
+         101483  102796
CHEXA      82868       1  101253  100307  101483  102796  101251  100306+
+         101485  102800
CHEXA      82869       1  101251  100306  101485  102800  101249  100305+
+         101487  102804
CHEXA      82870       1  101249  100305  101487  102804  101247  100304+
+         101489  102808
CHEXA      82871       1  101247  100304  101489  102808  101245  100303+
+         101491  102812
CHEXA      82872       1  101245  100303  101491  102812  101243  100302+
+         101493  102816
CHEXA      82873       1  101243  100302  101493  102816  101241  100301+
+         101495  102820
CHEXA      82874       1  101241  100301  101495  102820  101239  100300+
+         101497  102824
CHEXA      82875       1  101239  100300  101497  102824  101237  100299+
+         101499  102828
CHEXA      82876       1  101237  100299  101499  102828  101235  100298+
+         101501  102832
CHEXA      82877       1  101235  100298  101501  102832  101233  100297+
+         101503  102836
CHEXA      82878       1  101233  100297  101503  102836  101231  100296+
+         101505  102840
CHEXA      82879       1  101231  100296  101505  102840  101229  100295+
+         101507  102844
CHEXA      82880       1  101229  100295  101507  102844  101227  100294+
+         101509  102848
CHEXA      82881       1  101227  100294  101509  102848  101225  100293+
+         101511  102852
CHEXA      82882       1  101225  100293  101511  102852  101223  100292+
+         101513  102856
CHEXA      82883       1  101223  100292  101513  102856  101221  100291+
+         101515  102860
CHEXA      82884       1  101221  100291  101515  102860  101219  100290+
+         101517  102864
CHEXA      82885       1  101219  100290  101517  102864  101217  100289+
+         101519  102868
CHEXA      82886       1  101217  100289  101519  102868  101215  100288+
+         101521  102872
CHEXA      82887       1  101215  100288  101521  102872  101213  100287+
+         101523  102876
CHEXA      82888       1  101213  100287  101523  102876  101211  100286+
+         101525  102880
CHEXA      82889       1  101211  100286  101525  102880  101209  100285+
+         101527  102884
CHEXA      82890       1  101209  100285  101527  102884  101207  100284+
+         101529  102888
CHEXA      82891       1  101207  100284  101529  102888  101205  100283+
+         101531  102892
CHEXA      82892       1  101205  100283  101531  102892  101203  100282+
+         101533  102896
CHEXA      82893       1  101203  100282  101533  102896  101201  100281+
+         101535  102900
CHEXA      82894       1  101201  100281  101535  102900  101199  100280+
+         101537  102904
CHEXA      82895       1  101199  100280  101537  102904  101197  100279+
+         101539  102908
CHEXA      82896       1  101197  100279  101539  102908  101195  100278+
+         101541  102912
CHEXA      82897       1  101195  100278  101541  102912  101193  100277+
+         101543  102916
CHEXA      82898       1  101193  100277  101543  102916  101191  100276+
+         101545  102920
CHEXA      82899       1  101191  100276  101545  102920  101189  100275+
+         101547  102924
CHEXA      82900       1  101189  100275  101547  102924  101187  100274+
+         101549  102928
CHEXA      82901       1  101187  100274  101549  102928  101185  100273+
+         101551  102932
CHEXA      82902       1  101185  100273  101551  102932  101183  100272+
+         101553  102936
CHEXA      82903       1  101183  100272  101553  102936  101181  100271+
+         101555  102940
CHEXA      82904       1  101181  100271  101555  102940  101179  100270+
+         101557  102944
CHEXA      82905       1  101179  100270  101557  102944  101177  100269+
+         101559  102948
CHEXA      82906       1  101177  100269  101559  102948  101175  100268+
+         101561  102952
CHEXA      82907       1  101175  100268  101561  102952  101173  100267+
+         101563  102956
CHEXA      82908       1  101173  100267  101563  102956  101171  100266+
+         101565  102960
CHEXA      82909       1  101171  100266  101565  102960  101169  100265+
+         101567  102964
CHEXA      82910       1  101169  100265  101567  102964  101167  100264+
+         101569  102968
CHEXA      82911       1  101167  100264  101569  102968  101165  100263+
+         101571  102972
CHEXA      82912       1  101165  100263  101571  102972  101163  100262+
+         101573  102976
CHEXA      82913       1  101163  100262  101573  102976  101161  100261+
+         101575  102980
CHEXA      82914       1  101161  100261  101575  102980  101159  100260+
+         101577  102984
CHEXA      82915       1  101159  100260  101577  102984  101157  100259+
+         101579  102988
CHEXA      82916       1  101157  100259  101579  102988  101155  100258+
+         101581  102992
CHEXA      82917       1  101155  100258  101581  102992  101153  100257+
+         101583  102996
CHEXA      82918       1  101153  100257  101583  102996  101151  100256+
+         101585  103000
CHEXA      82919       1  101151  100256  101585  103000  101149  100255+
+         101587  103004
CHEXA      82920       1  101149  100255  101587  103004  101147  100254+
+         101589  103008
CHEXA      82921       1  101147  100254  101589  103008  101145  100253+
+         101591  103012
CHEXA      82922       1  101145  100253  101591  103012  101143  100252+
+         101593  103016
CHEXA      82923       1  101143  100252  101593  103016  101141  100251+
+         101595  103020
CHEXA      82924       1  101141  100251  101595  103020  101139  100250+
+         101597  103024
CHEXA      82925       1  101139  100250  101597  103024  101137  100249+
+         101599  103028
CHEXA      82926       1  101137  100249  101599  103028  101135  100248+
+         101601  103032
CHEXA      82927       1  101135  100248  101601  103032  101133  100247+
+         101603  103036
CHEXA      82928       1  101133  100247  101603  103036  101131  100246+
+         101605  103040
CHEXA      82929       1  101131  100246  101605  103040  101129  100245+
+         101607  103044
CHEXA      82930       1  101129  100245  101607  103044  101127  100244+
+         101609  103048
CHEXA      82931       1  101127  100244  101609  103048  101125  100243+
+         101611  103052
CHEXA      82932       1  101125  100243  101611  103052  101123  100242+
+         101613  103056
CHEXA      82933       1  101123  100242  101613  103056  101121  100241+
+         101615  103060
CHEXA      82934       1  101121  100241  101615  103060  101119  100240+
+         101617  103064
CHEXA      82935       1  101119  100240  101617  103064  101117  100239+
+         101619  103068
CHEXA      82936       1  101117  100239  101619  103068  101115  100238+
+         101621  103072
CHEXA      82937       1  101115  100238  101621  103072  101113  100237+
+         101623  103076
CHEXA      82938       1  101113  100237  101623  103076  101111  100236+
+         101625  103080
CHEXA      82939       1  101111  100236  101625  103080  101109  100235+
+         101627  103084
CHEXA      82940       1  101109  100235  101627  103084  101107  100234+
+         101629  103088
CHEXA      82941       1  101107  100234  101629  103088  101105  100233+
+         101631  103092
CHEXA      82942       1  101105  100233  101631  103092  101103  100232+
+         101633  103096
CHEXA      82943       1  101103  100232  101633  103096  101101  100231+
+         101635  103100
CHEXA      82944       1  101101  100231  101635  103100  101099  100230+
+         101637  103104
CHEXA      82945       1  101099  100230  101637  103104  101097  100229+
+         101639  103108
CHEXA      82946       1  101097  100229  101639  103108  101095  100228+
+         101641  103112
CHEXA      82947       1  101095  100228  101641  103112  101093  100227+
+         101643  103116
CHEXA      82948       1  101093  100227  101643  103116  101091  100226+
+         101645  103120
CHEXA      82949       1  101091  100226  101645  103120  101089  100225+
+         101647  103124
CHEXA      82950       1  101089  100225  101647  103124  101087  100224+
+         101649  103128
CHEXA      82951       1  101087  100224  101649  103128  101085  100223+
+         101651  103132
CHEXA      82952       1  101085  100223  101651  103132  101083  100222+
+         101653  103136
CHEXA      82953       1  101083  100222  101653  103136  101081  100221+
+         101655  103140
CHEXA      82954       1  101081  100221  101655  103140  101079  100220+
+         101657  103144
CHEXA      82955       1  101079  100220  101657  103144  101077  100219+
+         101659  103148
CHEXA      82956       1  101077  100219  101659  103148  101075  100218+
+         101661  103152
CHEXA      82957       1  101075  100218  101661  103152  101073  100217+
+         101663  103156
CHEXA      82958       1  101073  100217  101663  103156  101071  100216+
+         101665  103160
CHEXA      82959       1  101071  100216  101665  103160  101069  100215+
+         101667  103164
CHEXA      82960       1  101069  100215  101667  103164  101067  100214+
+         101669  103168
CHEXA      82961       1  101067  100214  101669  103168  101065  100213+
+         101671  103172
CHEXA      82962       1  101065  100213  101671  103172  101063  100212+
+         101673  103176
CHEXA      82963       1  101063  100212  101673  103176  101061  100211+
+         101675  103180
CHEXA      82964       1  101061  100211  101675  103180  101059  100210+
+         101677  103184
CHEXA      82965       1  101059  100210  101677  103184  101057  100209+
+         101679  103188
CHEXA      82966       1  101057  100209  101679  103188  101055  100208+
+         101681  103192
CHEXA      82967       1  101055  100208  101681  103192  101053  100207+
+         101683  103196
CHEXA      82968       1  101053  100207  101683  103196  101051  100206+
+         101685  103200
CHEXA      82969       1  101051  100206  101685  103200  101049  100205+
+         101687  103204
CHEXA      82970       1  101049  100205  101687  103204  101047  100204+
+         101689  103208
CHEXA      82971       1  101047  100204  101689  103208  101045  100203+
+         101691  103212
CHEXA      82972       1  101045  100203  101691  103212  101043  100202+
+         101693  103216
CHEXA      82973       1  101043  100202  101693  103216  101041  100201+
+         101695  103220
CHEXA      82974       1  101041  100201  101695  103220  101039  100200+
+         101697  103224
CHEXA      82975       1  101039  100200  101697  103224  101037  100199+
+         101699  103228
CHEXA      82976       1  101037  100199  101699  103228  101035  100198+
+         101701  103232
CHEXA      82977       1  101035  100198  101701  103232  101033  100197+
+         101703  103236
CHEXA      82978       1  101033  100197  101703  103236  101031  100196+
+         101705  103240
CHEXA      82979       1  101031  100196  101705  103240  101029  100195+
+         101707  103244
CHEXA      82980       1  101029  100195  101707  103244  101027  100194+
+         101709  103248
CHEXA      82981       1  101027  100194  101709  103248  101025  100193+
+         101711  103252
CHEXA      82982       1  101025  100193  101711  103252  101023  100192+
+         101713  103256
CHEXA      82983       1  101023  100192  101713  103256  101021  100191+
+         101715  103260
CHEXA      82984       1  101021  100191  101715  103260  101019  100190+
+         101717  103264
CHEXA      82985       1  101019  100190  101717  103264  101017  100189+
+         101719  103268
CHEXA      82986       1  101017  100189  101719  103268  101015  100188+
+         101721  103272
CHEXA      82987       1  101015  100188  101721  103272  101013  100187+
+         101723  103276
CHEXA      82988       1  101013  100187  101723  103276  101011  100186+
+         101725  103280
CHEXA      82989       1  101011  100186  101725  103280  101009  100185+
+         101727  103284
CHEXA      82990       1  101009  100185  101727  103284  101007  100184+
+         101729  103288
CHEXA      82991       1  101007  100184  101729  103288  101005  100183+
+         101731  103292
CHEXA      82992       1  101005  100183  101731  103292  101003  100182+
+         101733  103296
CHEXA      82993       1  101003  100182  101733  103296  101001  100181+
+         101735  103300
CHEXA      82994       1  101001  100181  101735  103300  100999  100180+
+         101737  103304
CHEXA      82995       1  100999  100180  101737  103304  100997  100179+
+         101739  103308
CHEXA      82996       1  100997  100179  101739  103308  100995  100178+
+         101741  103312
CHEXA      82997       1  100995  100178  101741  103312  100993  100177+
+         101743  103316
CHEXA      82998       1  100993  100177  101743  103316  100991  100176+
+         101745  103320
CHEXA      82999       1  100991  100176  101745  103320  100989  100175+
+         101747  103324
CHEXA      83000       1  100989  100175  101747  103324  100987  100174+
+         101749  103328
CHEXA      83001       1  100987  100174  101749  103328  100985  100173+
+         101751  103332
CHEXA      83002       1  100985  100173  101751  103332  100983  100172+
+         101753  103336
CHEXA      83003       1  100983  100172  101753  103336  100981  100171+
+         101755  103340
CHEXA      83004       1  100981  100171  101755  103340  100979  100170+
+         101757  103344
CHEXA      83005       1  100979  100170  101757  103344  100977  100169+
+         101759  103348
CHEXA      83006       1  100977  100169  101759  103348  100975  100168+
+         101761  103352
CHEXA      83007       1  100975  100168  101761  103352  100973  100167+
+         101763  103356
CHEXA      83008       1  100973  100167  101763  103356  100971  100166+
+         101765  103360
CHEXA      83009       1  100971  100166  101765  103360  100963  100162+
+         100965  102564
CHEXA      83010       1   96939   96938   96925   96923  101366  101367+
+         102568  102569
CHEXA      83011       1  101366  101367  102568  102569  101364  101365+
+         102572  102573
CHEXA      83012       1  101364  101365  102572  102573  101362  101363+
+         102576  102577
CHEXA      83013       1  101362  101363  102576  102577  101360  101361+
+         102580  102581
CHEXA      83014       1  101360  101361  102580  102581  101358  101359+
+         102584  102585
CHEXA      83015       1  101358  101359  102584  102585  101356  101357+
+         102588  102589
CHEXA      83016       1  101356  101357  102588  102589  101354  101355+
+         102592  102593
CHEXA      83017       1  101354  101355  102592  102593  101352  101353+
+         102596  102597
CHEXA      83018       1  101352  101353  102596  102597  101350  101351+
+         102600  102601
CHEXA      83019       1  101350  101351  102600  102601  101348  101349+
+         102604  102605
CHEXA      83020       1  101348  101349  102604  102605  101346  101347+
+         102608  102609
CHEXA      83021       1  101346  101347  102608  102609  101344  101345+
+         102612  102613
CHEXA      83022       1  101344  101345  102612  102613  101342  101343+
+         102616  102617
CHEXA      83023       1  101342  101343  102616  102617  101340  101341+
+         102620  102621
CHEXA      83024       1  101340  101341  102620  102621  101338  101339+
+         102624  102625
CHEXA      83025       1  101338  101339  102624  102625  101336  101337+
+         102628  102629
CHEXA      83026       1  101336  101337  102628  102629  101334  101335+
+         102632  102633
CHEXA      83027       1  101334  101335  102632  102633  101332  101333+
+         102636  102637
CHEXA      83028       1  101332  101333  102636  102637  101330  101331+
+         102640  102641
CHEXA      83029       1  101330  101331  102640  102641  101328  101329+
+         102644  102645
CHEXA      83030       1  101328  101329  102644  102645  101326  101327+
+         102648  102649
CHEXA      83031       1  101326  101327  102648  102649  101324  101325+
+         102652  102653
CHEXA      83032       1  101324  101325  102652  102653  101322  101323+
+         102656  102657
CHEXA      83033       1  101322  101323  102656  102657  101320  101321+
+         102660  102661
CHEXA      83034       1  101320  101321  102660  102661  101318  101319+
+         102664  102665
CHEXA      83035       1  101318  101319  102664  102665  101316  101317+
+         102668  102669
CHEXA      83036       1  101316  101317  102668  102669  101314  101315+
+         102672  102673
CHEXA      83037       1  101314  101315  102672  102673  101312  101313+
+         102676  102677
CHEXA      83038       1  101312  101313  102676  102677  101310  101311+
+         102680  102681
CHEXA      83039       1  101310  101311  102680  102681  101308  101309+
+         102684  102685
CHEXA      83040       1  101308  101309  102684  102685  101306  101307+
+         102688  102689
CHEXA      83041       1  101306  101307  102688  102689  101304  101305+
+         102692  102693
CHEXA      83042       1  101304  101305  102692  102693  101302  101303+
+         102696  102697
CHEXA      83043       1  101302  101303  102696  102697  101300  101301+
+         102700  102701
CHEXA      83044       1  101300  101301  102700  102701  101298  101299+
+         102704  102705
CHEXA      83045       1  101298  101299  102704  102705  101296  101297+
+         102708  102709
CHEXA      83046       1  101296  101297  102708  102709  101294  101295+
+         102712  102713
CHEXA      83047       1  101294  101295  102712  102713  101292  101293+
+         102716  102717
CHEXA      83048       1  101292  101293  102716  102717  101290  101291+
+         102720  102721
CHEXA      83049       1  101290  101291  102720  102721  101288  101289+
+         102724  102725
CHEXA      83050       1  101288  101289  102724  102725  101286  101287+
+         102728  102729
CHEXA      83051       1  101286  101287  102728  102729  101284  101285+
+         102732  102733
CHEXA      83052       1  101284  101285  102732  102733  101282  101283+
+         102736  102737
CHEXA      83053       1  101282  101283  102736  102737  101280  101281+
+         102740  102741
CHEXA      83054       1  101280  101281  102740  102741  101278  101279+
+         102744  102745
CHEXA      83055       1  101278  101279  102744  102745  101276  101277+
+         102748  102749
CHEXA      83056       1  101276  101277  102748  102749  101274  101275+
+         102752  102753
CHEXA      83057       1  101274  101275  102752  102753  101272  101273+
+         102756  102757
CHEXA      83058       1  101272  101273  102756  102757  101270  101271+
+         102760  102761
CHEXA      83059       1  101270  101271  102760  102761  101268  101269+
+         102764  102765
CHEXA      83060       1  101268  101269  102764  102765  101266  101267+
+         102768  102769
CHEXA      83061       1  101266  101267  102768  102769  101264  101265+
+         102772  102773
CHEXA      83062       1  101264  101265  102772  102773  101262  101263+
+         102776  102777
CHEXA      83063       1  101262  101263  102776  102777  101260  101261+
+         102780  102781
CHEXA      83064       1  101260  101261  102780  102781  101258  101259+
+         102784  102785
CHEXA      83065       1  101258  101259  102784  102785  101256  101257+
+         102788  102789
CHEXA      83066       1  101256  101257  102788  102789  101254  101255+
+         102792  102793
CHEXA      83067       1  101254  101255  102792  102793  101252  101253+
+         102796  102797
CHEXA      83068       1  101252  101253  102796  102797  101250  101251+
+         102800  102801
CHEXA      83069       1  101250  101251  102800  102801  101248  101249+
+         102804  102805
CHEXA      83070       1  101248  101249  102804  102805  101246  101247+
+         102808  102809
CHEXA      83071       1  101246  101247  102808  102809  101244  101245+
+         102812  102813
CHEXA      83072       1  101244  101245  102812  102813  101242  101243+
+         102816  102817
CHEXA      83073       1  101242  101243  102816  102817  101240  101241+
+         102820  102821
CHEXA      83074       1  101240  101241  102820  102821  101238  101239+
+         102824  102825
CHEXA      83075       1  101238  101239  102824  102825  101236  101237+
+         102828  102829
CHEXA      83076       1  101236  101237  102828  102829  101234  101235+
+         102832  102833
CHEXA      83077       1  101234  101235  102832  102833  101232  101233+
+         102836  102837
CHEXA      83078       1  101232  101233  102836  102837  101230  101231+
+         102840  102841
CHEXA      83079       1  101230  101231  102840  102841  101228  101229+
+         102844  102845
CHEXA      83080       1  101228  101229  102844  102845  101226  101227+
+         102848  102849
CHEXA      83081       1  101226  101227  102848  102849  101224  101225+
+         102852  102853
CHEXA      83082       1  101224  101225  102852  102853  101222  101223+
+         102856  102857
CHEXA      83083       1  101222  101223  102856  102857  101220  101221+
+         102860  102861
CHEXA      83084       1  101220  101221  102860  102861  101218  101219+
+         102864  102865
CHEXA      83085       1  101218  101219  102864  102865  101216  101217+
+         102868  102869
CHEXA      83086       1  101216  101217  102868  102869  101214  101215+
+         102872  102873
CHEXA      83087       1  101214  101215  102872  102873  101212  101213+
+         102876  102877
CHEXA      83088       1  101212  101213  102876  102877  101210  101211+
+         102880  102881
CHEXA      83089       1  101210  101211  102880  102881  101208  101209+
+         102884  102885
CHEXA      83090       1  101208  101209  102884  102885  101206  101207+
+         102888  102889
CHEXA      83091       1  101206  101207  102888  102889  101204  101205+
+         102892  102893
CHEXA      83092       1  101204  101205  102892  102893  101202  101203+
+         102896  102897
CHEXA      83093       1  101202  101203  102896  102897  101200  101201+
+         102900  102901
CHEXA      83094       1  101200  101201  102900  102901  101198  101199+
+         102904  102905
CHEXA      83095       1  101198  101199  102904  102905  101196  101197+
+         102908  102909
CHEXA      83096       1  101196  101197  102908  102909  101194  101195+
+         102912  102913
CHEXA      83097       1  101194  101195  102912  102913  101192  101193+
+         102916  102917
CHEXA      83098       1  101192  101193  102916  102917  101190  101191+
+         102920  102921
CHEXA      83099       1  101190  101191  102920  102921  101188  101189+
+         102924  102925
CHEXA      83100       1  101188  101189  102924  102925  101186  101187+
+         102928  102929
CHEXA      83101       1  101186  101187  102928  102929  101184  101185+
+         102932  102933
CHEXA      83102       1  101184  101185  102932  102933  101182  101183+
+         102936  102937
CHEXA      83103       1  101182  101183  102936  102937  101180  101181+
+         102940  102941
CHEXA      83104       1  101180  101181  102940  102941  101178  101179+
+         102944  102945
CHEXA      83105       1  101178  101179  102944  102945  101176  101177+
+         102948  102949
CHEXA      83106       1  101176  101177  102948  102949  101174  101175+
+         102952  102953
CHEXA      83107       1  101174  101175  102952  102953  101172  101173+
+         102956  102957
CHEXA      83108       1  101172  101173  102956  102957  101170  101171+
+         102960  102961
CHEXA      83109       1  101170  101171  102960  102961  101168  101169+
+         102964  102965
CHEXA      83110       1  101168  101169  102964  102965  101166  101167+
+         102968  102969
CHEXA      83111       1  101166  101167  102968  102969  101164  101165+
+         102972  102973
CHEXA      83112       1  101164  101165  102972  102973  101162  101163+
+         102976  102977
CHEXA      83113       1  101162  101163  102976  102977  101160  101161+
+         102980  102981
CHEXA      83114       1  101160  101161  102980  102981  101158  101159+
+         102984  102985
CHEXA      83115       1  101158  101159  102984  102985  101156  101157+
+         102988  102989
CHEXA      83116       1  101156  101157  102988  102989  101154  101155+
+         102992  102993
CHEXA      83117       1  101154  101155  102992  102993  101152  101153+
+         102996  102997
CHEXA      83118       1  101152  101153  102996  102997  101150  101151+
+         103000  103001
CHEXA      83119       1  101150  101151  103000  103001  101148  101149+
+         103004  103005
CHEXA      83120       1  101148  101149  103004  103005  101146  101147+
+         103008  103009
CHEXA      83121       1  101146  101147  103008  103009  101144  101145+
+         103012  103013
CHEXA      83122       1  101144  101145  103012  103013  101142  101143+
+         103016  103017
CHEXA      83123       1  101142  101143  103016  103017  101140  101141+
+         103020  103021
CHEXA      83124       1  101140  101141  103020  103021  101138  101139+
+         103024  103025
CHEXA      83125       1  101138  101139  103024  103025  101136  101137+
+         103028  103029
CHEXA      83126       1  101136  101137  103028  103029  101134  101135+
+         103032  103033
CHEXA      83127       1  101134  101135  103032  103033  101132  101133+
+         103036  103037
CHEXA      83128       1  101132  101133  103036  103037  101130  101131+
+         103040  103041
CHEXA      83129       1  101130  101131  103040  103041  101128  101129+
+         103044  103045
CHEXA      83130       1  101128  101129  103044  103045  101126  101127+
+         103048  103049
CHEXA      83131       1  101126  101127  103048  103049  101124  101125+
+         103052  103053
CHEXA      83132       1  101124  101125  103052  103053  101122  101123+
+         103056  103057
CHEXA      83133       1  101122  101123  103056  103057  101120  101121+
+         103060  103061
CHEXA      83134       1  101120  101121  103060  103061  101118  101119+
+         103064  103065
CHEXA      83135       1  101118  101119  103064  103065  101116  101117+
+         103068  103069
CHEXA      83136       1  101116  101117  103068  103069  101114  101115+
+         103072  103073
CHEXA      83137       1  101114  101115  103072  103073  101112  101113+
+         103076  103077
CHEXA      83138       1  101112  101113  103076  103077  101110  101111+
+         103080  103081
CHEXA      83139       1  101110  101111  103080  103081  101108  101109+
+         103084  103085
CHEXA      83140       1  101108  101109  103084  103085  101106  101107+
+         103088  103089
CHEXA      83141       1  101106  101107  103088  103089  101104  101105+
+         103092  103093
CHEXA      83142       1  101104  101105  103092  103093  101102  101103+
+         103096  103097
CHEXA      83143       1  101102  101103  103096  103097  101100  101101+
+         103100  103101
CHEXA      83144       1  101100  101101  103100  103101  101098  101099+
+         103104  103105
CHEXA      83145       1  101098  101099  103104  103105  101096  101097+
+         103108  103109
CHEXA      83146       1  101096  101097  103108  103109  101094  101095+
+         103112  103113
CHEXA      83147       1  101094  101095  103112  103113  101092  101093+
+         103116  103117
CHEXA      83148       1  101092  101093  103116  103117  101090  101091+
+         103120  103121
CHEXA      83149       1  101090  101091  103120  103121  101088  101089+
+         103124  103125
CHEXA      83150       1  101088  101089  103124  103125  101086  101087+
+         103128  103129
CHEXA      83151       1  101086  101087  103128  103129  101084  101085+
+         103132  103133
CHEXA      83152       1  101084  101085  103132  103133  101082  101083+
+         103136  103137
CHEXA      83153       1  101082  101083  103136  103137  101080  101081+
+         103140  103141
CHEXA      83154       1  101080  101081  103140  103141  101078  101079+
+         103144  103145
CHEXA      83155       1  101078  101079  103144  103145  101076  101077+
+         103148  103149
CHEXA      83156       1  101076  101077  103148  103149  101074  101075+
+         103152  103153
CHEXA      83157       1  101074  101075  103152  103153  101072  101073+
+         103156  103157
CHEXA      83158       1  101072  101073  103156  103157  101070  101071+
+         103160  103161
CHEXA      83159       1  101070  101071  103160  103161  101068  101069+
+         103164  103165
CHEXA      83160       1  101068  101069  103164  103165  101066  101067+
+         103168  103169
CHEXA      83161       1  101066  101067  103168  103169  101064  101065+
+         103172  103173
CHEXA      83162       1  101064  101065  103172  103173  101062  101063+
+         103176  103177
CHEXA      83163       1  101062  101063  103176  103177  101060  101061+
+         103180  103181
CHEXA      83164       1  101060  101061  103180  103181  101058  101059+
+         103184  103185
CHEXA      83165       1  101058  101059  103184  103185  101056  101057+
+         103188  103189
CHEXA      83166       1  101056  101057  103188  103189  101054  101055+
+         103192  103193
CHEXA      83167       1  101054  101055  103192  103193  101052  101053+
+         103196  103197
CHEXA      83168       1  101052  101053  103196  103197  101050  101051+
+         103200  103201
CHEXA      83169       1  101050  101051  103200  103201  101048  101049+
+         103204  103205
CHEXA      83170       1  101048  101049  103204  103205  101046  101047+
+         103208  103209
CHEXA      83171       1  101046  101047  103208  103209  101044  101045+
+         103212  103213
CHEXA      83172       1  101044  101045  103212  103213  101042  101043+
+         103216  103217
CHEXA      83173       1  101042  101043  103216  103217  101040  101041+
+         103220  103221
CHEXA      83174       1  101040  101041  103220  103221  101038  101039+
+         103224  103225
CHEXA      83175       1  101038  101039  103224  103225  101036  101037+
+         103228  103229
CHEXA      83176       1  101036  101037  103228  103229  101034  101035+
+         103232  103233
CHEXA      83177       1  101034  101035  103232  103233  101032  101033+
+         103236  103237
CHEXA      83178       1  101032  101033  103236  103237  101030  101031+
+         103240  103241
CHEXA      83179       1  101030  101031  103240  103241  101028  101029+
+         103244  103245
CHEXA      83180       1  101028  101029  103244  103245  101026  101027+
+         103248  103249
CHEXA      83181       1  101026  101027  103248  103249  101024  101025+
+         103252  103253
CHEXA      83182       1  101024  101025  103252  103253  101022  101023+
+         103256  103257
CHEXA      83183       1  101022  101023  103256  103257  101020  101021+
+         103260  103261
CHEXA      83184       1  101020  101021  103260  103261  101018  101019+
+         103264  103265
CHEXA      83185       1  101018  101019  103264  103265  101016  101017+
+         103268  103269
CHEXA      83186       1  101016  101017  103268  103269  101014  101015+
+         103272  103273
CHEXA      83187       1  101014  101015  103272  103273  101012  101013+
+         103276  103277
CHEXA      83188       1  101012  101013  103276  103277  101010  101011+
+         103280  103281
CHEXA      83189       1  101010  101011  103280  103281  101008  101009+
+         103284  103285
CHEXA      83190       1  101008  101009  103284  103285  101006  101007+
+         103288  103289
CHEXA      83191       1  101006  101007  103288  103289  101004  101005+
+         103292  103293
CHEXA      83192       1  101004  101005  103292  103293  101002  101003+
+         103296  103297
CHEXA      83193       1  101002  101003  103296  103297  101000  101001+
+         103300  103301
CHEXA      83194       1  101000  101001  103300  103301  100998  100999+
+         103304  103305
CHEXA      83195       1  100998  100999  103304  103305  100996  100997+
+         103308  103309
CHEXA      83196       1  100996  100997  103308  103309  100994  100995+
+         103312  103313
CHEXA      83197       1  100994  100995  103312  103313  100992  100993+
+         103316  103317
CHEXA      83198       1  100992  100993  103316  103317  100990  100991+
+         103320  103321
CHEXA      83199       1  100990  100991  103320  103321  100988  100989+
+         103324  103325
CHEXA      83200       1  100988  100989  103324  103325  100986  100987+
+         103328  103329
CHEXA      83201       1  100986  100987  103328  103329  100984  100985+
+         103332  103333
CHEXA      83202       1  100984  100985  103332  103333  100982  100983+
+         103336  103337
CHEXA      83203       1  100982  100983  103336  103337  100980  100981+
+         103340  103341
CHEXA      83204       1  100980  100981  103340  103341  100978  100979+
+         103344  103345
CHEXA      83205       1  100978  100979  103344  103345  100976  100977+
+         103348  103349
CHEXA      83206       1  100976  100977  103348  103349  100974  100975+
+         103352  103353
CHEXA      83207       1  100974  100975  103352  103353  100972  100973+
+         103356  103357
CHEXA      83208       1  100972  100973  103356  103357  100970  100971+
+         103360  103361
CHEXA      83209       1  100970  100971  103360  103361  100962  100963+
+         102564  102565
CHEXA      83210       1   96959   96939   96923   96949  100563  101366+
+         102569  102163
CHEXA      83211       1  100563  101366  102569  102163  100562  101364+
+         102573  102161
CHEXA      83212       1  100562  101364  102573  102161  100561  101362+
+         102577  102159
CHEXA      83213       1  100561  101362  102577  102159  100560  101360+
+         102581  102157
CHEXA      83214       1  100560  101360  102581  102157  100559  101358+
+         102585  102155
CHEXA      83215       1  100559  101358  102585  102155  100558  101356+
+         102589  102153
CHEXA      83216       1  100558  101356  102589  102153  100557  101354+
+         102593  102151
CHEXA      83217       1  100557  101354  102593  102151  100556  101352+
+         102597  102149
CHEXA      83218       1  100556  101352  102597  102149  100555  101350+
+         102601  102147
CHEXA      83219       1  100555  101350  102601  102147  100554  101348+
+         102605  102145
CHEXA      83220       1  100554  101348  102605  102145  100553  101346+
+         102609  102143
CHEXA      83221       1  100553  101346  102609  102143  100552  101344+
+         102613  102141
CHEXA      83222       1  100552  101344  102613  102141  100551  101342+
+         102617  102139
CHEXA      83223       1  100551  101342  102617  102139  100550  101340+
+         102621  102137
CHEXA      83224       1  100550  101340  102621  102137  100549  101338+
+         102625  102135
CHEXA      83225       1  100549  101338  102625  102135  100548  101336+
+         102629  102133
CHEXA      83226       1  100548  101336  102629  102133  100547  101334+
+         102633  102131
CHEXA      83227       1  100547  101334  102633  102131  100546  101332+
+         102637  102129
CHEXA      83228       1  100546  101332  102637  102129  100545  101330+
+         102641  102127
CHEXA      83229       1  100545  101330  102641  102127  100544  101328+
+         102645  102125
CHEXA      83230       1  100544  101328  102645  102125  100543  101326+
+         102649  102123
CHEXA      83231       1  100543  101326  102649  102123  100542  101324+
+         102653  102121
CHEXA      83232       1  100542  101324  102653  102121  100541  101322+
+         102657  102119
CHEXA      83233       1  100541  101322  102657  102119  100540  101320+
+         102661  102117
CHEXA      83234       1  100540  101320  102661  102117  100539  101318+
+         102665  102115
CHEXA      83235       1  100539  101318  102665  102115  100538  101316+
+         102669  102113
CHEXA      83236       1  100538  101316  102669  102113  100537  101314+
+         102673  102111
CHEXA      83237       1  100537  101314  102673  102111  100536  101312+
+         102677  102109
CHEXA      83238       1  100536  101312  102677  102109  100535  101310+
+         102681  102107
CHEXA      83239       1  100535  101310  102681  102107  100534  101308+
+         102685  102105
CHEXA      83240       1  100534  101308  102685  102105  100533  101306+
+         102689  102103
CHEXA      83241       1  100533  101306  102689  102103  100532  101304+
+         102693  102101
CHEXA      83242       1  100532  101304  102693  102101  100531  101302+
+         102697  102099
CHEXA      83243       1  100531  101302  102697  102099  100530  101300+
+         102701  102097
CHEXA      83244       1  100530  101300  102701  102097  100529  101298+
+         102705  102095
CHEXA      83245       1  100529  101298  102705  102095  100528  101296+
+         102709  102093
CHEXA      83246       1  100528  101296  102709  102093  100527  101294+
+         102713  102091
CHEXA      83247       1  100527  101294  102713  102091  100526  101292+
+         102717  102089
CHEXA      83248       1  100526  101292  102717  102089  100525  101290+
+         102721  102087
CHEXA      83249       1  100525  101290  102721  102087  100524  101288+
+         102725  102085
CHEXA      83250       1  100524  101288  102725  102085  100523  101286+
+         102729  102083
CHEXA      83251       1  100523  101286  102729  102083  100522  101284+
+         102733  102081
CHEXA      83252       1  100522  101284  102733  102081  100521  101282+
+         102737  102079
CHEXA      83253       1  100521  101282  102737  102079  100520  101280+
+         102741  102077
CHEXA      83254       1  100520  101280  102741  102077  100519  101278+
+         102745  102075
CHEXA      83255       1  100519  101278  102745  102075  100518  101276+
+         102749  102073
CHEXA      83256       1  100518  101276  102749  102073  100517  101274+
+         102753  102071
CHEXA      83257       1  100517  101274  102753  102071  100516  101272+
+         102757  102069
CHEXA      83258       1  100516  101272  102757  102069  100515  101270+
+         102761  102067
CHEXA      83259       1  100515  101270  102761  102067  100514  101268+
+         102765  102065
CHEXA      83260       1  100514  101268  102765  102065  100513  101266+
+         102769  102063
CHEXA      83261       1  100513  101266  102769  102063  100512  101264+
+         102773  102061
CHEXA      83262       1  100512  101264  102773  102061  100511  101262+
+         102777  102059
CHEXA      83263       1  100511  101262  102777  102059  100510  101260+
+         102781  102057
CHEXA      83264       1  100510  101260  102781  102057  100509  101258+
+         102785  102055
CHEXA      83265       1  100509  101258  102785  102055  100508  101256+
+         102789  102053
CHEXA      83266       1  100508  101256  102789  102053  100507  101254+
+         102793  102051
CHEXA      83267       1  100507  101254  102793  102051  100506  101252+
+         102797  102049
CHEXA      83268       1  100506  101252  102797  102049  100505  101250+
+         102801  102047
CHEXA      83269       1  100505  101250  102801  102047  100504  101248+
+         102805  102045
CHEXA      83270       1  100504  101248  102805  102045  100503  101246+
+         102809  102043
CHEXA      83271       1  100503  101246  102809  102043  100502  101244+
+         102813  102041
CHEXA      83272       1  100502  101244  102813  102041  100501  101242+
+         102817  102039
CHEXA      83273       1  100501  101242  102817  102039  100500  101240+
+         102821  102037
CHEXA      83274       1  100500  101240  102821  102037  100499  101238+
+         102825  102035
CHEXA      83275       1  100499  101238  102825  102035  100498  101236+
+         102829  102033
CHEXA      83276       1  100498  101236  102829  102033  100497  101234+
+         102833  102031
CHEXA      83277       1  100497  101234  102833  102031  100496  101232+
+         102837  102029
CHEXA      83278       1  100496  101232  102837  102029  100495  101230+
+         102841  102027
CHEXA      83279       1  100495  101230  102841  102027  100494  101228+
+         102845  102025
CHEXA      83280       1  100494  101228  102845  102025  100493  101226+
+         102849  102023
CHEXA      83281       1  100493  101226  102849  102023  100492  101224+
+         102853  102021
CHEXA      83282       1  100492  101224  102853  102021  100491  101222+
+         102857  102019
CHEXA      83283       1  100491  101222  102857  102019  100490  101220+
+         102861  102017
CHEXA      83284       1  100490  101220  102861  102017  100489  101218+
+         102865  102015
CHEXA      83285       1  100489  101218  102865  102015  100488  101216+
+         102869  102013
CHEXA      83286       1  100488  101216  102869  102013  100487  101214+
+         102873  102011
CHEXA      83287       1  100487  101214  102873  102011  100486  101212+
+         102877  102009
CHEXA      83288       1  100486  101212  102877  102009  100485  101210+
+         102881  102007
CHEXA      83289       1  100485  101210  102881  102007  100484  101208+
+         102885  102005
CHEXA      83290       1  100484  101208  102885  102005  100483  101206+
+         102889  102003
CHEXA      83291       1  100483  101206  102889  102003  100482  101204+
+         102893  102001
CHEXA      83292       1  100482  101204  102893  102001  100481  101202+
+         102897  101999
CHEXA      83293       1  100481  101202  102897  101999  100480  101200+
+         102901  101997
CHEXA      83294       1  100480  101200  102901  101997  100479  101198+
+         102905  101995
CHEXA      83295       1  100479  101198  102905  101995  100478  101196+
+         102909  101993
CHEXA      83296       1  100478  101196  102909  101993  100477  101194+
+         102913  101991
CHEXA      83297       1  100477  101194  102913  101991  100476  101192+
+         102917  101989
CHEXA      83298       1  100476  101192  102917  101989  100475  101190+
+         102921  101987
CHEXA      83299       1  100475  101190  102921  101987  100474  101188+
+         102925  101985
CHEXA      83300       1  100474  101188  102925  101985  100473  101186+
+         102929  101983
CHEXA      83301       1  100473  101186  102929  101983  100472  101184+
+         102933  101981
CHEXA      83302       1  100472  101184  102933  101981  100471  101182+
+         102937  101979
CHEXA      83303       1  100471  101182  102937  101979  100470  101180+
+         102941  101977
CHEXA      83304       1  100470  101180  102941  101977  100469  101178+
+         102945  101975
CHEXA      83305       1  100469  101178  102945  101975  100468  101176+
+         102949  101973
CHEXA      83306       1  100468  101176  102949  101973  100467  101174+
+         102953  101971
CHEXA      83307       1  100467  101174  102953  101971  100466  101172+
+         102957  101969
CHEXA      83308       1  100466  101172  102957  101969  100465  101170+
+         102961  101967
CHEXA      83309       1  100465  101170  102961  101967  100464  101168+
+         102965  101965
CHEXA      83310       1  100464  101168  102965  101965  100463  101166+
+         102969  101963
CHEXA      83311       1  100463  101166  102969  101963  100462  101164+
+         102973  101961
CHEXA      83312       1  100462  101164  102973  101961  100461  101162+
+         102977  101959
CHEXA      83313       1  100461  101162  102977  101959  100460  101160+
+         102981  101957
CHEXA      83314       1  100460  101160  102981  101957  100459  101158+
+         102985  101955
CHEXA      83315       1  100459  101158  102985  101955  100458  101156+
+         102989  101953
CHEXA      83316       1  100458  101156  102989  101953  100457  101154+
+         102993  101951
CHEXA      83317       1  100457  101154  102993  101951  100456  101152+
+         102997  101949
CHEXA      83318       1  100456  101152  102997  101949  100455  101150+
+         103001  101947
CHEXA      83319       1  100455  101150  103001  101947  100454  101148+
+         103005  101945
CHEXA      83320       1  100454  101148  103005  101945  100453  101146+
+         103009  101943
CHEXA      83321       1  100453  101146  103009  101943  100452  101144+
+         103013  101941
CHEXA      83322       1  100452  101144  103013  101941  100451  101142+
+         103017  101939
CHEXA      83323       1  100451  101142  103017  101939  100450  101140+
+         103021  101937
CHEXA      83324       1  100450  101140  103021  101937  100449  101138+
+         103025  101935
CHEXA      83325       1  100449  101138  103025  101935  100448  101136+
+         103029  101933
CHEXA      83326       1  100448  101136  103029  101933  100447  101134+
+         103033  101931
CHEXA      83327       1  100447  101134  103033  101931  100446  101132+
+         103037  101929
CHEXA      83328       1  100446  101132  103037  101929  100445  101130+
+         103041  101927
CHEXA      83329       1  100445  101130  103041  101927  100444  101128+
+         103045  101925
CHEXA      83330       1  100444  101128  103045  101925  100443  101126+
+         103049  101923
CHEXA      83331       1  100443  101126  103049  101923  100442  101124+
+         103053  101921
CHEXA      83332       1  100442  101124  103053  101921  100441  101122+
+         103057  101919
CHEXA      83333       1  100441  101122  103057  101919  100440  101120+
+         103061  101917
CHEXA      83334       1  100440  101120  103061  101917  100439  101118+
+         103065  101915
CHEXA      83335       1  100439  101118  103065  101915  100438  101116+
+         103069  101913
CHEXA      83336       1  100438  101116  103069  101913  100437  101114+
+         103073  101911
CHEXA      83337       1  100437  101114  103073  101911  100436  101112+
+         103077  101909
CHEXA      83338       1  100436  101112  103077  101909  100435  101110+
+         103081  101907
CHEXA      83339       1  100435  101110  103081  101907  100434  101108+
+         103085  101905
CHEXA      83340       1  100434  101108  103085  101905  100433  101106+
+         103089  101903
CHEXA      83341       1  100433  101106  103089  101903  100432  101104+
+         103093  101901
CHEXA      83342       1  100432  101104  103093  101901  100431  101102+
+         103097  101899
CHEXA      83343       1  100431  101102  103097  101899  100430  101100+
+         103101  101897
CHEXA      83344       1  100430  101100  103101  101897  100429  101098+
+         103105  101895
CHEXA      83345       1  100429  101098  103105  101895  100428  101096+
+         103109  101893
CHEXA      83346       1  100428  101096  103109  101893  100427  101094+
+         103113  101891
CHEXA      83347       1  100427  101094  103113  101891  100426  101092+
+         103117  101889
CHEXA      83348       1  100426  101092  103117  101889  100425  101090+
+         103121  101887
CHEXA      83349       1  100425  101090  103121  101887  100424  101088+
+         103125  101885
CHEXA      83350       1  100424  101088  103125  101885  100423  101086+
+         103129  101883
CHEXA      83351       1  100423  101086  103129  101883  100422  101084+
+         103133  101881
CHEXA      83352       1  100422  101084  103133  101881  100421  101082+
+         103137  101879
CHEXA      83353       1  100421  101082  103137  101879  100420  101080+
+         103141  101877
CHEXA      83354       1  100420  101080  103141  101877  100419  101078+
+         103145  101875
CHEXA      83355       1  100419  101078  103145  101875  100418  101076+
+         103149  101873
CHEXA      83356       1  100418  101076  103149  101873  100417  101074+
+         103153  101871
CHEXA      83357       1  100417  101074  103153  101871  100416  101072+
+         103157  101869
CHEXA      83358       1  100416  101072  103157  101869  100415  101070+
+         103161  101867
CHEXA      83359       1  100415  101070  103161  101867  100414  101068+
+         103165  101865
CHEXA      83360       1  100414  101068  103165  101865  100413  101066+
+         103169  101863
CHEXA      83361       1  100413  101066  103169  101863  100412  101064+
+         103173  101861
CHEXA      83362       1  100412  101064  103173  101861  100411  101062+
+         103177  101859
CHEXA      83363       1  100411  101062  103177  101859  100410  101060+
+         103181  101857
CHEXA      83364       1  100410  101060  103181  101857  100409  101058+
+         103185  101855
CHEXA      83365       1  100409  101058  103185  101855  100408  101056+
+         103189  101853
CHEXA      83366       1  100408  101056  103189  101853  100407  101054+
+         103193  101851
CHEXA      83367       1  100407  101054  103193  101851  100406  101052+
+         103197  101849
CHEXA      83368       1  100406  101052  103197  101849  100405  101050+
+         103201  101847
CHEXA      83369       1  100405  101050  103201  101847  100404  101048+
+         103205  101845
CHEXA      83370       1  100404  101048  103205  101845  100403  101046+
+         103209  101843
CHEXA      83371       1  100403  101046  103209  101843  100402  101044+
+         103213  101841
CHEXA      83372       1  100402  101044  103213  101841  100401  101042+
+         103217  101839
CHEXA      83373       1  100401  101042  103217  101839  100400  101040+
+         103221  101837
CHEXA      83374       1  100400  101040  103221  101837  100399  101038+
+         103225  101835
CHEXA      83375       1  100399  101038  103225  101835  100398  101036+
+         103229  101833
CHEXA      83376       1  100398  101036  103229  101833  100397  101034+
+         103233  101831
CHEXA      83377       1  100397  101034  103233  101831  100396  101032+
+         103237  101829
CHEXA      83378       1  100396  101032  103237  101829  100395  101030+
+         103241  101827
CHEXA      83379       1  100395  101030  103241  101827  100394  101028+
+         103245  101825
CHEXA      83380       1  100394  101028  103245  101825  100393  101026+
+         103249  101823
CHEXA      83381       1  100393  101026  103249  101823  100392  101024+
+         103253  101821
CHEXA      83382       1  100392  101024  103253  101821  100391  101022+
+         103257  101819
CHEXA      83383       1  100391  101022  103257  101819  100390  101020+
+         103261  101817
CHEXA      83384       1  100390  101020  103261  101817  100389  101018+
+         103265  101815
CHEXA      83385       1  100389  101018  103265  101815  100388  101016+
+         103269  101813
CHEXA      83386       1  100388  101016  103269  101813  100387  101014+
+         103273  101811
CHEXA      83387       1  100387  101014  103273  101811  100386  101012+
+         103277  101809
CHEXA      83388       1  100386  101012  103277  101809  100385  101010+
+         103281  101807
CHEXA      83389       1  100385  101010  103281  101807  100384  101008+
+         103285  101805
CHEXA      83390       1  100384  101008  103285  101805  100383  101006+
+         103289  101803
CHEXA      83391       1  100383  101006  103289  101803  100382  101004+
+         103293  101801
CHEXA      83392       1  100382  101004  103293  101801  100381  101002+
+         103297  101799
CHEXA      83393       1  100381  101002  103297  101799  100380  101000+
+         103301  101797
CHEXA      83394       1  100380  101000  103301  101797  100379  100998+
+         103305  101795
CHEXA      83395       1  100379  100998  103305  101795  100378  100996+
+         103309  101793
CHEXA      83396       1  100378  100996  103309  101793  100377  100994+
+         103313  101791
CHEXA      83397       1  100377  100994  103313  101791  100376  100992+
+         103317  101789
CHEXA      83398       1  100376  100992  103317  101789  100375  100990+
+         103321  101787
CHEXA      83399       1  100375  100990  103321  101787  100374  100988+
+         103325  101785
CHEXA      83400       1  100374  100988  103325  101785  100373  100986+
+         103329  101783
CHEXA      83401       1  100373  100986  103329  101783  100372  100984+
+         103333  101781
CHEXA      83402       1  100372  100984  103333  101781  100371  100982+
+         103337  101779
CHEXA      83403       1  100371  100982  103337  101779  100370  100980+
+         103341  101777
CHEXA      83404       1  100370  100980  103341  101777  100369  100978+
+         103345  101775
CHEXA      83405       1  100369  100978  103345  101775  100368  100976+
+         103349  101773
CHEXA      83406       1  100368  100976  103349  101773  100367  100974+
+         103353  101771
CHEXA      83407       1  100367  100974  103353  101771  100366  100972+
+         103357  101769
CHEXA      83408       1  100366  100972  103357  101769  100365  100970+
+         103361  101767
CHEXA      83409       1  100365  100970  103361  101767  100163  100962+
+         102565  100967
CHEXA      83410       1   96949   96923   96922   96948  102163  102569+
+         102566  102162
CHEXA      83411       1  102163  102569  102566  102162  102161  102573+
+         102570  102160
CHEXA      83412       1  102161  102573  102570  102160  102159  102577+
+         102574  102158
CHEXA      83413       1  102159  102577  102574  102158  102157  102581+
+         102578  102156
CHEXA      83414       1  102157  102581  102578  102156  102155  102585+
+         102582  102154
CHEXA      83415       1  102155  102585  102582  102154  102153  102589+
+         102586  102152
CHEXA      83416       1  102153  102589  102586  102152  102151  102593+
+         102590  102150
CHEXA      83417       1  102151  102593  102590  102150  102149  102597+
+         102594  102148
CHEXA      83418       1  102149  102597  102594  102148  102147  102601+
+         102598  102146
CHEXA      83419       1  102147  102601  102598  102146  102145  102605+
+         102602  102144
CHEXA      83420       1  102145  102605  102602  102144  102143  102609+
+         102606  102142
CHEXA      83421       1  102143  102609  102606  102142  102141  102613+
+         102610  102140
CHEXA      83422       1  102141  102613  102610  102140  102139  102617+
+         102614  102138
CHEXA      83423       1  102139  102617  102614  102138  102137  102621+
+         102618  102136
CHEXA      83424       1  102137  102621  102618  102136  102135  102625+
+         102622  102134
CHEXA      83425       1  102135  102625  102622  102134  102133  102629+
+         102626  102132
CHEXA      83426       1  102133  102629  102626  102132  102131  102633+
+         102630  102130
CHEXA      83427       1  102131  102633  102630  102130  102129  102637+
+         102634  102128
CHEXA      83428       1  102129  102637  102634  102128  102127  102641+
+         102638  102126
CHEXA      83429       1  102127  102641  102638  102126  102125  102645+
+         102642  102124
CHEXA      83430       1  102125  102645  102642  102124  102123  102649+
+         102646  102122
CHEXA      83431       1  102123  102649  102646  102122  102121  102653+
+         102650  102120
CHEXA      83432       1  102121  102653  102650  102120  102119  102657+
+         102654  102118
CHEXA      83433       1  102119  102657  102654  102118  102117  102661+
+         102658  102116
CHEXA      83434       1  102117  102661  102658  102116  102115  102665+
+         102662  102114
CHEXA      83435       1  102115  102665  102662  102114  102113  102669+
+         102666  102112
CHEXA      83436       1  102113  102669  102666  102112  102111  102673+
+         102670  102110
CHEXA      83437       1  102111  102673  102670  102110  102109  102677+
+         102674  102108
CHEXA      83438       1  102109  102677  102674  102108  102107  102681+
+         102678  102106
CHEXA      83439       1  102107  102681  102678  102106  102105  102685+
+         102682  102104
CHEXA      83440       1  102105  102685  102682  102104  102103  102689+
+         102686  102102
CHEXA      83441       1  102103  102689  102686  102102  102101  102693+
+         102690  102100
CHEXA      83442       1  102101  102693  102690  102100  102099  102697+
+         102694  102098
CHEXA      83443       1  102099  102697  102694  102098  102097  102701+
+         102698  102096
CHEXA      83444       1  102097  102701  102698  102096  102095  102705+
+         102702  102094
CHEXA      83445       1  102095  102705  102702  102094  102093  102709+
+         102706  102092
CHEXA      83446       1  102093  102709  102706  102092  102091  102713+
+         102710  102090
CHEXA      83447       1  102091  102713  102710  102090  102089  102717+
+         102714  102088
CHEXA      83448       1  102089  102717  102714  102088  102087  102721+
+         102718  102086
CHEXA      83449       1  102087  102721  102718  102086  102085  102725+
+         102722  102084
CHEXA      83450       1  102085  102725  102722  102084  102083  102729+
+         102726  102082
CHEXA      83451       1  102083  102729  102726  102082  102081  102733+
+         102730  102080
CHEXA      83452       1  102081  102733  102730  102080  102079  102737+
+         102734  102078
CHEXA      83453       1  102079  102737  102734  102078  102077  102741+
+         102738  102076
CHEXA      83454       1  102077  102741  102738  102076  102075  102745+
+         102742  102074
CHEXA      83455       1  102075  102745  102742  102074  102073  102749+
+         102746  102072
CHEXA      83456       1  102073  102749  102746  102072  102071  102753+
+         102750  102070
CHEXA      83457       1  102071  102753  102750  102070  102069  102757+
+         102754  102068
CHEXA      83458       1  102069  102757  102754  102068  102067  102761+
+         102758  102066
CHEXA      83459       1  102067  102761  102758  102066  102065  102765+
+         102762  102064
CHEXA      83460       1  102065  102765  102762  102064  102063  102769+
+         102766  102062
CHEXA      83461       1  102063  102769  102766  102062  102061  102773+
+         102770  102060
CHEXA      83462       1  102061  102773  102770  102060  102059  102777+
+         102774  102058
CHEXA      83463       1  102059  102777  102774  102058  102057  102781+
+         102778  102056
CHEXA      83464       1  102057  102781  102778  102056  102055  102785+
+         102782  102054
CHEXA      83465       1  102055  102785  102782  102054  102053  102789+
+         102786  102052
CHEXA      83466       1  102053  102789  102786  102052  102051  102793+
+         102790  102050
CHEXA      83467       1  102051  102793  102790  102050  102049  102797+
+         102794  102048
CHEXA      83468       1  102049  102797  102794  102048  102047  102801+
+         102798  102046
CHEXA      83469       1  102047  102801  102798  102046  102045  102805+
+         102802  102044
CHEXA      83470       1  102045  102805  102802  102044  102043  102809+
+         102806  102042
CHEXA      83471       1  102043  102809  102806  102042  102041  102813+
+         102810  102040
CHEXA      83472       1  102041  102813  102810  102040  102039  102817+
+         102814  102038
CHEXA      83473       1  102039  102817  102814  102038  102037  102821+
+         102818  102036
CHEXA      83474       1  102037  102821  102818  102036  102035  102825+
+         102822  102034
CHEXA      83475       1  102035  102825  102822  102034  102033  102829+
+         102826  102032
CHEXA      83476       1  102033  102829  102826  102032  102031  102833+
+         102830  102030
CHEXA      83477       1  102031  102833  102830  102030  102029  102837+
+         102834  102028
CHEXA      83478       1  102029  102837  102834  102028  102027  102841+
+         102838  102026
CHEXA      83479       1  102027  102841  102838  102026  102025  102845+
+         102842  102024
CHEXA      83480       1  102025  102845  102842  102024  102023  102849+
+         102846  102022
CHEXA      83481       1  102023  102849  102846  102022  102021  102853+
+         102850  102020
CHEXA      83482       1  102021  102853  102850  102020  102019  102857+
+         102854  102018
CHEXA      83483       1  102019  102857  102854  102018  102017  102861+
+         102858  102016
CHEXA      83484       1  102017  102861  102858  102016  102015  102865+
+         102862  102014
CHEXA      83485       1  102015  102865  102862  102014  102013  102869+
+         102866  102012
CHEXA      83486       1  102013  102869  102866  102012  102011  102873+
+         102870  102010
CHEXA      83487       1  102011  102873  102870  102010  102009  102877+
+         102874  102008
CHEXA      83488       1  102009  102877  102874  102008  102007  102881+
+         102878  102006
CHEXA      83489       1  102007  102881  102878  102006  102005  102885+
+         102882  102004
CHEXA      83490       1  102005  102885  102882  102004  102003  102889+
+         102886  102002
CHEXA      83491       1  102003  102889  102886  102002  102001  102893+
+         102890  102000
CHEXA      83492       1  102001  102893  102890  102000  101999  102897+
+         102894  101998
CHEXA      83493       1  101999  102897  102894  101998  101997  102901+
+         102898  101996
CHEXA      83494       1  101997  102901  102898  101996  101995  102905+
+         102902  101994
CHEXA      83495       1  101995  102905  102902  101994  101993  102909+
+         102906  101992
CHEXA      83496       1  101993  102909  102906  101992  101991  102913+
+         102910  101990
CHEXA      83497       1  101991  102913  102910  101990  101989  102917+
+         102914  101988
CHEXA      83498       1  101989  102917  102914  101988  101987  102921+
+         102918  101986
CHEXA      83499       1  101987  102921  102918  101986  101985  102925+
+         102922  101984
CHEXA      83500       1  101985  102925  102922  101984  101983  102929+
+         102926  101982
CHEXA      83501       1  101983  102929  102926  101982  101981  102933+
+         102930  101980
CHEXA      83502       1  101981  102933  102930  101980  101979  102937+
+         102934  101978
CHEXA      83503       1  101979  102937  102934  101978  101977  102941+
+         102938  101976
CHEXA      83504       1  101977  102941  102938  101976  101975  102945+
+         102942  101974
CHEXA      83505       1  101975  102945  102942  101974  101973  102949+
+         102946  101972
CHEXA      83506       1  101973  102949  102946  101972  101971  102953+
+         102950  101970
CHEXA      83507       1  101971  102953  102950  101970  101969  102957+
+         102954  101968
CHEXA      83508       1  101969  102957  102954  101968  101967  102961+
+         102958  101966
CHEXA      83509       1  101967  102961  102958  101966  101965  102965+
+         102962  101964
CHEXA      83510       1  101965  102965  102962  101964  101963  102969+
+         102966  101962
CHEXA      83511       1  101963  102969  102966  101962  101961  102973+
+         102970  101960
CHEXA      83512       1  101961  102973  102970  101960  101959  102977+
+         102974  101958
CHEXA      83513       1  101959  102977  102974  101958  101957  102981+
+         102978  101956
CHEXA      83514       1  101957  102981  102978  101956  101955  102985+
+         102982  101954
CHEXA      83515       1  101955  102985  102982  101954  101953  102989+
+         102986  101952
CHEXA      83516       1  101953  102989  102986  101952  101951  102993+
+         102990  101950
CHEXA      83517       1  101951  102993  102990  101950  101949  102997+
+         102994  101948
CHEXA      83518       1  101949  102997  102994  101948  101947  103001+
+         102998  101946
CHEXA      83519       1  101947  103001  102998  101946  101945  103005+
+         103002  101944
CHEXA      83520       1  101945  103005  103002  101944  101943  103009+
+         103006  101942
CHEXA      83521       1  101943  103009  103006  101942  101941  103013+
+         103010  101940
CHEXA      83522       1  101941  103013  103010  101940  101939  103017+
+         103014  101938
CHEXA      83523       1  101939  103017  103014  101938  101937  103021+
+         103018  101936
CHEXA      83524       1  101937  103021  103018  101936  101935  103025+
+         103022  101934
CHEXA      83525       1  101935  103025  103022  101934  101933  103029+
+         103026  101932
CHEXA      83526       1  101933  103029  103026  101932  101931  103033+
+         103030  101930
CHEXA      83527       1  101931  103033  103030  101930  101929  103037+
+         103034  101928
CHEXA      83528       1  101929  103037  103034  101928  101927  103041+
+         103038  101926
CHEXA      83529       1  101927  103041  103038  101926  101925  103045+
+         103042  101924
CHEXA      83530       1  101925  103045  103042  101924  101923  103049+
+         103046  101922
CHEXA      83531       1  101923  103049  103046  101922  101921  103053+
+         103050  101920
CHEXA      83532       1  101921  103053  103050  101920  101919  103057+
+         103054  101918
CHEXA      83533       1  101919  103057  103054  101918  101917  103061+
+         103058  101916
CHEXA      83534       1  101917  103061  103058  101916  101915  103065+
+         103062  101914
CHEXA      83535       1  101915  103065  103062  101914  101913  103069+
+         103066  101912
CHEXA      83536       1  101913  103069  103066  101912  101911  103073+
+         103070  101910
CHEXA      83537       1  101911  103073  103070  101910  101909  103077+
+         103074  101908
CHEXA      83538       1  101909  103077  103074  101908  101907  103081+
+         103078  101906
CHEXA      83539       1  101907  103081  103078  101906  101905  103085+
+         103082  101904
CHEXA      83540       1  101905  103085  103082  101904  101903  103089+
+         103086  101902
CHEXA      83541       1  101903  103089  103086  101902  101901  103093+
+         103090  101900
CHEXA      83542       1  101901  103093  103090  101900  101899  103097+
+         103094  101898
CHEXA      83543       1  101899  103097  103094  101898  101897  103101+
+         103098  101896
CHEXA      83544       1  101897  103101  103098  101896  101895  103105+
+         103102  101894
CHEXA      83545       1  101895  103105  103102  101894  101893  103109+
+         103106  101892
CHEXA      83546       1  101893  103109  103106  101892  101891  103113+
+         103110  101890
CHEXA      83547       1  101891  103113  103110  101890  101889  103117+
+         103114  101888
CHEXA      83548       1  101889  103117  103114  101888  101887  103121+
+         103118  101886
CHEXA      83549       1  101887  103121  103118  101886  101885  103125+
+         103122  101884
CHEXA      83550       1  101885  103125  103122  101884  101883  103129+
+         103126  101882
CHEXA      83551       1  101883  103129  103126  101882  101881  103133+
+         103130  101880
CHEXA      83552       1  101881  103133  103130  101880  101879  103137+
+         103134  101878
CHEXA      83553       1  101879  103137  103134  101878  101877  103141+
+         103138  101876
CHEXA      83554       1  101877  103141  103138  101876  101875  103145+
+         103142  101874
CHEXA      83555       1  101875  103145  103142  101874  101873  103149+
+         103146  101872
CHEXA      83556       1  101873  103149  103146  101872  101871  103153+
+         103150  101870
CHEXA      83557       1  101871  103153  103150  101870  101869  103157+
+         103154  101868
CHEXA      83558       1  101869  103157  103154  101868  101867  103161+
+         103158  101866
CHEXA      83559       1  101867  103161  103158  101866  101865  103165+
+         103162  101864
CHEXA      83560       1  101865  103165  103162  101864  101863  103169+
+         103166  101862
CHEXA      83561       1  101863  103169  103166  101862  101861  103173+
+         103170  101860
CHEXA      83562       1  101861  103173  103170  101860  101859  103177+
+         103174  101858
CHEXA      83563       1  101859  103177  103174  101858  101857  103181+
+         103178  101856
CHEXA      83564       1  101857  103181  103178  101856  101855  103185+
+         103182  101854
CHEXA      83565       1  101855  103185  103182  101854  101853  103189+
+         103186  101852
CHEXA      83566       1  101853  103189  103186  101852  101851  103193+
+         103190  101850
CHEXA      83567       1  101851  103193  103190  101850  101849  103197+
+         103194  101848
CHEXA      83568       1  101849  103197  103194  101848  101847  103201+
+         103198  101846
CHEXA      83569       1  101847  103201  103198  101846  101845  103205+
+         103202  101844
CHEXA      83570       1  101845  103205  103202  101844  101843  103209+
+         103206  101842
CHEXA      83571       1  101843  103209  103206  101842  101841  103213+
+         103210  101840
CHEXA      83572       1  101841  103213  103210  101840  101839  103217+
+         103214  101838
CHEXA      83573       1  101839  103217  103214  101838  101837  103221+
+         103218  101836
CHEXA      83574       1  101837  103221  103218  101836  101835  103225+
+         103222  101834
CHEXA      83575       1  101835  103225  103222  101834  101833  103229+
+         103226  101832
CHEXA      83576       1  101833  103229  103226  101832  101831  103233+
+         103230  101830
CHEXA      83577       1  101831  103233  103230  101830  101829  103237+
+         103234  101828
CHEXA      83578       1  101829  103237  103234  101828  101827  103241+
+         103238  101826
CHEXA      83579       1  101827  103241  103238  101826  101825  103245+
+         103242  101824
CHEXA      83580       1  101825  103245  103242  101824  101823  103249+
+         103246  101822
CHEXA      83581       1  101823  103249  103246  101822  101821  103253+
+         103250  101820
CHEXA      83582       1  101821  103253  103250  101820  101819  103257+
+         103254  101818
CHEXA      83583       1  101819  103257  103254  101818  101817  103261+
+         103258  101816
CHEXA      83584       1  101817  103261  103258  101816  101815  103265+
+         103262  101814
CHEXA      83585       1  101815  103265  103262  101814  101813  103269+
+         103266  101812
CHEXA      83586       1  101813  103269  103266  101812  101811  103273+
+         103270  101810
CHEXA      83587       1  101811  103273  103270  101810  101809  103277+
+         103274  101808
CHEXA      83588       1  101809  103277  103274  101808  101807  103281+
+         103278  101806
CHEXA      83589       1  101807  103281  103278  101806  101805  103285+
+         103282  101804
CHEXA      83590       1  101805  103285  103282  101804  101803  103289+
+         103286  101802
CHEXA      83591       1  101803  103289  103286  101802  101801  103293+
+         103290  101800
CHEXA      83592       1  101801  103293  103290  101800  101799  103297+
+         103294  101798
CHEXA      83593       1  101799  103297  103294  101798  101797  103301+
+         103298  101796
CHEXA      83594       1  101797  103301  103298  101796  101795  103305+
+         103302  101794
CHEXA      83595       1  101795  103305  103302  101794  101793  103309+
+         103306  101792
CHEXA      83596       1  101793  103309  103306  101792  101791  103313+
+         103310  101790
CHEXA      83597       1  101791  103313  103310  101790  101789  103317+
+         103314  101788
CHEXA      83598       1  101789  103317  103314  101788  101787  103321+
+         103318  101786
CHEXA      83599       1  101787  103321  103318  101786  101785  103325+
+         103322  101784
CHEXA      83600       1  101785  103325  103322  101784  101783  103329+
+         103326  101782
CHEXA      83601       1  101783  103329  103326  101782  101781  103333+
+         103330  101780
CHEXA      83602       1  101781  103333  103330  101780  101779  103337+
+         103334  101778
CHEXA      83603       1  101779  103337  103334  101778  101777  103341+
+         103338  101776
CHEXA      83604       1  101777  103341  103338  101776  101775  103345+
+         103342  101774
CHEXA      83605       1  101775  103345  103342  101774  101773  103349+
+         103346  101772
CHEXA      83606       1  101773  103349  103346  101772  101771  103353+
+         103350  101770
CHEXA      83607       1  101771  103353  103350  101770  101769  103357+
+         103354  101768
CHEXA      83608       1  101769  103357  103354  101768  101767  103361+
+         103358  101766
CHEXA      83609       1  101767  103361  103358  101766  100967  102565+
+         102562  100966
$*  Mesh Collector: Solid(1)
$*  Mesh: 3d_mesh(3)
CHEXA      83610       1  102565  102564  102563  102562  106969  106968+
+         106967  106966
CHEXA      83611       1  106969  106968  106967  106966  106973  106972+
+         106971  106970
CHEXA      83612       1  106973  106972  106971  106970  106977  106976+
+         106975  106974
CHEXA      83613       1  106977  106976  106975  106974  106981  106980+
+         106979  106978
CHEXA      83614       1  106981  106980  106979  106978  106985  106984+
+         106983  106982
CHEXA      83615       1  106985  106984  106983  106982  106989  106988+
+         106987  106986
CHEXA      83616       1  106989  106988  106987  106986  106993  106992+
+         106991  106990
CHEXA      83617       1  106993  106992  106991  106990  106997  106996+
+         106995  106994
CHEXA      83618       1  106997  106996  106995  106994  107001  107000+
+         106999  106998
CHEXA      83619       1  107001  107000  106999  106998  107005  107004+
+         107003  107002
CHEXA      83620       1  107005  107004  107003  107002  107009  107008+
+         107007  107006
CHEXA      83621       1  107009  107008  107007  107006  107013  107012+
+         107011  107010
CHEXA      83622       1  107013  107012  107011  107010  107017  107016+
+         107015  107014
CHEXA      83623       1  107017  107016  107015  107014  107021  107020+
+         107019  107018
CHEXA      83624       1  107021  107020  107019  107018  107025  107024+
+         107023  107022
CHEXA      83625       1  107025  107024  107023  107022  107029  107028+
+         107027  107026
CHEXA      83626       1  107029  107028  107027  107026  107033  107032+
+         107031  107030
CHEXA      83627       1  107033  107032  107031  107030  107037  107036+
+         107035  107034
CHEXA      83628       1  107037  107036  107035  107034  107041  107040+
+         107039  107038
CHEXA      83629       1  107041  107040  107039  107038  107045  107044+
+         107043  107042
CHEXA      83630       1  107045  107044  107043  107042  107049  107048+
+         107047  107046
CHEXA      83631       1  107049  107048  107047  107046  107053  107052+
+         107051  107050
CHEXA      83632       1  107053  107052  107051  107050  107057  107056+
+         107055  107054
CHEXA      83633       1  107057  107056  107055  107054  107061  107060+
+         107059  107058
CHEXA      83634       1  107061  107060  107059  107058  107065  107064+
+         107063  107062
CHEXA      83635       1  107065  107064  107063  107062  107069  107068+
+         107067  107066
CHEXA      83636       1  107069  107068  107067  107066  107073  107072+
+         107071  107070
CHEXA      83637       1  107073  107072  107071  107070  107077  107076+
+         107075  107074
CHEXA      83638       1  107077  107076  107075  107074  107081  107080+
+         107079  107078
CHEXA      83639       1  107081  107080  107079  107078  107085  107084+
+         107083  107082
CHEXA      83640       1  107085  107084  107083  107082  107089  107088+
+         107087  107086
CHEXA      83641       1  107089  107088  107087  107086  107093  107092+
+         107091  107090
CHEXA      83642       1  107093  107092  107091  107090  107097  107096+
+         107095  107094
CHEXA      83643       1  107097  107096  107095  107094  107101  107100+
+         107099  107098
CHEXA      83644       1  107101  107100  107099  107098  107105  107104+
+         107103  107102
CHEXA      83645       1  107105  107104  107103  107102  107109  107108+
+         107107  107106
CHEXA      83646       1  107109  107108  107107  107106  107113  107112+
+         107111  107110
CHEXA      83647       1  107113  107112  107111  107110  107117  107116+
+         107115  107114
CHEXA      83648       1  107117  107116  107115  107114  107121  107120+
+         107119  107118
CHEXA      83649       1  107121  107120  107119  107118  107125  107124+
+         107123  107122
CHEXA      83650       1  107125  107124  107123  107122  107129  107128+
+         107127  107126
CHEXA      83651       1  107129  107128  107127  107126  107133  107132+
+         107131  107130
CHEXA      83652       1  107133  107132  107131  107130  107137  107136+
+         107135  107134
CHEXA      83653       1  107137  107136  107135  107134  107141  107140+
+         107139  107138
CHEXA      83654       1  107141  107140  107139  107138  107145  107144+
+         107143  107142
CHEXA      83655       1  107145  107144  107143  107142  107149  107148+
+         107147  107146
CHEXA      83656       1  107149  107148  107147  107146  107153  107152+
+         107151  107150
CHEXA      83657       1  107153  107152  107151  107150  107157  107156+
+         107155  107154
CHEXA      83658       1  107157  107156  107155  107154  107161  107160+
+         107159  107158
CHEXA      83659       1  107161  107160  107159  107158  107165  107164+
+         107163  107162
CHEXA      83660       1  107165  107164  107163  107162  107169  107168+
+         107167  107166
CHEXA      83661       1  107169  107168  107167  107166  107173  107172+
+         107171  107170
CHEXA      83662       1  107173  107172  107171  107170  107177  107176+
+         107175  107174
CHEXA      83663       1  107177  107176  107175  107174  107181  107180+
+         107179  107178
CHEXA      83664       1  107181  107180  107179  107178  107185  107184+
+         107183  107182
CHEXA      83665       1  107185  107184  107183  107182  107189  107188+
+         107187  107186
CHEXA      83666       1  107189  107188  107187  107186  107193  107192+
+         107191  107190
CHEXA      83667       1  107193  107192  107191  107190  107197  107196+
+         107195  107194
CHEXA      83668       1  107197  107196  107195  107194  107201  107200+
+         107199  107198
CHEXA      83669       1  107201  107200  107199  107198  107205  107204+
+         107203  107202
CHEXA      83670       1  107205  107204  107203  107202  107209  107208+
+         107207  107206
CHEXA      83671       1  107209  107208  107207  107206  107213  107212+
+         107211  107210
CHEXA      83672       1  107213  107212  107211  107210  107217  107216+
+         107215  107214
CHEXA      83673       1  107217  107216  107215  107214  107221  107220+
+         107219  107218
CHEXA      83674       1  107221  107220  107219  107218  107225  107224+
+         107223  107222
CHEXA      83675       1  107225  107224  107223  107222  107229  107228+
+         107227  107226
CHEXA      83676       1  107229  107228  107227  107226  107233  107232+
+         107231  107230
CHEXA      83677       1  107233  107232  107231  107230  107237  107236+
+         107235  107234
CHEXA      83678       1  107237  107236  107235  107234  107241  107240+
+         107239  107238
CHEXA      83679       1  107241  107240  107239  107238  107245  107244+
+         107243  107242
CHEXA      83680       1  107245  107244  107243  107242  107249  107248+
+         107247  107246
CHEXA      83681       1  107249  107248  107247  107246  107253  107252+
+         107251  107250
CHEXA      83682       1  107253  107252  107251  107250  107257  107256+
+         107255  107254
CHEXA      83683       1  107257  107256  107255  107254  107261  107260+
+         107259  107258
CHEXA      83684       1  107261  107260  107259  107258  107265  107264+
+         107263  107262
CHEXA      83685       1  107265  107264  107263  107262  107269  107268+
+         107267  107266
CHEXA      83686       1  107269  107268  107267  107266  107273  107272+
+         107271  107270
CHEXA      83687       1  107273  107272  107271  107270  107277  107276+
+         107275  107274
CHEXA      83688       1  107277  107276  107275  107274  107281  107280+
+         107279  107278
CHEXA      83689       1  107281  107280  107279  107278  107285  107284+
+         107283  107282
CHEXA      83690       1  107285  107284  107283  107282  107289  107288+
+         107287  107286
CHEXA      83691       1  107289  107288  107287  107286  107293  107292+
+         107291  107290
CHEXA      83692       1  107293  107292  107291  107290  107297  107296+
+         107295  107294
CHEXA      83693       1  107297  107296  107295  107294  107301  107300+
+         107299  107298
CHEXA      83694       1  107301  107300  107299  107298  107305  107304+
+         107303  107302
CHEXA      83695       1  107305  107304  107303  107302  107309  107308+
+         107307  107306
CHEXA      83696       1  107309  107308  107307  107306  107313  107312+
+         107311  107310
CHEXA      83697       1  107313  107312  107311  107310  107317  107316+
+         107315  107314
CHEXA      83698       1  107317  107316  107315  107314  107321  107320+
+         107319  107318
CHEXA      83699       1  107321  107320  107319  107318  107325  107324+
+         107323  107322
CHEXA      83700       1  107325  107324  107323  107322  107329  107328+
+         107327  107326
CHEXA      83701       1  107329  107328  107327  107326  107333  107332+
+         107331  107330
CHEXA      83702       1  107333  107332  107331  107330  107337  107336+
+         107335  107334
CHEXA      83703       1  107337  107336  107335  107334  107341  107340+
+         107339  107338
CHEXA      83704       1  107341  107340  107339  107338  107345  107344+
+         107343  107342
CHEXA      83705       1  107345  107344  107343  107342  107349  107348+
+         107347  107346
CHEXA      83706       1  107349  107348  107347  107346  107353  107352+
+         107351  107350
CHEXA      83707       1  107353  107352  107351  107350  107357  107356+
+         107355  107354
CHEXA      83708       1  107357  107356  107355  107354  107361  107360+
+         107359  107358
CHEXA      83709       1  107361  107360  107359  107358  107365  107364+
+         107363  107362
CHEXA      83710       1  107365  107364  107363  107362  107369  107368+
+         107367  107366
CHEXA      83711       1  107369  107368  107367  107366  107373  107372+
+         107371  107370
CHEXA      83712       1  107373  107372  107371  107370  107377  107376+
+         107375  107374
CHEXA      83713       1  107377  107376  107375  107374  107381  107380+
+         107379  107378
CHEXA      83714       1  107381  107380  107379  107378  107385  107384+
+         107383  107382
CHEXA      83715       1  107385  107384  107383  107382  107389  107388+
+         107387  107386
CHEXA      83716       1  107389  107388  107387  107386  107393  107392+
+         107391  107390
CHEXA      83717       1  107393  107392  107391  107390  107397  107396+
+         107395  107394
CHEXA      83718       1  107397  107396  107395  107394  107401  107400+
+         107399  107398
CHEXA      83719       1  107401  107400  107399  107398  107405  107404+
+         107403  107402
CHEXA      83720       1  107405  107404  107403  107402  107409  107408+
+         107407  107406
CHEXA      83721       1  107409  107408  107407  107406  107413  107412+
+         107411  107410
CHEXA      83722       1  107413  107412  107411  107410  107417  107416+
+         107415  107414
CHEXA      83723       1  107417  107416  107415  107414  107421  107420+
+         107419  107418
CHEXA      83724       1  107421  107420  107419  107418  107425  107424+
+         107423  107422
CHEXA      83725       1  107425  107424  107423  107422  107429  107428+
+         107427  107426
CHEXA      83726       1  107429  107428  107427  107426  107433  107432+
+         107431  107430
CHEXA      83727       1  107433  107432  107431  107430  107437  107436+
+         107435  107434
CHEXA      83728       1  107437  107436  107435  107434  107441  107440+
+         107439  107438
CHEXA      83729       1  107441  107440  107439  107438  107445  107444+
+         107443  107442
CHEXA      83730       1  107445  107444  107443  107442  107449  107448+
+         107447  107446
CHEXA      83731       1  107449  107448  107447  107446  107453  107452+
+         107451  107450
CHEXA      83732       1  107453  107452  107451  107450  107457  107456+
+         107455  107454
CHEXA      83733       1  107457  107456  107455  107454  107461  107460+
+         107459  107458
CHEXA      83734       1  107461  107460  107459  107458  107465  107464+
+         107463  107462
CHEXA      83735       1  107465  107464  107463  107462  107469  107468+
+         107467  107466
CHEXA      83736       1  107469  107468  107467  107466  107473  107472+
+         107471  107470
CHEXA      83737       1  107473  107472  107471  107470  107477  107476+
+         107475  107474
CHEXA      83738       1  107477  107476  107475  107474  107481  107480+
+         107479  107478
CHEXA      83739       1  107481  107480  107479  107478  107485  107484+
+         107483  107482
CHEXA      83740       1  107485  107484  107483  107482  107489  107488+
+         107487  107486
CHEXA      83741       1  107489  107488  107487  107486  107493  107492+
+         107491  107490
CHEXA      83742       1  107493  107492  107491  107490  107497  107496+
+         107495  107494
CHEXA      83743       1  107497  107496  107495  107494  107501  107500+
+         107499  107498
CHEXA      83744       1  107501  107500  107499  107498  107505  107504+
+         107503  107502
CHEXA      83745       1  107505  107504  107503  107502  107509  107508+
+         107507  107506
CHEXA      83746       1  107509  107508  107507  107506  107513  107512+
+         107511  107510
CHEXA      83747       1  107513  107512  107511  107510  107517  107516+
+         107515  107514
CHEXA      83748       1  107517  107516  107515  107514  107521  107520+
+         107519  107518
CHEXA      83749       1  107521  107520  107519  107518  107525  107524+
+         107523  107522
CHEXA      83750       1  107525  107524  107523  107522  107529  107528+
+         107527  107526
CHEXA      83751       1  107529  107528  107527  107526  107533  107532+
+         107531  107530
CHEXA      83752       1  107533  107532  107531  107530  107537  107536+
+         107535  107534
CHEXA      83753       1  107537  107536  107535  107534  107541  107540+
+         107539  107538
CHEXA      83754       1  107541  107540  107539  107538  107545  107544+
+         107543  107542
CHEXA      83755       1  107545  107544  107543  107542  107549  107548+
+         107547  107546
CHEXA      83756       1  107549  107548  107547  107546  107553  107552+
+         107551  107550
CHEXA      83757       1  107553  107552  107551  107550  107557  107556+
+         107555  107554
CHEXA      83758       1  107557  107556  107555  107554  107561  107560+
+         107559  107558
CHEXA      83759       1  107561  107560  107559  107558  107565  107564+
+         107563  107562
CHEXA      83760       1  107565  107564  107563  107562  107569  107568+
+         107567  107566
CHEXA      83761       1  107569  107568  107567  107566  107573  107572+
+         107571  107570
CHEXA      83762       1  107573  107572  107571  107570  107577  107576+
+         107575  107574
CHEXA      83763       1  107577  107576  107575  107574  107581  107580+
+         107579  107578
CHEXA      83764       1  107581  107580  107579  107578  107585  107584+
+         107583  107582
CHEXA      83765       1  107585  107584  107583  107582  107589  107588+
+         107587  107586
CHEXA      83766       1  107589  107588  107587  107586  107593  107592+
+         107591  107590
CHEXA      83767       1  107593  107592  107591  107590  107597  107596+
+         107595  107594
CHEXA      83768       1  107597  107596  107595  107594  107601  107600+
+         107599  107598
CHEXA      83769       1  107601  107600  107599  107598  107605  107604+
+         107603  107602
CHEXA      83770       1  107605  107604  107603  107602  107609  107608+
+         107607  107606
CHEXA      83771       1  107609  107608  107607  107606  107613  107612+
+         107611  107610
CHEXA      83772       1  107613  107612  107611  107610  107617  107616+
+         107615  107614
CHEXA      83773       1  107617  107616  107615  107614  107621  107620+
+         107619  107618
CHEXA      83774       1  107621  107620  107619  107618  107625  107624+
+         107623  107622
CHEXA      83775       1  107625  107624  107623  107622  107629  107628+
+         107627  107626
CHEXA      83776       1  107629  107628  107627  107626  107633  107632+
+         107631  107630
CHEXA      83777       1  107633  107632  107631  107630  107637  107636+
+         107635  107634
CHEXA      83778       1  107637  107636  107635  107634  107641  107640+
+         107639  107638
CHEXA      83779       1  107641  107640  107639  107638  107645  107644+
+         107643  107642
CHEXA      83780       1  107645  107644  107643  107642  107649  107648+
+         107647  107646
CHEXA      83781       1  107649  107648  107647  107646  107653  107652+
+         107651  107650
CHEXA      83782       1  107653  107652  107651  107650  107657  107656+
+         107655  107654
CHEXA      83783       1  107657  107656  107655  107654  107661  107660+
+         107659  107658
CHEXA      83784       1  107661  107660  107659  107658  107665  107664+
+         107663  107662
CHEXA      83785       1  107665  107664  107663  107662  107669  107668+
+         107667  107666
CHEXA      83786       1  107669  107668  107667  107666  107673  107672+
+         107671  107670
CHEXA      83787       1  107673  107672  107671  107670  107677  107676+
+         107675  107674
CHEXA      83788       1  107677  107676  107675  107674  107681  107680+
+         107679  107678
CHEXA      83789       1  107681  107680  107679  107678  107685  107684+
+         107683  107682
CHEXA      83790       1  107685  107684  107683  107682  107689  107688+
+         107687  107686
CHEXA      83791       1  107689  107688  107687  107686  107693  107692+
+         107691  107690
CHEXA      83792       1  107693  107692  107691  107690  107697  107696+
+         107695  107694
CHEXA      83793       1  107697  107696  107695  107694  107701  107700+
+         107699  107698
CHEXA      83794       1  107701  107700  107699  107698  107705  107704+
+         107703  107702
CHEXA      83795       1  107705  107704  107703  107702  107709  107708+
+         107707  107706
CHEXA      83796       1  107709  107708  107707  107706  107713  107712+
+         107711  107710
CHEXA      83797       1  107713  107712  107711  107710  107717  107716+
+         107715  107714
CHEXA      83798       1  107717  107716  107715  107714  107721  107720+
+         107719  107718
CHEXA      83799       1  107721  107720  107719  107718  107725  107724+
+         107723  107722
CHEXA      83800       1  107725  107724  107723  107722  107729  107728+
+         107727  107726
CHEXA      83801       1  107729  107728  107727  107726  107733  107732+
+         107731  107730
CHEXA      83802       1  107733  107732  107731  107730  107737  107736+
+         107735  107734
CHEXA      83803       1  107737  107736  107735  107734  107741  107740+
+         107739  107738
CHEXA      83804       1  107741  107740  107739  107738  107745  107744+
+         107743  107742
CHEXA      83805       1  107745  107744  107743  107742  107749  107748+
+         107747  107746
CHEXA      83806       1  107749  107748  107747  107746  107753  107752+
+         107751  107750
CHEXA      83807       1  107753  107752  107751  107750  107757  107756+
+         107755  107754
CHEXA      83808       1  107757  107756  107755  107754  107761  107760+
+         107759  107758
CHEXA      83809       1  107761  107760  107759  107758  107765  107764+
+         107763  107762
CHEXA      83810       1  107765  107764  107763  107762  107769  107768+
+         107767  107766
CHEXA      83811       1  107769  107768  107767  107766  107773  107772+
+         107771  107770
CHEXA      83812       1  107773  107772  107771  107770  107777  107776+
+         107775  107774
CHEXA      83813       1  107777  107776  107775  107774  107781  107780+
+         107779  107778
CHEXA      83814       1  107781  107780  107779  107778  107785  107784+
+         107783  107782
CHEXA      83815       1  107785  107784  107783  107782  107789  107788+
+         107787  107786
CHEXA      83816       1  107789  107788  107787  107786  107793  107792+
+         107791  107790
CHEXA      83817       1  107793  107792  107791  107790  107797  107796+
+         107795  107794
CHEXA      83818       1  107797  107796  107795  107794  107801  107800+
+         107799  107798
CHEXA      83819       1  107801  107800  107799  107798  107805  107804+
+         107803  107802
CHEXA      83820       1  107805  107804  107803  107802  107809  107808+
+         107807  107806
CHEXA      83821       1  107809  107808  107807  107806  107813  107812+
+         107811  107810
CHEXA      83822       1  107813  107812  107811  107810  107817  107816+
+         107815  107814
CHEXA      83823       1  107817  107816  107815  107814  107821  107820+
+         107819  107818
CHEXA      83824       1  107821  107820  107819  107818  107825  107824+
+         107823  107822
CHEXA      83825       1  107825  107824  107823  107822  107829  107828+
+         107827  107826
CHEXA      83826       1  107829  107828  107827  107826  107833  107832+
+         107831  107830
CHEXA      83827       1  107833  107832  107831  107830  107837  107836+
+         107835  107834
CHEXA      83828       1  107837  107836  107835  107834  107841  107840+
+         107839  107838
CHEXA      83829       1  107841  107840  107839  107838  107845  107844+
+         107843  107842
CHEXA      83830       1  107845  107844  107843  107842  107849  107848+
+         107847  107846
CHEXA      83831       1  107849  107848  107847  107846  107853  107852+
+         107851  107850
CHEXA      83832       1  107853  107852  107851  107850  107857  107856+
+         107855  107854
CHEXA      83833       1  107857  107856  107855  107854  107861  107860+
+         107859  107858
CHEXA      83834       1  107861  107860  107859  107858  107865  107864+
+         107863  107862
CHEXA      83835       1  107865  107864  107863  107862  107869  107868+
+         107867  107866
CHEXA      83836       1  107869  107868  107867  107866  107873  107872+
+         107871  107870
CHEXA      83837       1  107873  107872  107871  107870  107877  107876+
+         107875  107874
CHEXA      83838       1  107877  107876  107875  107874  107881  107880+
+         107879  107878
CHEXA      83839       1  107881  107880  107879  107878  107885  107884+
+         107883  107882
CHEXA      83840       1  107885  107884  107883  107882  107889  107888+
+         107887  107886
CHEXA      83841       1  107889  107888  107887  107886  107893  107892+
+         107891  107890
CHEXA      83842       1  107893  107892  107891  107890  107897  107896+
+         107895  107894
CHEXA      83843       1  107897  107896  107895  107894  107901  107900+
+         107899  107898
CHEXA      83844       1  107901  107900  107899  107898  107905  107904+
+         107903  107902
CHEXA      83845       1  107905  107904  107903  107902  107909  107908+
+         107907  107906
CHEXA      83846       1  107909  107908  107907  107906  107913  107912+
+         107911  107910
CHEXA      83847       1  107913  107912  107911  107910  107917  107916+
+         107915  107914
CHEXA      83848       1  107917  107916  107915  107914  107921  107920+
+         107919  107918
CHEXA      83849       1  107921  107920  107919  107918  107925  107924+
+         107923  107922
CHEXA      83850       1  107925  107924  107923  107922  107929  107928+
+         107927  107926
CHEXA      83851       1  107929  107928  107927  107926  107933  107932+
+         107931  107930
CHEXA      83852       1  107933  107932  107931  107930  107937  107936+
+         107935  107934
CHEXA      83853       1  107937  107936  107935  107934  107941  107940+
+         107939  107938
CHEXA      83854       1  107941  107940  107939  107938  107945  107944+
+         107943  107942
CHEXA      83855       1  107945  107944  107943  107942  107949  107948+
+         107947  107946
CHEXA      83856       1  107949  107948  107947  107946  107953  107952+
+         107951  107950
CHEXA      83857       1  107953  107952  107951  107950  107957  107956+
+         107955  107954
CHEXA      83858       1  107957  107956  107955  107954  107961  107960+
+         107959  107958
CHEXA      83859       1  107961  107960  107959  107958  107965  107964+
+         107963  107962
CHEXA      83860       1  107965  107964  107963  107962  107969  107968+
+         107967  107966
CHEXA      83861       1  107969  107968  107967  107966  107973  107972+
+         107971  107970
CHEXA      83862       1  107973  107972  107971  107970  107977  107976+
+         107975  107974
CHEXA      83863       1  107977  107976  107975  107974  107981  107980+
+         107979  107978
CHEXA      83864       1  107981  107980  107979  107978  107985  107984+
+         107983  107982
CHEXA      83865       1  107985  107984  107983  107982  107989  107988+
+         107987  107986
CHEXA      83866       1  107989  107988  107987  107986  107993  107992+
+         107991  107990
CHEXA      83867       1  107993  107992  107991  107990  107997  107996+
+         107995  107994
CHEXA      83868       1  107997  107996  107995  107994  108001  108000+
+         107999  107998
CHEXA      83869       1  108001  108000  107999  107998  108005  108004+
+         108003  108002
CHEXA      83870       1  108005  108004  108003  108002  108009  108008+
+         108007  108006
CHEXA      83871       1  108009  108008  108007  108006  108013  108012+
+         108011  108010
CHEXA      83872       1  108013  108012  108011  108010  108017  108016+
+         108015  108014
CHEXA      83873       1  108017  108016  108015  108014  108021  108020+
+         108019  108018
CHEXA      83874       1  108021  108020  108019  108018  108025  108024+
+         108023  108022
CHEXA      83875       1  108025  108024  108023  108022  108029  108028+
+         108027  108026
CHEXA      83876       1  108029  108028  108027  108026  108033  108032+
+         108031  108030
CHEXA      83877       1  108033  108032  108031  108030  108037  108036+
+         108035  108034
CHEXA      83878       1  108037  108036  108035  108034  108041  108040+
+         108039  108038
CHEXA      83879       1  108041  108040  108039  108038  108045  108044+
+         108043  108042
CHEXA      83880       1  108045  108044  108043  108042  108049  108048+
+         108047  108046
CHEXA      83881       1  108049  108048  108047  108046  108053  108052+
+         108051  108050
CHEXA      83882       1  108053  108052  108051  108050  108057  108056+
+         108055  108054
CHEXA      83883       1  108057  108056  108055  108054  108061  108060+
+         108059  108058
CHEXA      83884       1  108061  108060  108059  108058  108065  108064+
+         108063  108062
CHEXA      83885       1  108065  108064  108063  108062  108069  108068+
+         108067  108066
CHEXA      83886       1  108069  108068  108067  108066  108073  108072+
+         108071  108070
CHEXA      83887       1  108073  108072  108071  108070  108077  108076+
+         108075  108074
CHEXA      83888       1  108077  108076  108075  108074  108081  108080+
+         108079  108078
CHEXA      83889       1  108081  108080  108079  108078  108085  108084+
+         108083  108082
CHEXA      83890       1  108085  108084  108083  108082  108089  108088+
+         108087  108086
CHEXA      83891       1  108089  108088  108087  108086  108093  108092+
+         108091  108090
CHEXA      83892       1  108093  108092  108091  108090  108097  108096+
+         108095  108094
CHEXA      83893       1  108097  108096  108095  108094  108101  108100+
+         108099  108098
CHEXA      83894       1  108101  108100  108099  108098  108105  108104+
+         108103  108102
CHEXA      83895       1  108105  108104  108103  108102  108109  108108+
+         108107  108106
CHEXA      83896       1  108109  108108  108107  108106  108113  108112+
+         108111  108110
CHEXA      83897       1  108113  108112  108111  108110  108117  108116+
+         108115  108114
CHEXA      83898       1  108117  108116  108115  108114  108121  108120+
+         108119  108118
CHEXA      83899       1  108121  108120  108119  108118  108125  108124+
+         108123  108122
CHEXA      83900       1  108125  108124  108123  108122  108129  108128+
+         108127  108126
CHEXA      83901       1  108129  108128  108127  108126  108133  108132+
+         108131  108130
CHEXA      83902       1  108133  108132  108131  108130  108137  108136+
+         108135  108134
CHEXA      83903       1  108137  108136  108135  108134  108141  108140+
+         108139  108138
CHEXA      83904       1  108141  108140  108139  108138  108145  108144+
+         108143  108142
CHEXA      83905       1  108145  108144  108143  108142  108149  108148+
+         108147  108146
CHEXA      83906       1  108149  108148  108147  108146  108153  108152+
+         108151  108150
CHEXA      83907       1  108153  108152  108151  108150  108157  108156+
+         108155  108154
CHEXA      83908       1  108157  108156  108155  108154  108161  108160+
+         108159  108158
CHEXA      83909       1  108161  108160  108159  108158  106965  106964+
+         106963  106962
CHEXA      83910       1  100966  102562  100968  100165  106362  106966+
+         106364  104569
CHEXA      83911       1  106362  106966  106364  104569  106360  106970+
+         106366  104568
CHEXA      83912       1  106360  106970  106366  104568  106358  106974+
+         106368  104567
CHEXA      83913       1  106358  106974  106368  104567  106356  106978+
+         106370  104566
CHEXA      83914       1  106356  106978  106370  104566  106354  106982+
+         106372  104565
CHEXA      83915       1  106354  106982  106372  104565  106352  106986+
+         106374  104564
CHEXA      83916       1  106352  106986  106374  104564  106350  106990+
+         106376  104563
CHEXA      83917       1  106350  106990  106376  104563  106348  106994+
+         106378  104562
CHEXA      83918       1  106348  106994  106378  104562  106346  106998+
+         106380  104561
CHEXA      83919       1  106346  106998  106380  104561  106344  107002+
+         106382  104560
CHEXA      83920       1  106344  107002  106382  104560  106342  107006+
+         106384  104559
CHEXA      83921       1  106342  107006  106384  104559  106340  107010+
+         106386  104558
CHEXA      83922       1  106340  107010  106386  104558  106338  107014+
+         106388  104557
CHEXA      83923       1  106338  107014  106388  104557  106336  107018+
+         106390  104556
CHEXA      83924       1  106336  107018  106390  104556  106334  107022+
+         106392  104555
CHEXA      83925       1  106334  107022  106392  104555  106332  107026+
+         106394  104554
CHEXA      83926       1  106332  107026  106394  104554  106330  107030+
+         106396  104553
CHEXA      83927       1  106330  107030  106396  104553  106328  107034+
+         106398  104552
CHEXA      83928       1  106328  107034  106398  104552  106326  107038+
+         106400  104551
CHEXA      83929       1  106326  107038  106400  104551  106324  107042+
+         106402  104550
CHEXA      83930       1  106324  107042  106402  104550  106322  107046+
+         106404  104549
CHEXA      83931       1  106322  107046  106404  104549  106320  107050+
+         106406  104548
CHEXA      83932       1  106320  107050  106406  104548  106318  107054+
+         106408  104547
CHEXA      83933       1  106318  107054  106408  104547  106316  107058+
+         106410  104546
CHEXA      83934       1  106316  107058  106410  104546  106314  107062+
+         106412  104545
CHEXA      83935       1  106314  107062  106412  104545  106312  107066+
+         106414  104544
CHEXA      83936       1  106312  107066  106414  104544  106310  107070+
+         106416  104543
CHEXA      83937       1  106310  107070  106416  104543  106308  107074+
+         106418  104542
CHEXA      83938       1  106308  107074  106418  104542  106306  107078+
+         106420  104541
CHEXA      83939       1  106306  107078  106420  104541  106304  107082+
+         106422  104540
CHEXA      83940       1  106304  107082  106422  104540  106302  107086+
+         106424  104539
CHEXA      83941       1  106302  107086  106424  104539  106300  107090+
+         106426  104538
CHEXA      83942       1  106300  107090  106426  104538  106298  107094+
+         106428  104537
CHEXA      83943       1  106298  107094  106428  104537  106296  107098+
+         106430  104536
CHEXA      83944       1  106296  107098  106430  104536  106294  107102+
+         106432  104535
CHEXA      83945       1  106294  107102  106432  104535  106292  107106+
+         106434  104534
CHEXA      83946       1  106292  107106  106434  104534  106290  107110+
+         106436  104533
CHEXA      83947       1  106290  107110  106436  104533  106288  107114+
+         106438  104532
CHEXA      83948       1  106288  107114  106438  104532  106286  107118+
+         106440  104531
CHEXA      83949       1  106286  107118  106440  104531  106284  107122+
+         106442  104530
CHEXA      83950       1  106284  107122  106442  104530  106282  107126+
+         106444  104529
CHEXA      83951       1  106282  107126  106444  104529  106280  107130+
+         106446  104528
CHEXA      83952       1  106280  107130  106446  104528  106278  107134+
+         106448  104527
CHEXA      83953       1  106278  107134  106448  104527  106276  107138+
+         106450  104526
CHEXA      83954       1  106276  107138  106450  104526  106274  107142+
+         106452  104525
CHEXA      83955       1  106274  107142  106452  104525  106272  107146+
+         106454  104524
CHEXA      83956       1  106272  107146  106454  104524  106270  107150+
+         106456  104523
CHEXA      83957       1  106270  107150  106456  104523  106268  107154+
+         106458  104522
CHEXA      83958       1  106268  107154  106458  104522  106266  107158+
+         106460  104521
CHEXA      83959       1  106266  107158  106460  104521  106264  107162+
+         106462  104520
CHEXA      83960       1  106264  107162  106462  104520  106262  107166+
+         106464  104519
CHEXA      83961       1  106262  107166  106464  104519  106260  107170+
+         106466  104518
CHEXA      83962       1  106260  107170  106466  104518  106258  107174+
+         106468  104517
CHEXA      83963       1  106258  107174  106468  104517  106256  107178+
+         106470  104516
CHEXA      83964       1  106256  107178  106470  104516  106254  107182+
+         106472  104515
CHEXA      83965       1  106254  107182  106472  104515  106252  107186+
+         106474  104514
CHEXA      83966       1  106252  107186  106474  104514  106250  107190+
+         106476  104513
CHEXA      83967       1  106250  107190  106476  104513  106248  107194+
+         106478  104512
CHEXA      83968       1  106248  107194  106478  104512  106246  107198+
+         106480  104511
CHEXA      83969       1  106246  107198  106480  104511  106244  107202+
+         106482  104510
CHEXA      83970       1  106244  107202  106482  104510  106242  107206+
+         106484  104509
CHEXA      83971       1  106242  107206  106484  104509  106240  107210+
+         106486  104508
CHEXA      83972       1  106240  107210  106486  104508  106238  107214+
+         106488  104507
CHEXA      83973       1  106238  107214  106488  104507  106236  107218+
+         106490  104506
CHEXA      83974       1  106236  107218  106490  104506  106234  107222+
+         106492  104505
CHEXA      83975       1  106234  107222  106492  104505  106232  107226+
+         106494  104504
CHEXA      83976       1  106232  107226  106494  104504  106230  107230+
+         106496  104503
CHEXA      83977       1  106230  107230  106496  104503  106228  107234+
+         106498  104502
CHEXA      83978       1  106228  107234  106498  104502  106226  107238+
+         106500  104501
CHEXA      83979       1  106226  107238  106500  104501  106224  107242+
+         106502  104500
CHEXA      83980       1  106224  107242  106502  104500  106222  107246+
+         106504  104499
CHEXA      83981       1  106222  107246  106504  104499  106220  107250+
+         106506  104498
CHEXA      83982       1  106220  107250  106506  104498  106218  107254+
+         106508  104497
CHEXA      83983       1  106218  107254  106508  104497  106216  107258+
+         106510  104496
CHEXA      83984       1  106216  107258  106510  104496  106214  107262+
+         106512  104495
CHEXA      83985       1  106214  107262  106512  104495  106212  107266+
+         106514  104494
CHEXA      83986       1  106212  107266  106514  104494  106210  107270+
+         106516  104493
CHEXA      83987       1  106210  107270  106516  104493  106208  107274+
+         106518  104492
CHEXA      83988       1  106208  107274  106518  104492  106206  107278+
+         106520  104491
CHEXA      83989       1  106206  107278  106520  104491  106204  107282+
+         106522  104490
CHEXA      83990       1  106204  107282  106522  104490  106202  107286+
+         106524  104489
CHEXA      83991       1  106202  107286  106524  104489  106200  107290+
+         106526  104488
CHEXA      83992       1  106200  107290  106526  104488  106198  107294+
+         106528  104487
CHEXA      83993       1  106198  107294  106528  104487  106196  107298+
+         106530  104486
CHEXA      83994       1  106196  107298  106530  104486  106194  107302+
+         106532  104485
CHEXA      83995       1  106194  107302  106532  104485  106192  107306+
+         106534  104484
CHEXA      83996       1  106192  107306  106534  104484  106190  107310+
+         106536  104483
CHEXA      83997       1  106190  107310  106536  104483  106188  107314+
+         106538  104482
CHEXA      83998       1  106188  107314  106538  104482  106186  107318+
+         106540  104481
CHEXA      83999       1  106186  107318  106540  104481  106184  107322+
+         106542  104480
CHEXA      84000       1  106184  107322  106542  104480  106182  107326+
+         106544  104479
CHEXA      84001       1  106182  107326  106544  104479  106180  107330+
+         106546  104478
CHEXA      84002       1  106180  107330  106546  104478  106178  107334+
+         106548  104477
CHEXA      84003       1  106178  107334  106548  104477  106176  107338+
+         106550  104476
CHEXA      84004       1  106176  107338  106550  104476  106174  107342+
+         106552  104475
CHEXA      84005       1  106174  107342  106552  104475  106172  107346+
+         106554  104474
CHEXA      84006       1  106172  107346  106554  104474  106170  107350+
+         106556  104473
CHEXA      84007       1  106170  107350  106556  104473  106168  107354+
+         106558  104472
CHEXA      84008       1  106168  107354  106558  104472  106166  107358+
+         106560  104471
CHEXA      84009       1  106166  107358  106560  104471  106164  107362+
+         106562  104470
CHEXA      84010       1  106164  107362  106562  104470  106162  107366+
+         106564  104469
CHEXA      84011       1  106162  107366  106564  104469  106160  107370+
+         106566  104468
CHEXA      84012       1  106160  107370  106566  104468  106158  107374+
+         106568  104467
CHEXA      84013       1  106158  107374  106568  104467  106156  107378+
+         106570  104466
CHEXA      84014       1  106156  107378  106570  104466  106154  107382+
+         106572  104465
CHEXA      84015       1  106154  107382  106572  104465  106152  107386+
+         106574  104464
CHEXA      84016       1  106152  107386  106574  104464  106150  107390+
+         106576  104463
CHEXA      84017       1  106150  107390  106576  104463  106148  107394+
+         106578  104462
CHEXA      84018       1  106148  107394  106578  104462  106146  107398+
+         106580  104461
CHEXA      84019       1  106146  107398  106580  104461  106144  107402+
+         106582  104460
CHEXA      84020       1  106144  107402  106582  104460  106142  107406+
+         106584  104459
CHEXA      84021       1  106142  107406  106584  104459  106140  107410+
+         106586  104458
CHEXA      84022       1  106140  107410  106586  104458  106138  107414+
+         106588  104457
CHEXA      84023       1  106138  107414  106588  104457  106136  107418+
+         106590  104456
CHEXA      84024       1  106136  107418  106590  104456  106134  107422+
+         106592  104455
CHEXA      84025       1  106134  107422  106592  104455  106132  107426+
+         106594  104454
CHEXA      84026       1  106132  107426  106594  104454  106130  107430+
+         106596  104453
CHEXA      84027       1  106130  107430  106596  104453  106128  107434+
+         106598  104452
CHEXA      84028       1  106128  107434  106598  104452  106126  107438+
+         106600  104451
CHEXA      84029       1  106126  107438  106600  104451  106124  107442+
+         106602  104450
CHEXA      84030       1  106124  107442  106602  104450  106122  107446+
+         106604  104449
CHEXA      84031       1  106122  107446  106604  104449  106120  107450+
+         106606  104448
CHEXA      84032       1  106120  107450  106606  104448  106118  107454+
+         106608  104447
CHEXA      84033       1  106118  107454  106608  104447  106116  107458+
+         106610  104446
CHEXA      84034       1  106116  107458  106610  104446  106114  107462+
+         106612  104445
CHEXA      84035       1  106114  107462  106612  104445  106112  107466+
+         106614  104444
CHEXA      84036       1  106112  107466  106614  104444  106110  107470+
+         106616  104443
CHEXA      84037       1  106110  107470  106616  104443  106108  107474+
+         106618  104442
CHEXA      84038       1  106108  107474  106618  104442  106106  107478+
+         106620  104441
CHEXA      84039       1  106106  107478  106620  104441  106104  107482+
+         106622  104440
CHEXA      84040       1  106104  107482  106622  104440  106102  107486+
+         106624  104439
CHEXA      84041       1  106102  107486  106624  104439  106100  107490+
+         106626  104438
CHEXA      84042       1  106100  107490  106626  104438  106098  107494+
+         106628  104437
CHEXA      84043       1  106098  107494  106628  104437  106096  107498+
+         106630  104436
CHEXA      84044       1  106096  107498  106630  104436  106094  107502+
+         106632  104435
CHEXA      84045       1  106094  107502  106632  104435  106092  107506+
+         106634  104434
CHEXA      84046       1  106092  107506  106634  104434  106090  107510+
+         106636  104433
CHEXA      84047       1  106090  107510  106636  104433  106088  107514+
+         106638  104432
CHEXA      84048       1  106088  107514  106638  104432  106086  107518+
+         106640  104431
CHEXA      84049       1  106086  107518  106640  104431  106084  107522+
+         106642  104430
CHEXA      84050       1  106084  107522  106642  104430  106082  107526+
+         106644  104429
CHEXA      84051       1  106082  107526  106644  104429  106080  107530+
+         106646  104428
CHEXA      84052       1  106080  107530  106646  104428  106078  107534+
+         106648  104427
CHEXA      84053       1  106078  107534  106648  104427  106076  107538+
+         106650  104426
CHEXA      84054       1  106076  107538  106650  104426  106074  107542+
+         106652  104425
CHEXA      84055       1  106074  107542  106652  104425  106072  107546+
+         106654  104424
CHEXA      84056       1  106072  107546  106654  104424  106070  107550+
+         106656  104423
CHEXA      84057       1  106070  107550  106656  104423  106068  107554+
+         106658  104422
CHEXA      84058       1  106068  107554  106658  104422  106066  107558+
+         106660  104421
CHEXA      84059       1  106066  107558  106660  104421  106064  107562+
+         106662  104420
CHEXA      84060       1  106064  107562  106662  104420  106062  107566+
+         106664  104419
CHEXA      84061       1  106062  107566  106664  104419  106060  107570+
+         106666  104418
CHEXA      84062       1  106060  107570  106666  104418  106058  107574+
+         106668  104417
CHEXA      84063       1  106058  107574  106668  104417  106056  107578+
+         106670  104416
CHEXA      84064       1  106056  107578  106670  104416  106054  107582+
+         106672  104415
CHEXA      84065       1  106054  107582  106672  104415  106052  107586+
+         106674  104414
CHEXA      84066       1  106052  107586  106674  104414  106050  107590+
+         106676  104413
CHEXA      84067       1  106050  107590  106676  104413  106048  107594+
+         106678  104412
CHEXA      84068       1  106048  107594  106678  104412  106046  107598+
+         106680  104411
CHEXA      84069       1  106046  107598  106680  104411  106044  107602+
+         106682  104410
CHEXA      84070       1  106044  107602  106682  104410  106042  107606+
+         106684  104409
CHEXA      84071       1  106042  107606  106684  104409  106040  107610+
+         106686  104408
CHEXA      84072       1  106040  107610  106686  104408  106038  107614+
+         106688  104407
CHEXA      84073       1  106038  107614  106688  104407  106036  107618+
+         106690  104406
CHEXA      84074       1  106036  107618  106690  104406  106034  107622+
+         106692  104405
CHEXA      84075       1  106034  107622  106692  104405  106032  107626+
+         106694  104404
CHEXA      84076       1  106032  107626  106694  104404  106030  107630+
+         106696  104403
CHEXA      84077       1  106030  107630  106696  104403  106028  107634+
+         106698  104402
CHEXA      84078       1  106028  107634  106698  104402  106026  107638+
+         106700  104401
CHEXA      84079       1  106026  107638  106700  104401  106024  107642+
+         106702  104400
CHEXA      84080       1  106024  107642  106702  104400  106022  107646+
+         106704  104399
CHEXA      84081       1  106022  107646  106704  104399  106020  107650+
+         106706  104398
CHEXA      84082       1  106020  107650  106706  104398  106018  107654+
+         106708  104397
CHEXA      84083       1  106018  107654  106708  104397  106016  107658+
+         106710  104396
CHEXA      84084       1  106016  107658  106710  104396  106014  107662+
+         106712  104395
CHEXA      84085       1  106014  107662  106712  104395  106012  107666+
+         106714  104394
CHEXA      84086       1  106012  107666  106714  104394  106010  107670+
+         106716  104393
CHEXA      84087       1  106010  107670  106716  104393  106008  107674+
+         106718  104392
CHEXA      84088       1  106008  107674  106718  104392  106006  107678+
+         106720  104391
CHEXA      84089       1  106006  107678  106720  104391  106004  107682+
+         106722  104390
CHEXA      84090       1  106004  107682  106722  104390  106002  107686+
+         106724  104389
CHEXA      84091       1  106002  107686  106724  104389  106000  107690+
+         106726  104388
CHEXA      84092       1  106000  107690  106726  104388  105998  107694+
+         106728  104387
CHEXA      84093       1  105998  107694  106728  104387  105996  107698+
+         106730  104386
CHEXA      84094       1  105996  107698  106730  104386  105994  107702+
+         106732  104385
CHEXA      84095       1  105994  107702  106732  104385  105992  107706+
+         106734  104384
CHEXA      84096       1  105992  107706  106734  104384  105990  107710+
+         106736  104383
CHEXA      84097       1  105990  107710  106736  104383  105988  107714+
+         106738  104382
CHEXA      84098       1  105988  107714  106738  104382  105986  107718+
+         106740  104381
CHEXA      84099       1  105986  107718  106740  104381  105984  107722+
+         106742  104380
CHEXA      84100       1  105984  107722  106742  104380  105982  107726+
+         106744  104379
CHEXA      84101       1  105982  107726  106744  104379  105980  107730+
+         106746  104378
CHEXA      84102       1  105980  107730  106746  104378  105978  107734+
+         106748  104377
CHEXA      84103       1  105978  107734  106748  104377  105976  107738+
+         106750  104376
CHEXA      84104       1  105976  107738  106750  104376  105974  107742+
+         106752  104375
CHEXA      84105       1  105974  107742  106752  104375  105972  107746+
+         106754  104374
CHEXA      84106       1  105972  107746  106754  104374  105970  107750+
+         106756  104373
CHEXA      84107       1  105970  107750  106756  104373  105968  107754+
+         106758  104372
CHEXA      84108       1  105968  107754  106758  104372  105966  107758+
+         106760  104371
CHEXA      84109       1  105966  107758  106760  104371  105964  107762+
+         106762  104370
CHEXA      84110       1  105964  107762  106762  104370  105962  107766+
+         106764  104369
CHEXA      84111       1  105962  107766  106764  104369  105960  107770+
+         106766  104368
CHEXA      84112       1  105960  107770  106766  104368  105958  107774+
+         106768  104367
CHEXA      84113       1  105958  107774  106768  104367  105956  107778+
+         106770  104366
CHEXA      84114       1  105956  107778  106770  104366  105954  107782+
+         106772  104365
CHEXA      84115       1  105954  107782  106772  104365  105952  107786+
+         106774  104364
CHEXA      84116       1  105952  107786  106774  104364  105950  107790+
+         106776  104363
CHEXA      84117       1  105950  107790  106776  104363  105948  107794+
+         106778  104362
CHEXA      84118       1  105948  107794  106778  104362  105946  107798+
+         106780  104361
CHEXA      84119       1  105946  107798  106780  104361  105944  107802+
+         106782  104360
CHEXA      84120       1  105944  107802  106782  104360  105942  107806+
+         106784  104359
CHEXA      84121       1  105942  107806  106784  104359  105940  107810+
+         106786  104358
CHEXA      84122       1  105940  107810  106786  104358  105938  107814+
+         106788  104357
CHEXA      84123       1  105938  107814  106788  104357  105936  107818+
+         106790  104356
CHEXA      84124       1  105936  107818  106790  104356  105934  107822+
+         106792  104355
CHEXA      84125       1  105934  107822  106792  104355  105932  107826+
+         106794  104354
CHEXA      84126       1  105932  107826  106794  104354  105930  107830+
+         106796  104353
CHEXA      84127       1  105930  107830  106796  104353  105928  107834+
+         106798  104352
CHEXA      84128       1  105928  107834  106798  104352  105926  107838+
+         106800  104351
CHEXA      84129       1  105926  107838  106800  104351  105924  107842+
+         106802  104350
CHEXA      84130       1  105924  107842  106802  104350  105922  107846+
+         106804  104349
CHEXA      84131       1  105922  107846  106804  104349  105920  107850+
+         106806  104348
CHEXA      84132       1  105920  107850  106806  104348  105918  107854+
+         106808  104347
CHEXA      84133       1  105918  107854  106808  104347  105916  107858+
+         106810  104346
CHEXA      84134       1  105916  107858  106810  104346  105914  107862+
+         106812  104345
CHEXA      84135       1  105914  107862  106812  104345  105912  107866+
+         106814  104344
CHEXA      84136       1  105912  107866  106814  104344  105910  107870+
+         106816  104343
CHEXA      84137       1  105910  107870  106816  104343  105908  107874+
+         106818  104342
CHEXA      84138       1  105908  107874  106818  104342  105906  107878+
+         106820  104341
CHEXA      84139       1  105906  107878  106820  104341  105904  107882+
+         106822  104340
CHEXA      84140       1  105904  107882  106822  104340  105902  107886+
+         106824  104339
CHEXA      84141       1  105902  107886  106824  104339  105900  107890+
+         106826  104338
CHEXA      84142       1  105900  107890  106826  104338  105898  107894+
+         106828  104337
CHEXA      84143       1  105898  107894  106828  104337  105896  107898+
+         106830  104336
CHEXA      84144       1  105896  107898  106830  104336  105894  107902+
+         106832  104335
CHEXA      84145       1  105894  107902  106832  104335  105892  107906+
+         106834  104334
CHEXA      84146       1  105892  107906  106834  104334  105890  107910+
+         106836  104333
CHEXA      84147       1  105890  107910  106836  104333  105888  107914+
+         106838  104332
CHEXA      84148       1  105888  107914  106838  104332  105886  107918+
+         106840  104331
CHEXA      84149       1  105886  107918  106840  104331  105884  107922+
+         106842  104330
CHEXA      84150       1  105884  107922  106842  104330  105882  107926+
+         106844  104329
CHEXA      84151       1  105882  107926  106844  104329  105880  107930+
+         106846  104328
CHEXA      84152       1  105880  107930  106846  104328  105878  107934+
+         106848  104327
CHEXA      84153       1  105878  107934  106848  104327  105876  107938+
+         106850  104326
CHEXA      84154       1  105876  107938  106850  104326  105874  107942+
+         106852  104325
CHEXA      84155       1  105874  107942  106852  104325  105872  107946+
+         106854  104324
CHEXA      84156       1  105872  107946  106854  104324  105870  107950+
+         106856  104323
CHEXA      84157       1  105870  107950  106856  104323  105868  107954+
+         106858  104322
CHEXA      84158       1  105868  107954  106858  104322  105866  107958+
+         106860  104321
CHEXA      84159       1  105866  107958  106860  104321  105864  107962+
+         106862  104320
CHEXA      84160       1  105864  107962  106862  104320  105862  107966+
+         106864  104319
CHEXA      84161       1  105862  107966  106864  104319  105860  107970+
+         106866  104318
CHEXA      84162       1  105860  107970  106866  104318  105858  107974+
+         106868  104317
CHEXA      84163       1  105858  107974  106868  104317  105856  107978+
+         106870  104316
CHEXA      84164       1  105856  107978  106870  104316  105854  107982+
+         106872  104315
CHEXA      84165       1  105854  107982  106872  104315  105852  107986+
+         106874  104314
CHEXA      84166       1  105852  107986  106874  104314  105850  107990+
+         106876  104313
CHEXA      84167       1  105850  107990  106876  104313  105848  107994+
+         106878  104312
CHEXA      84168       1  105848  107994  106878  104312  105846  107998+
+         106880  104311
CHEXA      84169       1  105846  107998  106880  104311  105844  108002+
+         106882  104310
CHEXA      84170       1  105844  108002  106882  104310  105842  108006+
+         106884  104309
CHEXA      84171       1  105842  108006  106884  104309  105840  108010+
+         106886  104308
CHEXA      84172       1  105840  108010  106886  104308  105838  108014+
+         106888  104307
CHEXA      84173       1  105838  108014  106888  104307  105836  108018+
+         106890  104306
CHEXA      84174       1  105836  108018  106890  104306  105834  108022+
+         106892  104305
CHEXA      84175       1  105834  108022  106892  104305  105832  108026+
+         106894  104304
CHEXA      84176       1  105832  108026  106894  104304  105830  108030+
+         106896  104303
CHEXA      84177       1  105830  108030  106896  104303  105828  108034+
+         106898  104302
CHEXA      84178       1  105828  108034  106898  104302  105826  108038+
+         106900  104301
CHEXA      84179       1  105826  108038  106900  104301  105824  108042+
+         106902  104300
CHEXA      84180       1  105824  108042  106902  104300  105822  108046+
+         106904  104299
CHEXA      84181       1  105822  108046  106904  104299  105820  108050+
+         106906  104298
CHEXA      84182       1  105820  108050  106906  104298  105818  108054+
+         106908  104297
CHEXA      84183       1  105818  108054  106908  104297  105816  108058+
+         106910  104296
CHEXA      84184       1  105816  108058  106910  104296  105814  108062+
+         106912  104295
CHEXA      84185       1  105814  108062  106912  104295  105812  108066+
+         106914  104294
CHEXA      84186       1  105812  108066  106914  104294  105810  108070+
+         106916  104293
CHEXA      84187       1  105810  108070  106916  104293  105808  108074+
+         106918  104292
CHEXA      84188       1  105808  108074  106918  104292  105806  108078+
+         106920  104291
CHEXA      84189       1  105806  108078  106920  104291  105804  108082+
+         106922  104290
CHEXA      84190       1  105804  108082  106922  104290  105802  108086+
+         106924  104289
CHEXA      84191       1  105802  108086  106924  104289  105800  108090+
+         106926  104288
CHEXA      84192       1  105800  108090  106926  104288  105798  108094+
+         106928  104287
CHEXA      84193       1  105798  108094  106928  104287  105796  108098+
+         106930  104286
CHEXA      84194       1  105796  108098  106930  104286  105794  108102+
+         106932  104285
CHEXA      84195       1  105794  108102  106932  104285  105792  108106+
+         106934  104284
CHEXA      84196       1  105792  108106  106934  104284  105790  108110+
+         106936  104283
CHEXA      84197       1  105790  108110  106936  104283  105788  108114+
+         106938  104282
CHEXA      84198       1  105788  108114  106938  104282  105786  108118+
+         106940  104281
CHEXA      84199       1  105786  108118  106940  104281  105784  108122+
+         106942  104280
CHEXA      84200       1  105784  108122  106942  104280  105782  108126+
+         106944  104279
CHEXA      84201       1  105782  108126  106944  104279  105780  108130+
+         106946  104278
CHEXA      84202       1  105780  108130  106946  104278  105778  108134+
+         106948  104277
CHEXA      84203       1  105778  108134  106948  104277  105776  108138+
+         106950  104276
CHEXA      84204       1  105776  108138  106950  104276  105774  108142+
+         106952  104275
CHEXA      84205       1  105774  108142  106952  104275  105772  108146+
+         106954  104274
CHEXA      84206       1  105772  108146  106954  104274  105770  108150+
+         106956  104273
CHEXA      84207       1  105770  108150  106956  104273  105768  108154+
+         106958  104272
CHEXA      84208       1  105768  108154  106958  104272  105766  108158+
+         106960  104271
CHEXA      84209       1  105766  108158  106960  104271  103370  106962+
+         103372  103365
CHEXA      84210       1  102562  102563  100969  100968  106966  106967+
+         106365  106364
CHEXA      84211       1  106966  106967  106365  106364  106970  106971+
+         106367  106366
CHEXA      84212       1  106970  106971  106367  106366  106974  106975+
+         106369  106368
CHEXA      84213       1  106974  106975  106369  106368  106978  106979+
+         106371  106370
CHEXA      84214       1  106978  106979  106371  106370  106982  106983+
+         106373  106372
CHEXA      84215       1  106982  106983  106373  106372  106986  106987+
+         106375  106374
CHEXA      84216       1  106986  106987  106375  106374  106990  106991+
+         106377  106376
CHEXA      84217       1  106990  106991  106377  106376  106994  106995+
+         106379  106378
CHEXA      84218       1  106994  106995  106379  106378  106998  106999+
+         106381  106380
CHEXA      84219       1  106998  106999  106381  106380  107002  107003+
+         106383  106382
CHEXA      84220       1  107002  107003  106383  106382  107006  107007+
+         106385  106384
CHEXA      84221       1  107006  107007  106385  106384  107010  107011+
+         106387  106386
CHEXA      84222       1  107010  107011  106387  106386  107014  107015+
+         106389  106388
CHEXA      84223       1  107014  107015  106389  106388  107018  107019+
+         106391  106390
CHEXA      84224       1  107018  107019  106391  106390  107022  107023+
+         106393  106392
CHEXA      84225       1  107022  107023  106393  106392  107026  107027+
+         106395  106394
CHEXA      84226       1  107026  107027  106395  106394  107030  107031+
+         106397  106396
CHEXA      84227       1  107030  107031  106397  106396  107034  107035+
+         106399  106398
CHEXA      84228       1  107034  107035  106399  106398  107038  107039+
+         106401  106400
CHEXA      84229       1  107038  107039  106401  106400  107042  107043+
+         106403  106402
CHEXA      84230       1  107042  107043  106403  106402  107046  107047+
+         106405  106404
CHEXA      84231       1  107046  107047  106405  106404  107050  107051+
+         106407  106406
CHEXA      84232       1  107050  107051  106407  106406  107054  107055+
+         106409  106408
CHEXA      84233       1  107054  107055  106409  106408  107058  107059+
+         106411  106410
CHEXA      84234       1  107058  107059  106411  106410  107062  107063+
+         106413  106412
CHEXA      84235       1  107062  107063  106413  106412  107066  107067+
+         106415  106414
CHEXA      84236       1  107066  107067  106415  106414  107070  107071+
+         106417  106416
CHEXA      84237       1  107070  107071  106417  106416  107074  107075+
+         106419  106418
CHEXA      84238       1  107074  107075  106419  106418  107078  107079+
+         106421  106420
CHEXA      84239       1  107078  107079  106421  106420  107082  107083+
+         106423  106422
CHEXA      84240       1  107082  107083  106423  106422  107086  107087+
+         106425  106424
CHEXA      84241       1  107086  107087  106425  106424  107090  107091+
+         106427  106426
CHEXA      84242       1  107090  107091  106427  106426  107094  107095+
+         106429  106428
CHEXA      84243       1  107094  107095  106429  106428  107098  107099+
+         106431  106430
CHEXA      84244       1  107098  107099  106431  106430  107102  107103+
+         106433  106432
CHEXA      84245       1  107102  107103  106433  106432  107106  107107+
+         106435  106434
CHEXA      84246       1  107106  107107  106435  106434  107110  107111+
+         106437  106436
CHEXA      84247       1  107110  107111  106437  106436  107114  107115+
+         106439  106438
CHEXA      84248       1  107114  107115  106439  106438  107118  107119+
+         106441  106440
CHEXA      84249       1  107118  107119  106441  106440  107122  107123+
+         106443  106442
CHEXA      84250       1  107122  107123  106443  106442  107126  107127+
+         106445  106444
CHEXA      84251       1  107126  107127  106445  106444  107130  107131+
+         106447  106446
CHEXA      84252       1  107130  107131  106447  106446  107134  107135+
+         106449  106448
CHEXA      84253       1  107134  107135  106449  106448  107138  107139+
+         106451  106450
CHEXA      84254       1  107138  107139  106451  106450  107142  107143+
+         106453  106452
CHEXA      84255       1  107142  107143  106453  106452  107146  107147+
+         106455  106454
CHEXA      84256       1  107146  107147  106455  106454  107150  107151+
+         106457  106456
CHEXA      84257       1  107150  107151  106457  106456  107154  107155+
+         106459  106458
CHEXA      84258       1  107154  107155  106459  106458  107158  107159+
+         106461  106460
CHEXA      84259       1  107158  107159  106461  106460  107162  107163+
+         106463  106462
CHEXA      84260       1  107162  107163  106463  106462  107166  107167+
+         106465  106464
CHEXA      84261       1  107166  107167  106465  106464  107170  107171+
+         106467  106466
CHEXA      84262       1  107170  107171  106467  106466  107174  107175+
+         106469  106468
CHEXA      84263       1  107174  107175  106469  106468  107178  107179+
+         106471  106470
CHEXA      84264       1  107178  107179  106471  106470  107182  107183+
+         106473  106472
CHEXA      84265       1  107182  107183  106473  106472  107186  107187+
+         106475  106474
CHEXA      84266       1  107186  107187  106475  106474  107190  107191+
+         106477  106476
CHEXA      84267       1  107190  107191  106477  106476  107194  107195+
+         106479  106478
CHEXA      84268       1  107194  107195  106479  106478  107198  107199+
+         106481  106480
CHEXA      84269       1  107198  107199  106481  106480  107202  107203+
+         106483  106482
CHEXA      84270       1  107202  107203  106483  106482  107206  107207+
+         106485  106484
CHEXA      84271       1  107206  107207  106485  106484  107210  107211+
+         106487  106486
CHEXA      84272       1  107210  107211  106487  106486  107214  107215+
+         106489  106488
CHEXA      84273       1  107214  107215  106489  106488  107218  107219+
+         106491  106490
CHEXA      84274       1  107218  107219  106491  106490  107222  107223+
+         106493  106492
CHEXA      84275       1  107222  107223  106493  106492  107226  107227+
+         106495  106494
CHEXA      84276       1  107226  107227  106495  106494  107230  107231+
+         106497  106496
CHEXA      84277       1  107230  107231  106497  106496  107234  107235+
+         106499  106498
CHEXA      84278       1  107234  107235  106499  106498  107238  107239+
+         106501  106500
CHEXA      84279       1  107238  107239  106501  106500  107242  107243+
+         106503  106502
CHEXA      84280       1  107242  107243  106503  106502  107246  107247+
+         106505  106504
CHEXA      84281       1  107246  107247  106505  106504  107250  107251+
+         106507  106506
CHEXA      84282       1  107250  107251  106507  106506  107254  107255+
+         106509  106508
CHEXA      84283       1  107254  107255  106509  106508  107258  107259+
+         106511  106510
CHEXA      84284       1  107258  107259  106511  106510  107262  107263+
+         106513  106512
CHEXA      84285       1  107262  107263  106513  106512  107266  107267+
+         106515  106514
CHEXA      84286       1  107266  107267  106515  106514  107270  107271+
+         106517  106516
CHEXA      84287       1  107270  107271  106517  106516  107274  107275+
+         106519  106518
CHEXA      84288       1  107274  107275  106519  106518  107278  107279+
+         106521  106520
CHEXA      84289       1  107278  107279  106521  106520  107282  107283+
+         106523  106522
CHEXA      84290       1  107282  107283  106523  106522  107286  107287+
+         106525  106524
CHEXA      84291       1  107286  107287  106525  106524  107290  107291+
+         106527  106526
CHEXA      84292       1  107290  107291  106527  106526  107294  107295+
+         106529  106528
CHEXA      84293       1  107294  107295  106529  106528  107298  107299+
+         106531  106530
CHEXA      84294       1  107298  107299  106531  106530  107302  107303+
+         106533  106532
CHEXA      84295       1  107302  107303  106533  106532  107306  107307+
+         106535  106534
CHEXA      84296       1  107306  107307  106535  106534  107310  107311+
+         106537  106536
CHEXA      84297       1  107310  107311  106537  106536  107314  107315+
+         106539  106538
CHEXA      84298       1  107314  107315  106539  106538  107318  107319+
+         106541  106540
CHEXA      84299       1  107318  107319  106541  106540  107322  107323+
+         106543  106542
CHEXA      84300       1  107322  107323  106543  106542  107326  107327+
+         106545  106544
CHEXA      84301       1  107326  107327  106545  106544  107330  107331+
+         106547  106546
CHEXA      84302       1  107330  107331  106547  106546  107334  107335+
+         106549  106548
CHEXA      84303       1  107334  107335  106549  106548  107338  107339+
+         106551  106550
CHEXA      84304       1  107338  107339  106551  106550  107342  107343+
+         106553  106552
CHEXA      84305       1  107342  107343  106553  106552  107346  107347+
+         106555  106554
CHEXA      84306       1  107346  107347  106555  106554  107350  107351+
+         106557  106556
CHEXA      84307       1  107350  107351  106557  106556  107354  107355+
+         106559  106558
CHEXA      84308       1  107354  107355  106559  106558  107358  107359+
+         106561  106560
CHEXA      84309       1  107358  107359  106561  106560  107362  107363+
+         106563  106562
CHEXA      84310       1  107362  107363  106563  106562  107366  107367+
+         106565  106564
CHEXA      84311       1  107366  107367  106565  106564  107370  107371+
+         106567  106566
CHEXA      84312       1  107370  107371  106567  106566  107374  107375+
+         106569  106568
CHEXA      84313       1  107374  107375  106569  106568  107378  107379+
+         106571  106570
CHEXA      84314       1  107378  107379  106571  106570  107382  107383+
+         106573  106572
CHEXA      84315       1  107382  107383  106573  106572  107386  107387+
+         106575  106574
CHEXA      84316       1  107386  107387  106575  106574  107390  107391+
+         106577  106576
CHEXA      84317       1  107390  107391  106577  106576  107394  107395+
+         106579  106578
CHEXA      84318       1  107394  107395  106579  106578  107398  107399+
+         106581  106580
CHEXA      84319       1  107398  107399  106581  106580  107402  107403+
+         106583  106582
CHEXA      84320       1  107402  107403  106583  106582  107406  107407+
+         106585  106584
CHEXA      84321       1  107406  107407  106585  106584  107410  107411+
+         106587  106586
CHEXA      84322       1  107410  107411  106587  106586  107414  107415+
+         106589  106588
CHEXA      84323       1  107414  107415  106589  106588  107418  107419+
+         106591  106590
CHEXA      84324       1  107418  107419  106591  106590  107422  107423+
+         106593  106592
CHEXA      84325       1  107422  107423  106593  106592  107426  107427+
+         106595  106594
CHEXA      84326       1  107426  107427  106595  106594  107430  107431+
+         106597  106596
CHEXA      84327       1  107430  107431  106597  106596  107434  107435+
+         106599  106598
CHEXA      84328       1  107434  107435  106599  106598  107438  107439+
+         106601  106600
CHEXA      84329       1  107438  107439  106601  106600  107442  107443+
+         106603  106602
CHEXA      84330       1  107442  107443  106603  106602  107446  107447+
+         106605  106604
CHEXA      84331       1  107446  107447  106605  106604  107450  107451+
+         106607  106606
CHEXA      84332       1  107450  107451  106607  106606  107454  107455+
+         106609  106608
CHEXA      84333       1  107454  107455  106609  106608  107458  107459+
+         106611  106610
CHEXA      84334       1  107458  107459  106611  106610  107462  107463+
+         106613  106612
CHEXA      84335       1  107462  107463  106613  106612  107466  107467+
+         106615  106614
CHEXA      84336       1  107466  107467  106615  106614  107470  107471+
+         106617  106616
CHEXA      84337       1  107470  107471  106617  106616  107474  107475+
+         106619  106618
CHEXA      84338       1  107474  107475  106619  106618  107478  107479+
+         106621  106620
CHEXA      84339       1  107478  107479  106621  106620  107482  107483+
+         106623  106622
CHEXA      84340       1  107482  107483  106623  106622  107486  107487+
+         106625  106624
CHEXA      84341       1  107486  107487  106625  106624  107490  107491+
+         106627  106626
CHEXA      84342       1  107490  107491  106627  106626  107494  107495+
+         106629  106628
CHEXA      84343       1  107494  107495  106629  106628  107498  107499+
+         106631  106630
CHEXA      84344       1  107498  107499  106631  106630  107502  107503+
+         106633  106632
CHEXA      84345       1  107502  107503  106633  106632  107506  107507+
+         106635  106634
CHEXA      84346       1  107506  107507  106635  106634  107510  107511+
+         106637  106636
CHEXA      84347       1  107510  107511  106637  106636  107514  107515+
+         106639  106638
CHEXA      84348       1  107514  107515  106639  106638  107518  107519+
+         106641  106640
CHEXA      84349       1  107518  107519  106641  106640  107522  107523+
+         106643  106642
CHEXA      84350       1  107522  107523  106643  106642  107526  107527+
+         106645  106644
CHEXA      84351       1  107526  107527  106645  106644  107530  107531+
+         106647  106646
CHEXA      84352       1  107530  107531  106647  106646  107534  107535+
+         106649  106648
CHEXA      84353       1  107534  107535  106649  106648  107538  107539+
+         106651  106650
CHEXA      84354       1  107538  107539  106651  106650  107542  107543+
+         106653  106652
CHEXA      84355       1  107542  107543  106653  106652  107546  107547+
+         106655  106654
CHEXA      84356       1  107546  107547  106655  106654  107550  107551+
+         106657  106656
CHEXA      84357       1  107550  107551  106657  106656  107554  107555+
+         106659  106658
CHEXA      84358       1  107554  107555  106659  106658  107558  107559+
+         106661  106660
CHEXA      84359       1  107558  107559  106661  106660  107562  107563+
+         106663  106662
CHEXA      84360       1  107562  107563  106663  106662  107566  107567+
+         106665  106664
CHEXA      84361       1  107566  107567  106665  106664  107570  107571+
+         106667  106666
CHEXA      84362       1  107570  107571  106667  106666  107574  107575+
+         106669  106668
CHEXA      84363       1  107574  107575  106669  106668  107578  107579+
+         106671  106670
CHEXA      84364       1  107578  107579  106671  106670  107582  107583+
+         106673  106672
CHEXA      84365       1  107582  107583  106673  106672  107586  107587+
+         106675  106674
CHEXA      84366       1  107586  107587  106675  106674  107590  107591+
+         106677  106676
CHEXA      84367       1  107590  107591  106677  106676  107594  107595+
+         106679  106678
CHEXA      84368       1  107594  107595  106679  106678  107598  107599+
+         106681  106680
CHEXA      84369       1  107598  107599  106681  106680  107602  107603+
+         106683  106682
CHEXA      84370       1  107602  107603  106683  106682  107606  107607+
+         106685  106684
CHEXA      84371       1  107606  107607  106685  106684  107610  107611+
+         106687  106686
CHEXA      84372       1  107610  107611  106687  106686  107614  107615+
+         106689  106688
CHEXA      84373       1  107614  107615  106689  106688  107618  107619+
+         106691  106690
CHEXA      84374       1  107618  107619  106691  106690  107622  107623+
+         106693  106692
CHEXA      84375       1  107622  107623  106693  106692  107626  107627+
+         106695  106694
CHEXA      84376       1  107626  107627  106695  106694  107630  107631+
+         106697  106696
CHEXA      84377       1  107630  107631  106697  106696  107634  107635+
+         106699  106698
CHEXA      84378       1  107634  107635  106699  106698  107638  107639+
+         106701  106700
CHEXA      84379       1  107638  107639  106701  106700  107642  107643+
+         106703  106702
CHEXA      84380       1  107642  107643  106703  106702  107646  107647+
+         106705  106704
CHEXA      84381       1  107646  107647  106705  106704  107650  107651+
+         106707  106706
CHEXA      84382       1  107650  107651  106707  106706  107654  107655+
+         106709  106708
CHEXA      84383       1  107654  107655  106709  106708  107658  107659+
+         106711  106710
CHEXA      84384       1  107658  107659  106711  106710  107662  107663+
+         106713  106712
CHEXA      84385       1  107662  107663  106713  106712  107666  107667+
+         106715  106714
CHEXA      84386       1  107666  107667  106715  106714  107670  107671+
+         106717  106716
CHEXA      84387       1  107670  107671  106717  106716  107674  107675+
+         106719  106718
CHEXA      84388       1  107674  107675  106719  106718  107678  107679+
+         106721  106720
CHEXA      84389       1  107678  107679  106721  106720  107682  107683+
+         106723  106722
CHEXA      84390       1  107682  107683  106723  106722  107686  107687+
+         106725  106724
CHEXA      84391       1  107686  107687  106725  106724  107690  107691+
+         106727  106726
CHEXA      84392       1  107690  107691  106727  106726  107694  107695+
+         106729  106728
CHEXA      84393       1  107694  107695  106729  106728  107698  107699+
+         106731  106730
CHEXA      84394       1  107698  107699  106731  106730  107702  107703+
+         106733  106732
CHEXA      84395       1  107702  107703  106733  106732  107706  107707+
+         106735  106734
CHEXA      84396       1  107706  107707  106735  106734  107710  107711+
+         106737  106736
CHEXA      84397       1  107710  107711  106737  106736  107714  107715+
+         106739  106738
CHEXA      84398       1  107714  107715  106739  106738  107718  107719+
+         106741  106740
CHEXA      84399       1  107718  107719  106741  106740  107722  107723+
+         106743  106742
CHEXA      84400       1  107722  107723  106743  106742  107726  107727+
+         106745  106744
CHEXA      84401       1  107726  107727  106745  106744  107730  107731+
+         106747  106746
CHEXA      84402       1  107730  107731  106747  106746  107734  107735+
+         106749  106748
CHEXA      84403       1  107734  107735  106749  106748  107738  107739+
+         106751  106750
CHEXA      84404       1  107738  107739  106751  106750  107742  107743+
+         106753  106752
CHEXA      84405       1  107742  107743  106753  106752  107746  107747+
+         106755  106754
CHEXA      84406       1  107746  107747  106755  106754  107750  107751+
+         106757  106756
CHEXA      84407       1  107750  107751  106757  106756  107754  107755+
+         106759  106758
CHEXA      84408       1  107754  107755  106759  106758  107758  107759+
+         106761  106760
CHEXA      84409       1  107758  107759  106761  106760  107762  107763+
+         106763  106762
CHEXA      84410       1  107762  107763  106763  106762  107766  107767+
+         106765  106764
CHEXA      84411       1  107766  107767  106765  106764  107770  107771+
+         106767  106766
CHEXA      84412       1  107770  107771  106767  106766  107774  107775+
+         106769  106768
CHEXA      84413       1  107774  107775  106769  106768  107778  107779+
+         106771  106770
CHEXA      84414       1  107778  107779  106771  106770  107782  107783+
+         106773  106772
CHEXA      84415       1  107782  107783  106773  106772  107786  107787+
+         106775  106774
CHEXA      84416       1  107786  107787  106775  106774  107790  107791+
+         106777  106776
CHEXA      84417       1  107790  107791  106777  106776  107794  107795+
+         106779  106778
CHEXA      84418       1  107794  107795  106779  106778  107798  107799+
+         106781  106780
CHEXA      84419       1  107798  107799  106781  106780  107802  107803+
+         106783  106782
CHEXA      84420       1  107802  107803  106783  106782  107806  107807+
+         106785  106784
CHEXA      84421       1  107806  107807  106785  106784  107810  107811+
+         106787  106786
CHEXA      84422       1  107810  107811  106787  106786  107814  107815+
+         106789  106788
CHEXA      84423       1  107814  107815  106789  106788  107818  107819+
+         106791  106790
CHEXA      84424       1  107818  107819  106791  106790  107822  107823+
+         106793  106792
CHEXA      84425       1  107822  107823  106793  106792  107826  107827+
+         106795  106794
CHEXA      84426       1  107826  107827  106795  106794  107830  107831+
+         106797  106796
CHEXA      84427       1  107830  107831  106797  106796  107834  107835+
+         106799  106798
CHEXA      84428       1  107834  107835  106799  106798  107838  107839+
+         106801  106800
CHEXA      84429       1  107838  107839  106801  106800  107842  107843+
+         106803  106802
CHEXA      84430       1  107842  107843  106803  106802  107846  107847+
+         106805  106804
CHEXA      84431       1  107846  107847  106805  106804  107850  107851+
+         106807  106806
CHEXA      84432       1  107850  107851  106807  106806  107854  107855+
+         106809  106808
CHEXA      84433       1  107854  107855  106809  106808  107858  107859+
+         106811  106810
CHEXA      84434       1  107858  107859  106811  106810  107862  107863+
+         106813  106812
CHEXA      84435       1  107862  107863  106813  106812  107866  107867+
+         106815  106814
CHEXA      84436       1  107866  107867  106815  106814  107870  107871+
+         106817  106816
CHEXA      84437       1  107870  107871  106817  106816  107874  107875+
+         106819  106818
CHEXA      84438       1  107874  107875  106819  106818  107878  107879+
+         106821  106820
CHEXA      84439       1  107878  107879  106821  106820  107882  107883+
+         106823  106822
CHEXA      84440       1  107882  107883  106823  106822  107886  107887+
+         106825  106824
CHEXA      84441       1  107886  107887  106825  106824  107890  107891+
+         106827  106826
CHEXA      84442       1  107890  107891  106827  106826  107894  107895+
+         106829  106828
CHEXA      84443       1  107894  107895  106829  106828  107898  107899+
+         106831  106830
CHEXA      84444       1  107898  107899  106831  106830  107902  107903+
+         106833  106832
CHEXA      84445       1  107902  107903  106833  106832  107906  107907+
+         106835  106834
CHEXA      84446       1  107906  107907  106835  106834  107910  107911+
+         106837  106836
CHEXA      84447       1  107910  107911  106837  106836  107914  107915+
+         106839  106838
CHEXA      84448       1  107914  107915  106839  106838  107918  107919+
+         106841  106840
CHEXA      84449       1  107918  107919  106841  106840  107922  107923+
+         106843  106842
CHEXA      84450       1  107922  107923  106843  106842  107926  107927+
+         106845  106844
CHEXA      84451       1  107926  107927  106845  106844  107930  107931+
+         106847  106846
CHEXA      84452       1  107930  107931  106847  106846  107934  107935+
+         106849  106848
CHEXA      84453       1  107934  107935  106849  106848  107938  107939+
+         106851  106850
CHEXA      84454       1  107938  107939  106851  106850  107942  107943+
+         106853  106852
CHEXA      84455       1  107942  107943  106853  106852  107946  107947+
+         106855  106854
CHEXA      84456       1  107946  107947  106855  106854  107950  107951+
+         106857  106856
CHEXA      84457       1  107950  107951  106857  106856  107954  107955+
+         106859  106858
CHEXA      84458       1  107954  107955  106859  106858  107958  107959+
+         106861  106860
CHEXA      84459       1  107958  107959  106861  106860  107962  107963+
+         106863  106862
CHEXA      84460       1  107962  107963  106863  106862  107966  107967+
+         106865  106864
CHEXA      84461       1  107966  107967  106865  106864  107970  107971+
+         106867  106866
CHEXA      84462       1  107970  107971  106867  106866  107974  107975+
+         106869  106868
CHEXA      84463       1  107974  107975  106869  106868  107978  107979+
+         106871  106870
CHEXA      84464       1  107978  107979  106871  106870  107982  107983+
+         106873  106872
CHEXA      84465       1  107982  107983  106873  106872  107986  107987+
+         106875  106874
CHEXA      84466       1  107986  107987  106875  106874  107990  107991+
+         106877  106876
CHEXA      84467       1  107990  107991  106877  106876  107994  107995+
+         106879  106878
CHEXA      84468       1  107994  107995  106879  106878  107998  107999+
+         106881  106880
CHEXA      84469       1  107998  107999  106881  106880  108002  108003+
+         106883  106882
CHEXA      84470       1  108002  108003  106883  106882  108006  108007+
+         106885  106884
CHEXA      84471       1  108006  108007  106885  106884  108010  108011+
+         106887  106886
CHEXA      84472       1  108010  108011  106887  106886  108014  108015+
+         106889  106888
CHEXA      84473       1  108014  108015  106889  106888  108018  108019+
+         106891  106890
CHEXA      84474       1  108018  108019  106891  106890  108022  108023+
+         106893  106892
CHEXA      84475       1  108022  108023  106893  106892  108026  108027+
+         106895  106894
CHEXA      84476       1  108026  108027  106895  106894  108030  108031+
+         106897  106896
CHEXA      84477       1  108030  108031  106897  106896  108034  108035+
+         106899  106898
CHEXA      84478       1  108034  108035  106899  106898  108038  108039+
+         106901  106900
CHEXA      84479       1  108038  108039  106901  106900  108042  108043+
+         106903  106902
CHEXA      84480       1  108042  108043  106903  106902  108046  108047+
+         106905  106904
CHEXA      84481       1  108046  108047  106905  106904  108050  108051+
+         106907  106906
CHEXA      84482       1  108050  108051  106907  106906  108054  108055+
+         106909  106908
CHEXA      84483       1  108054  108055  106909  106908  108058  108059+
+         106911  106910
CHEXA      84484       1  108058  108059  106911  106910  108062  108063+
+         106913  106912
CHEXA      84485       1  108062  108063  106913  106912  108066  108067+
+         106915  106914
CHEXA      84486       1  108066  108067  106915  106914  108070  108071+
+         106917  106916
CHEXA      84487       1  108070  108071  106917  106916  108074  108075+
+         106919  106918
CHEXA      84488       1  108074  108075  106919  106918  108078  108079+
+         106921  106920
CHEXA      84489       1  108078  108079  106921  106920  108082  108083+
+         106923  106922
CHEXA      84490       1  108082  108083  106923  106922  108086  108087+
+         106925  106924
CHEXA      84491       1  108086  108087  106925  106924  108090  108091+
+         106927  106926
CHEXA      84492       1  108090  108091  106927  106926  108094  108095+
+         106929  106928
CHEXA      84493       1  108094  108095  106929  106928  108098  108099+
+         106931  106930
CHEXA      84494       1  108098  108099  106931  106930  108102  108103+
+         106933  106932
CHEXA      84495       1  108102  108103  106933  106932  108106  108107+
+         106935  106934
CHEXA      84496       1  108106  108107  106935  106934  108110  108111+
+         106937  106936
CHEXA      84497       1  108110  108111  106937  106936  108114  108115+
+         106939  106938
CHEXA      84498       1  108114  108115  106939  106938  108118  108119+
+         106941  106940
CHEXA      84499       1  108118  108119  106941  106940  108122  108123+
+         106943  106942
CHEXA      84500       1  108122  108123  106943  106942  108126  108127+
+         106945  106944
CHEXA      84501       1  108126  108127  106945  106944  108130  108131+
+         106947  106946
CHEXA      84502       1  108130  108131  106947  106946  108134  108135+
+         106949  106948
CHEXA      84503       1  108134  108135  106949  106948  108138  108139+
+         106951  106950
CHEXA      84504       1  108138  108139  106951  106950  108142  108143+
+         106953  106952
CHEXA      84505       1  108142  108143  106953  106952  108146  108147+
+         106955  106954
CHEXA      84506       1  108146  108147  106955  106954  108150  108151+
+         106957  106956
CHEXA      84507       1  108150  108151  106957  106956  108154  108155+
+         106959  106958
CHEXA      84508       1  108154  108155  106959  106958  108158  108159+
+         106961  106960
CHEXA      84509       1  108158  108159  106961  106960  106962  106963+
+         103373  103372
CHEXA      84510       1  102563  100964  100164  100969  106967  105168+
+         104270  106365
CHEXA      84511       1  106967  105168  104270  106365  106971  105170+
+         104269  106367
CHEXA      84512       1  106971  105170  104269  106367  106975  105172+
+         104268  106369
CHEXA      84513       1  106975  105172  104268  106369  106979  105174+
+         104267  106371
CHEXA      84514       1  106979  105174  104267  106371  106983  105176+
+         104266  106373
CHEXA      84515       1  106983  105176  104266  106373  106987  105178+
+         104265  106375
CHEXA      84516       1  106987  105178  104265  106375  106991  105180+
+         104264  106377
CHEXA      84517       1  106991  105180  104264  106377  106995  105182+
+         104263  106379
CHEXA      84518       1  106995  105182  104263  106379  106999  105184+
+         104262  106381
CHEXA      84519       1  106999  105184  104262  106381  107003  105186+
+         104261  106383
CHEXA      84520       1  107003  105186  104261  106383  107007  105188+
+         104260  106385
CHEXA      84521       1  107007  105188  104260  106385  107011  105190+
+         104259  106387
CHEXA      84522       1  107011  105190  104259  106387  107015  105192+
+         104258  106389
CHEXA      84523       1  107015  105192  104258  106389  107019  105194+
+         104257  106391
CHEXA      84524       1  107019  105194  104257  106391  107023  105196+
+         104256  106393
CHEXA      84525       1  107023  105196  104256  106393  107027  105198+
+         104255  106395
CHEXA      84526       1  107027  105198  104255  106395  107031  105200+
+         104254  106397
CHEXA      84527       1  107031  105200  104254  106397  107035  105202+
+         104253  106399
CHEXA      84528       1  107035  105202  104253  106399  107039  105204+
+         104252  106401
CHEXA      84529       1  107039  105204  104252  106401  107043  105206+
+         104251  106403
CHEXA      84530       1  107043  105206  104251  106403  107047  105208+
+         104250  106405
CHEXA      84531       1  107047  105208  104250  106405  107051  105210+
+         104249  106407
CHEXA      84532       1  107051  105210  104249  106407  107055  105212+
+         104248  106409
CHEXA      84533       1  107055  105212  104248  106409  107059  105214+
+         104247  106411
CHEXA      84534       1  107059  105214  104247  106411  107063  105216+
+         104246  106413
CHEXA      84535       1  107063  105216  104246  106413  107067  105218+
+         104245  106415
CHEXA      84536       1  107067  105218  104245  106415  107071  105220+
+         104244  106417
CHEXA      84537       1  107071  105220  104244  106417  107075  105222+
+         104243  106419
CHEXA      84538       1  107075  105222  104243  106419  107079  105224+
+         104242  106421
CHEXA      84539       1  107079  105224  104242  106421  107083  105226+
+         104241  106423
CHEXA      84540       1  107083  105226  104241  106423  107087  105228+
+         104240  106425
CHEXA      84541       1  107087  105228  104240  106425  107091  105230+
+         104239  106427
CHEXA      84542       1  107091  105230  104239  106427  107095  105232+
+         104238  106429
CHEXA      84543       1  107095  105232  104238  106429  107099  105234+
+         104237  106431
CHEXA      84544       1  107099  105234  104237  106431  107103  105236+
+         104236  106433
CHEXA      84545       1  107103  105236  104236  106433  107107  105238+
+         104235  106435
CHEXA      84546       1  107107  105238  104235  106435  107111  105240+
+         104234  106437
CHEXA      84547       1  107111  105240  104234  106437  107115  105242+
+         104233  106439
CHEXA      84548       1  107115  105242  104233  106439  107119  105244+
+         104232  106441
CHEXA      84549       1  107119  105244  104232  106441  107123  105246+
+         104231  106443
CHEXA      84550       1  107123  105246  104231  106443  107127  105248+
+         104230  106445
CHEXA      84551       1  107127  105248  104230  106445  107131  105250+
+         104229  106447
CHEXA      84552       1  107131  105250  104229  106447  107135  105252+
+         104228  106449
CHEXA      84553       1  107135  105252  104228  106449  107139  105254+
+         104227  106451
CHEXA      84554       1  107139  105254  104227  106451  107143  105256+
+         104226  106453
CHEXA      84555       1  107143  105256  104226  106453  107147  105258+
+         104225  106455
CHEXA      84556       1  107147  105258  104225  106455  107151  105260+
+         104224  106457
CHEXA      84557       1  107151  105260  104224  106457  107155  105262+
+         104223  106459
CHEXA      84558       1  107155  105262  104223  106459  107159  105264+
+         104222  106461
CHEXA      84559       1  107159  105264  104222  106461  107163  105266+
+         104221  106463
CHEXA      84560       1  107163  105266  104221  106463  107167  105268+
+         104220  106465
CHEXA      84561       1  107167  105268  104220  106465  107171  105270+
+         104219  106467
CHEXA      84562       1  107171  105270  104219  106467  107175  105272+
+         104218  106469
CHEXA      84563       1  107175  105272  104218  106469  107179  105274+
+         104217  106471
CHEXA      84564       1  107179  105274  104217  106471  107183  105276+
+         104216  106473
CHEXA      84565       1  107183  105276  104216  106473  107187  105278+
+         104215  106475
CHEXA      84566       1  107187  105278  104215  106475  107191  105280+
+         104214  106477
CHEXA      84567       1  107191  105280  104214  106477  107195  105282+
+         104213  106479
CHEXA      84568       1  107195  105282  104213  106479  107199  105284+
+         104212  106481
CHEXA      84569       1  107199  105284  104212  106481  107203  105286+
+         104211  106483
CHEXA      84570       1  107203  105286  104211  106483  107207  105288+
+         104210  106485
CHEXA      84571       1  107207  105288  104210  106485  107211  105290+
+         104209  106487
CHEXA      84572       1  107211  105290  104209  106487  107215  105292+
+         104208  106489
CHEXA      84573       1  107215  105292  104208  106489  107219  105294+
+         104207  106491
CHEXA      84574       1  107219  105294  104207  106491  107223  105296+
+         104206  106493
CHEXA      84575       1  107223  105296  104206  106493  107227  105298+
+         104205  106495
CHEXA      84576       1  107227  105298  104205  106495  107231  105300+
+         104204  106497
CHEXA      84577       1  107231  105300  104204  106497  107235  105302+
+         104203  106499
CHEXA      84578       1  107235  105302  104203  106499  107239  105304+
+         104202  106501
CHEXA      84579       1  107239  105304  104202  106501  107243  105306+
+         104201  106503
CHEXA      84580       1  107243  105306  104201  106503  107247  105308+
+         104200  106505
CHEXA      84581       1  107247  105308  104200  106505  107251  105310+
+         104199  106507
CHEXA      84582       1  107251  105310  104199  106507  107255  105312+
+         104198  106509
CHEXA      84583       1  107255  105312  104198  106509  107259  105314+
+         104197  106511
CHEXA      84584       1  107259  105314  104197  106511  107263  105316+
+         104196  106513
CHEXA      84585       1  107263  105316  104196  106513  107267  105318+
+         104195  106515
CHEXA      84586       1  107267  105318  104195  106515  107271  105320+
+         104194  106517
CHEXA      84587       1  107271  105320  104194  106517  107275  105322+
+         104193  106519
CHEXA      84588       1  107275  105322  104193  106519  107279  105324+
+         104192  106521
CHEXA      84589       1  107279  105324  104192  106521  107283  105326+
+         104191  106523
CHEXA      84590       1  107283  105326  104191  106523  107287  105328+
+         104190  106525
CHEXA      84591       1  107287  105328  104190  106525  107291  105330+
+         104189  106527
CHEXA      84592       1  107291  105330  104189  106527  107295  105332+
+         104188  106529
CHEXA      84593       1  107295  105332  104188  106529  107299  105334+
+         104187  106531
CHEXA      84594       1  107299  105334  104187  106531  107303  105336+
+         104186  106533
CHEXA      84595       1  107303  105336  104186  106533  107307  105338+
+         104185  106535
CHEXA      84596       1  107307  105338  104185  106535  107311  105340+
+         104184  106537
CHEXA      84597       1  107311  105340  104184  106537  107315  105342+
+         104183  106539
CHEXA      84598       1  107315  105342  104183  106539  107319  105344+
+         104182  106541
CHEXA      84599       1  107319  105344  104182  106541  107323  105346+
+         104181  106543
CHEXA      84600       1  107323  105346  104181  106543  107327  105348+
+         104180  106545
CHEXA      84601       1  107327  105348  104180  106545  107331  105350+
+         104179  106547
CHEXA      84602       1  107331  105350  104179  106547  107335  105352+
+         104178  106549
CHEXA      84603       1  107335  105352  104178  106549  107339  105354+
+         104177  106551
CHEXA      84604       1  107339  105354  104177  106551  107343  105356+
+         104176  106553
CHEXA      84605       1  107343  105356  104176  106553  107347  105358+
+         104175  106555
CHEXA      84606       1  107347  105358  104175  106555  107351  105360+
+         104174  106557
CHEXA      84607       1  107351  105360  104174  106557  107355  105362+
+         104173  106559
CHEXA      84608       1  107355  105362  104173  106559  107359  105364+
+         104172  106561
CHEXA      84609       1  107359  105364  104172  106561  107363  105366+
+         104171  106563
CHEXA      84610       1  107363  105366  104171  106563  107367  105368+
+         104170  106565
CHEXA      84611       1  107367  105368  104170  106565  107371  105370+
+         104169  106567
CHEXA      84612       1  107371  105370  104169  106567  107375  105372+
+         104168  106569
CHEXA      84613       1  107375  105372  104168  106569  107379  105374+
+         104167  106571
CHEXA      84614       1  107379  105374  104167  106571  107383  105376+
+         104166  106573
CHEXA      84615       1  107383  105376  104166  106573  107387  105378+
+         104165  106575
CHEXA      84616       1  107387  105378  104165  106575  107391  105380+
+         104164  106577
CHEXA      84617       1  107391  105380  104164  106577  107395  105382+
+         104163  106579
CHEXA      84618       1  107395  105382  104163  106579  107399  105384+
+         104162  106581
CHEXA      84619       1  107399  105384  104162  106581  107403  105386+
+         104161  106583
CHEXA      84620       1  107403  105386  104161  106583  107407  105388+
+         104160  106585
CHEXA      84621       1  107407  105388  104160  106585  107411  105390+
+         104159  106587
CHEXA      84622       1  107411  105390  104159  106587  107415  105392+
+         104158  106589
CHEXA      84623       1  107415  105392  104158  106589  107419  105394+
+         104157  106591
CHEXA      84624       1  107419  105394  104157  106591  107423  105396+
+         104156  106593
CHEXA      84625       1  107423  105396  104156  106593  107427  105398+
+         104155  106595
CHEXA      84626       1  107427  105398  104155  106595  107431  105400+
+         104154  106597
CHEXA      84627       1  107431  105400  104154  106597  107435  105402+
+         104153  106599
CHEXA      84628       1  107435  105402  104153  106599  107439  105404+
+         104152  106601
CHEXA      84629       1  107439  105404  104152  106601  107443  105406+
+         104151  106603
CHEXA      84630       1  107443  105406  104151  106603  107447  105408+
+         104150  106605
CHEXA      84631       1  107447  105408  104150  106605  107451  105410+
+         104149  106607
CHEXA      84632       1  107451  105410  104149  106607  107455  105412+
+         104148  106609
CHEXA      84633       1  107455  105412  104148  106609  107459  105414+
+         104147  106611
CHEXA      84634       1  107459  105414  104147  106611  107463  105416+
+         104146  106613
CHEXA      84635       1  107463  105416  104146  106613  107467  105418+
+         104145  106615
CHEXA      84636       1  107467  105418  104145  106615  107471  105420+
+         104144  106617
CHEXA      84637       1  107471  105420  104144  106617  107475  105422+
+         104143  106619
CHEXA      84638       1  107475  105422  104143  106619  107479  105424+
+         104142  106621
CHEXA      84639       1  107479  105424  104142  106621  107483  105426+
+         104141  106623
CHEXA      84640       1  107483  105426  104141  106623  107487  105428+
+         104140  106625
CHEXA      84641       1  107487  105428  104140  106625  107491  105430+
+         104139  106627
CHEXA      84642       1  107491  105430  104139  106627  107495  105432+
+         104138  106629
CHEXA      84643       1  107495  105432  104138  106629  107499  105434+
+         104137  106631
CHEXA      84644       1  107499  105434  104137  106631  107503  105436+
+         104136  106633
CHEXA      84645       1  107503  105436  104136  106633  107507  105438+
+         104135  106635
CHEXA      84646       1  107507  105438  104135  106635  107511  105440+
+         104134  106637
CHEXA      84647       1  107511  105440  104134  106637  107515  105442+
+         104133  106639
CHEXA      84648       1  107515  105442  104133  106639  107519  105444+
+         104132  106641
CHEXA      84649       1  107519  105444  104132  106641  107523  105446+
+         104131  106643
CHEXA      84650       1  107523  105446  104131  106643  107527  105448+
+         104130  106645
CHEXA      84651       1  107527  105448  104130  106645  107531  105450+
+         104129  106647
CHEXA      84652       1  107531  105450  104129  106647  107535  105452+
+         104128  106649
CHEXA      84653       1  107535  105452  104128  106649  107539  105454+
+         104127  106651
CHEXA      84654       1  107539  105454  104127  106651  107543  105456+
+         104126  106653
CHEXA      84655       1  107543  105456  104126  106653  107547  105458+
+         104125  106655
CHEXA      84656       1  107547  105458  104125  106655  107551  105460+
+         104124  106657
CHEXA      84657       1  107551  105460  104124  106657  107555  105462+
+         104123  106659
CHEXA      84658       1  107555  105462  104123  106659  107559  105464+
+         104122  106661
CHEXA      84659       1  107559  105464  104122  106661  107563  105466+
+         104121  106663
CHEXA      84660       1  107563  105466  104121  106663  107567  105468+
+         104120  106665
CHEXA      84661       1  107567  105468  104120  106665  107571  105470+
+         104119  106667
CHEXA      84662       1  107571  105470  104119  106667  107575  105472+
+         104118  106669
CHEXA      84663       1  107575  105472  104118  106669  107579  105474+
+         104117  106671
CHEXA      84664       1  107579  105474  104117  106671  107583  105476+
+         104116  106673
CHEXA      84665       1  107583  105476  104116  106673  107587  105478+
+         104115  106675
CHEXA      84666       1  107587  105478  104115  106675  107591  105480+
+         104114  106677
CHEXA      84667       1  107591  105480  104114  106677  107595  105482+
+         104113  106679
CHEXA      84668       1  107595  105482  104113  106679  107599  105484+
+         104112  106681
CHEXA      84669       1  107599  105484  104112  106681  107603  105486+
+         104111  106683
CHEXA      84670       1  107603  105486  104111  106683  107607  105488+
+         104110  106685
CHEXA      84671       1  107607  105488  104110  106685  107611  105490+
+         104109  106687
CHEXA      84672       1  107611  105490  104109  106687  107615  105492+
+         104108  106689
CHEXA      84673       1  107615  105492  104108  106689  107619  105494+
+         104107  106691
CHEXA      84674       1  107619  105494  104107  106691  107623  105496+
+         104106  106693
CHEXA      84675       1  107623  105496  104106  106693  107627  105498+
+         104105  106695
CHEXA      84676       1  107627  105498  104105  106695  107631  105500+
+         104104  106697
CHEXA      84677       1  107631  105500  104104  106697  107635  105502+
+         104103  106699
CHEXA      84678       1  107635  105502  104103  106699  107639  105504+
+         104102  106701
CHEXA      84679       1  107639  105504  104102  106701  107643  105506+
+         104101  106703
CHEXA      84680       1  107643  105506  104101  106703  107647  105508+
+         104100  106705
CHEXA      84681       1  107647  105508  104100  106705  107651  105510+
+         104099  106707
CHEXA      84682       1  107651  105510  104099  106707  107655  105512+
+         104098  106709
CHEXA      84683       1  107655  105512  104098  106709  107659  105514+
+         104097  106711
CHEXA      84684       1  107659  105514  104097  106711  107663  105516+
+         104096  106713
CHEXA      84685       1  107663  105516  104096  106713  107667  105518+
+         104095  106715
CHEXA      84686       1  107667  105518  104095  106715  107671  105520+
+         104094  106717
CHEXA      84687       1  107671  105520  104094  106717  107675  105522+
+         104093  106719
CHEXA      84688       1  107675  105522  104093  106719  107679  105524+
+         104092  106721
CHEXA      84689       1  107679  105524  104092  106721  107683  105526+
+         104091  106723
CHEXA      84690       1  107683  105526  104091  106723  107687  105528+
+         104090  106725
CHEXA      84691       1  107687  105528  104090  106725  107691  105530+
+         104089  106727
CHEXA      84692       1  107691  105530  104089  106727  107695  105532+
+         104088  106729
CHEXA      84693       1  107695  105532  104088  106729  107699  105534+
+         104087  106731
CHEXA      84694       1  107699  105534  104087  106731  107703  105536+
+         104086  106733
CHEXA      84695       1  107703  105536  104086  106733  107707  105538+
+         104085  106735
CHEXA      84696       1  107707  105538  104085  106735  107711  105540+
+         104084  106737
CHEXA      84697       1  107711  105540  104084  106737  107715  105542+
+         104083  106739
CHEXA      84698       1  107715  105542  104083  106739  107719  105544+
+         104082  106741
CHEXA      84699       1  107719  105544  104082  106741  107723  105546+
+         104081  106743
CHEXA      84700       1  107723  105546  104081  106743  107727  105548+
+         104080  106745
CHEXA      84701       1  107727  105548  104080  106745  107731  105550+
+         104079  106747
CHEXA      84702       1  107731  105550  104079  106747  107735  105552+
+         104078  106749
CHEXA      84703       1  107735  105552  104078  106749  107739  105554+
+         104077  106751
CHEXA      84704       1  107739  105554  104077  106751  107743  105556+
+         104076  106753
CHEXA      84705       1  107743  105556  104076  106753  107747  105558+
+         104075  106755
CHEXA      84706       1  107747  105558  104075  106755  107751  105560+
+         104074  106757
CHEXA      84707       1  107751  105560  104074  106757  107755  105562+
+         104073  106759
CHEXA      84708       1  107755  105562  104073  106759  107759  105564+
+         104072  106761
CHEXA      84709       1  107759  105564  104072  106761  107763  105566+
+         104071  106763
CHEXA      84710       1  107763  105566  104071  106763  107767  105568+
+         104070  106765
CHEXA      84711       1  107767  105568  104070  106765  107771  105570+
+         104069  106767
CHEXA      84712       1  107771  105570  104069  106767  107775  105572+
+         104068  106769
CHEXA      84713       1  107775  105572  104068  106769  107779  105574+
+         104067  106771
CHEXA      84714       1  107779  105574  104067  106771  107783  105576+
+         104066  106773
CHEXA      84715       1  107783  105576  104066  106773  107787  105578+
+         104065  106775
CHEXA      84716       1  107787  105578  104065  106775  107791  105580+
+         104064  106777
CHEXA      84717       1  107791  105580  104064  106777  107795  105582+
+         104063  106779
CHEXA      84718       1  107795  105582  104063  106779  107799  105584+
+         104062  106781
CHEXA      84719       1  107799  105584  104062  106781  107803  105586+
+         104061  106783
CHEXA      84720       1  107803  105586  104061  106783  107807  105588+
+         104060  106785
CHEXA      84721       1  107807  105588  104060  106785  107811  105590+
+         104059  106787
CHEXA      84722       1  107811  105590  104059  106787  107815  105592+
+         104058  106789
CHEXA      84723       1  107815  105592  104058  106789  107819  105594+
+         104057  106791
CHEXA      84724       1  107819  105594  104057  106791  107823  105596+
+         104056  106793
CHEXA      84725       1  107823  105596  104056  106793  107827  105598+
+         104055  106795
CHEXA      84726       1  107827  105598  104055  106795  107831  105600+
+         104054  106797
CHEXA      84727       1  107831  105600  104054  106797  107835  105602+
+         104053  106799
CHEXA      84728       1  107835  105602  104053  106799  107839  105604+
+         104052  106801
CHEXA      84729       1  107839  105604  104052  106801  107843  105606+
+         104051  106803
CHEXA      84730       1  107843  105606  104051  106803  107847  105608+
+         104050  106805
CHEXA      84731       1  107847  105608  104050  106805  107851  105610+
+         104049  106807
CHEXA      84732       1  107851  105610  104049  106807  107855  105612+
+         104048  106809
CHEXA      84733       1  107855  105612  104048  106809  107859  105614+
+         104047  106811
CHEXA      84734       1  107859  105614  104047  106811  107863  105616+
+         104046  106813
CHEXA      84735       1  107863  105616  104046  106813  107867  105618+
+         104045  106815
CHEXA      84736       1  107867  105618  104045  106815  107871  105620+
+         104044  106817
CHEXA      84737       1  107871  105620  104044  106817  107875  105622+
+         104043  106819
CHEXA      84738       1  107875  105622  104043  106819  107879  105624+
+         104042  106821
CHEXA      84739       1  107879  105624  104042  106821  107883  105626+
+         104041  106823
CHEXA      84740       1  107883  105626  104041  106823  107887  105628+
+         104040  106825
CHEXA      84741       1  107887  105628  104040  106825  107891  105630+
+         104039  106827
CHEXA      84742       1  107891  105630  104039  106827  107895  105632+
+         104038  106829
CHEXA      84743       1  107895  105632  104038  106829  107899  105634+
+         104037  106831
CHEXA      84744       1  107899  105634  104037  106831  107903  105636+
+         104036  106833
CHEXA      84745       1  107903  105636  104036  106833  107907  105638+
+         104035  106835
CHEXA      84746       1  107907  105638  104035  106835  107911  105640+
+         104034  106837
CHEXA      84747       1  107911  105640  104034  106837  107915  105642+
+         104033  106839
CHEXA      84748       1  107915  105642  104033  106839  107919  105644+
+         104032  106841
CHEXA      84749       1  107919  105644  104032  106841  107923  105646+
+         104031  106843
CHEXA      84750       1  107923  105646  104031  106843  107927  105648+
+         104030  106845
CHEXA      84751       1  107927  105648  104030  106845  107931  105650+
+         104029  106847
CHEXA      84752       1  107931  105650  104029  106847  107935  105652+
+         104028  106849
CHEXA      84753       1  107935  105652  104028  106849  107939  105654+
+         104027  106851
CHEXA      84754       1  107939  105654  104027  106851  107943  105656+
+         104026  106853
CHEXA      84755       1  107943  105656  104026  106853  107947  105658+
+         104025  106855
CHEXA      84756       1  107947  105658  104025  106855  107951  105660+
+         104024  106857
CHEXA      84757       1  107951  105660  104024  106857  107955  105662+
+         104023  106859
CHEXA      84758       1  107955  105662  104023  106859  107959  105664+
+         104022  106861
CHEXA      84759       1  107959  105664  104022  106861  107963  105666+
+         104021  106863
CHEXA      84760       1  107963  105666  104021  106863  107967  105668+
+         104020  106865
CHEXA      84761       1  107967  105668  104020  106865  107971  105670+
+         104019  106867
CHEXA      84762       1  107971  105670  104019  106867  107975  105672+
+         104018  106869
CHEXA      84763       1  107975  105672  104018  106869  107979  105674+
+         104017  106871
CHEXA      84764       1  107979  105674  104017  106871  107983  105676+
+         104016  106873
CHEXA      84765       1  107983  105676  104016  106873  107987  105678+
+         104015  106875
CHEXA      84766       1  107987  105678  104015  106875  107991  105680+
+         104014  106877
CHEXA      84767       1  107991  105680  104014  106877  107995  105682+
+         104013  106879
CHEXA      84768       1  107995  105682  104013  106879  107999  105684+
+         104012  106881
CHEXA      84769       1  107999  105684  104012  106881  108003  105686+
+         104011  106883
CHEXA      84770       1  108003  105686  104011  106883  108007  105688+
+         104010  106885
CHEXA      84771       1  108007  105688  104010  106885  108011  105690+
+         104009  106887
CHEXA      84772       1  108011  105690  104009  106887  108015  105692+
+         104008  106889
CHEXA      84773       1  108015  105692  104008  106889  108019  105694+
+         104007  106891
CHEXA      84774       1  108019  105694  104007  106891  108023  105696+
+         104006  106893
CHEXA      84775       1  108023  105696  104006  106893  108027  105698+
+         104005  106895
CHEXA      84776       1  108027  105698  104005  106895  108031  105700+
+         104004  106897
CHEXA      84777       1  108031  105700  104004  106897  108035  105702+
+         104003  106899
CHEXA      84778       1  108035  105702  104003  106899  108039  105704+
+         104002  106901
CHEXA      84779       1  108039  105704  104002  106901  108043  105706+
+         104001  106903
CHEXA      84780       1  108043  105706  104001  106903  108047  105708+
+         104000  106905
CHEXA      84781       1  108047  105708  104000  106905  108051  105710+
+         103999  106907
CHEXA      84782       1  108051  105710  103999  106907  108055  105712+
+         103998  106909
CHEXA      84783       1  108055  105712  103998  106909  108059  105714+
+         103997  106911
CHEXA      84784       1  108059  105714  103997  106911  108063  105716+
+         103996  106913
CHEXA      84785       1  108063  105716  103996  106913  108067  105718+
+         103995  106915
CHEXA      84786       1  108067  105718  103995  106915  108071  105720+
+         103994  106917
CHEXA      84787       1  108071  105720  103994  106917  108075  105722+
+         103993  106919
CHEXA      84788       1  108075  105722  103993  106919  108079  105724+
+         103992  106921
CHEXA      84789       1  108079  105724  103992  106921  108083  105726+
+         103991  106923
CHEXA      84790       1  108083  105726  103991  106923  108087  105728+
+         103990  106925
CHEXA      84791       1  108087  105728  103990  106925  108091  105730+
+         103989  106927
CHEXA      84792       1  108091  105730  103989  106927  108095  105732+
+         103988  106929
CHEXA      84793       1  108095  105732  103988  106929  108099  105734+
+         103987  106931
CHEXA      84794       1  108099  105734  103987  106931  108103  105736+
+         103986  106933
CHEXA      84795       1  108103  105736  103986  106933  108107  105738+
+         103985  106935
CHEXA      84796       1  108107  105738  103985  106935  108111  105740+
+         103984  106937
CHEXA      84797       1  108111  105740  103984  106937  108115  105742+
+         103983  106939
CHEXA      84798       1  108115  105742  103983  106939  108119  105744+
+         103982  106941
CHEXA      84799       1  108119  105744  103982  106941  108123  105746+
+         103981  106943
CHEXA      84800       1  108123  105746  103981  106943  108127  105748+
+         103980  106945
CHEXA      84801       1  108127  105748  103980  106945  108131  105750+
+         103979  106947
CHEXA      84802       1  108131  105750  103979  106947  108135  105752+
+         103978  106949
CHEXA      84803       1  108135  105752  103978  106949  108139  105754+
+         103977  106951
CHEXA      84804       1  108139  105754  103977  106951  108143  105756+
+         103976  106953
CHEXA      84805       1  108143  105756  103976  106953  108147  105758+
+         103975  106955
CHEXA      84806       1  108147  105758  103975  106955  108151  105760+
+         103974  106957
CHEXA      84807       1  108151  105760  103974  106957  108155  105762+
+         103973  106959
CHEXA      84808       1  108155  105762  103973  106959  108159  105764+
+         103972  106961
CHEXA      84809       1  108159  105764  103972  106961  106963  103368+
+         103364  103373
CHEXA      84810       1  102564  100965  100964  102563  106968  105169+
+         105168  106967
CHEXA      84811       1  106968  105169  105168  106967  106972  105171+
+         105170  106971
CHEXA      84812       1  106972  105171  105170  106971  106976  105173+
+         105172  106975
CHEXA      84813       1  106976  105173  105172  106975  106980  105175+
+         105174  106979
CHEXA      84814       1  106980  105175  105174  106979  106984  105177+
+         105176  106983
CHEXA      84815       1  106984  105177  105176  106983  106988  105179+
+         105178  106987
CHEXA      84816       1  106988  105179  105178  106987  106992  105181+
+         105180  106991
CHEXA      84817       1  106992  105181  105180  106991  106996  105183+
+         105182  106995
CHEXA      84818       1  106996  105183  105182  106995  107000  105185+
+         105184  106999
CHEXA      84819       1  107000  105185  105184  106999  107004  105187+
+         105186  107003
CHEXA      84820       1  107004  105187  105186  107003  107008  105189+
+         105188  107007
CHEXA      84821       1  107008  105189  105188  107007  107012  105191+
+         105190  107011
CHEXA      84822       1  107012  105191  105190  107011  107016  105193+
+         105192  107015
CHEXA      84823       1  107016  105193  105192  107015  107020  105195+
+         105194  107019
CHEXA      84824       1  107020  105195  105194  107019  107024  105197+
+         105196  107023
CHEXA      84825       1  107024  105197  105196  107023  107028  105199+
+         105198  107027
CHEXA      84826       1  107028  105199  105198  107027  107032  105201+
+         105200  107031
CHEXA      84827       1  107032  105201  105200  107031  107036  105203+
+         105202  107035
CHEXA      84828       1  107036  105203  105202  107035  107040  105205+
+         105204  107039
CHEXA      84829       1  107040  105205  105204  107039  107044  105207+
+         105206  107043
CHEXA      84830       1  107044  105207  105206  107043  107048  105209+
+         105208  107047
CHEXA      84831       1  107048  105209  105208  107047  107052  105211+
+         105210  107051
CHEXA      84832       1  107052  105211  105210  107051  107056  105213+
+         105212  107055
CHEXA      84833       1  107056  105213  105212  107055  107060  105215+
+         105214  107059
CHEXA      84834       1  107060  105215  105214  107059  107064  105217+
+         105216  107063
CHEXA      84835       1  107064  105217  105216  107063  107068  105219+
+         105218  107067
CHEXA      84836       1  107068  105219  105218  107067  107072  105221+
+         105220  107071
CHEXA      84837       1  107072  105221  105220  107071  107076  105223+
+         105222  107075
CHEXA      84838       1  107076  105223  105222  107075  107080  105225+
+         105224  107079
CHEXA      84839       1  107080  105225  105224  107079  107084  105227+
+         105226  107083
CHEXA      84840       1  107084  105227  105226  107083  107088  105229+
+         105228  107087
CHEXA      84841       1  107088  105229  105228  107087  107092  105231+
+         105230  107091
CHEXA      84842       1  107092  105231  105230  107091  107096  105233+
+         105232  107095
CHEXA      84843       1  107096  105233  105232  107095  107100  105235+
+         105234  107099
CHEXA      84844       1  107100  105235  105234  107099  107104  105237+
+         105236  107103
CHEXA      84845       1  107104  105237  105236  107103  107108  105239+
+         105238  107107
CHEXA      84846       1  107108  105239  105238  107107  107112  105241+
+         105240  107111
CHEXA      84847       1  107112  105241  105240  107111  107116  105243+
+         105242  107115
CHEXA      84848       1  107116  105243  105242  107115  107120  105245+
+         105244  107119
CHEXA      84849       1  107120  105245  105244  107119  107124  105247+
+         105246  107123
CHEXA      84850       1  107124  105247  105246  107123  107128  105249+
+         105248  107127
CHEXA      84851       1  107128  105249  105248  107127  107132  105251+
+         105250  107131
CHEXA      84852       1  107132  105251  105250  107131  107136  105253+
+         105252  107135
CHEXA      84853       1  107136  105253  105252  107135  107140  105255+
+         105254  107139
CHEXA      84854       1  107140  105255  105254  107139  107144  105257+
+         105256  107143
CHEXA      84855       1  107144  105257  105256  107143  107148  105259+
+         105258  107147
CHEXA      84856       1  107148  105259  105258  107147  107152  105261+
+         105260  107151
CHEXA      84857       1  107152  105261  105260  107151  107156  105263+
+         105262  107155
CHEXA      84858       1  107156  105263  105262  107155  107160  105265+
+         105264  107159
CHEXA      84859       1  107160  105265  105264  107159  107164  105267+
+         105266  107163
CHEXA      84860       1  107164  105267  105266  107163  107168  105269+
+         105268  107167
CHEXA      84861       1  107168  105269  105268  107167  107172  105271+
+         105270  107171
CHEXA      84862       1  107172  105271  105270  107171  107176  105273+
+         105272  107175
CHEXA      84863       1  107176  105273  105272  107175  107180  105275+
+         105274  107179
CHEXA      84864       1  107180  105275  105274  107179  107184  105277+
+         105276  107183
CHEXA      84865       1  107184  105277  105276  107183  107188  105279+
+         105278  107187
CHEXA      84866       1  107188  105279  105278  107187  107192  105281+
+         105280  107191
CHEXA      84867       1  107192  105281  105280  107191  107196  105283+
+         105282  107195
CHEXA      84868       1  107196  105283  105282  107195  107200  105285+
+         105284  107199
CHEXA      84869       1  107200  105285  105284  107199  107204  105287+
+         105286  107203
CHEXA      84870       1  107204  105287  105286  107203  107208  105289+
+         105288  107207
CHEXA      84871       1  107208  105289  105288  107207  107212  105291+
+         105290  107211
CHEXA      84872       1  107212  105291  105290  107211  107216  105293+
+         105292  107215
CHEXA      84873       1  107216  105293  105292  107215  107220  105295+
+         105294  107219
CHEXA      84874       1  107220  105295  105294  107219  107224  105297+
+         105296  107223
CHEXA      84875       1  107224  105297  105296  107223  107228  105299+
+         105298  107227
CHEXA      84876       1  107228  105299  105298  107227  107232  105301+
+         105300  107231
CHEXA      84877       1  107232  105301  105300  107231  107236  105303+
+         105302  107235
CHEXA      84878       1  107236  105303  105302  107235  107240  105305+
+         105304  107239
CHEXA      84879       1  107240  105305  105304  107239  107244  105307+
+         105306  107243
CHEXA      84880       1  107244  105307  105306  107243  107248  105309+
+         105308  107247
CHEXA      84881       1  107248  105309  105308  107247  107252  105311+
+         105310  107251
CHEXA      84882       1  107252  105311  105310  107251  107256  105313+
+         105312  107255
CHEXA      84883       1  107256  105313  105312  107255  107260  105315+
+         105314  107259
CHEXA      84884       1  107260  105315  105314  107259  107264  105317+
+         105316  107263
CHEXA      84885       1  107264  105317  105316  107263  107268  105319+
+         105318  107267
CHEXA      84886       1  107268  105319  105318  107267  107272  105321+
+         105320  107271
CHEXA      84887       1  107272  105321  105320  107271  107276  105323+
+         105322  107275
CHEXA      84888       1  107276  105323  105322  107275  107280  105325+
+         105324  107279
CHEXA      84889       1  107280  105325  105324  107279  107284  105327+
+         105326  107283
CHEXA      84890       1  107284  105327  105326  107283  107288  105329+
+         105328  107287
CHEXA      84891       1  107288  105329  105328  107287  107292  105331+
+         105330  107291
CHEXA      84892       1  107292  105331  105330  107291  107296  105333+
+         105332  107295
CHEXA      84893       1  107296  105333  105332  107295  107300  105335+
+         105334  107299
CHEXA      84894       1  107300  105335  105334  107299  107304  105337+
+         105336  107303
CHEXA      84895       1  107304  105337  105336  107303  107308  105339+
+         105338  107307
CHEXA      84896       1  107308  105339  105338  107307  107312  105341+
+         105340  107311
CHEXA      84897       1  107312  105341  105340  107311  107316  105343+
+         105342  107315
CHEXA      84898       1  107316  105343  105342  107315  107320  105345+
+         105344  107319
CHEXA      84899       1  107320  105345  105344  107319  107324  105347+
+         105346  107323
CHEXA      84900       1  107324  105347  105346  107323  107328  105349+
+         105348  107327
CHEXA      84901       1  107328  105349  105348  107327  107332  105351+
+         105350  107331
CHEXA      84902       1  107332  105351  105350  107331  107336  105353+
+         105352  107335
CHEXA      84903       1  107336  105353  105352  107335  107340  105355+
+         105354  107339
CHEXA      84904       1  107340  105355  105354  107339  107344  105357+
+         105356  107343
CHEXA      84905       1  107344  105357  105356  107343  107348  105359+
+         105358  107347
CHEXA      84906       1  107348  105359  105358  107347  107352  105361+
+         105360  107351
CHEXA      84907       1  107352  105361  105360  107351  107356  105363+
+         105362  107355
CHEXA      84908       1  107356  105363  105362  107355  107360  105365+
+         105364  107359
CHEXA      84909       1  107360  105365  105364  107359  107364  105367+
+         105366  107363
CHEXA      84910       1  107364  105367  105366  107363  107368  105369+
+         105368  107367
CHEXA      84911       1  107368  105369  105368  107367  107372  105371+
+         105370  107371
CHEXA      84912       1  107372  105371  105370  107371  107376  105373+
+         105372  107375
CHEXA      84913       1  107376  105373  105372  107375  107380  105375+
+         105374  107379
CHEXA      84914       1  107380  105375  105374  107379  107384  105377+
+         105376  107383
CHEXA      84915       1  107384  105377  105376  107383  107388  105379+
+         105378  107387
CHEXA      84916       1  107388  105379  105378  107387  107392  105381+
+         105380  107391
CHEXA      84917       1  107392  105381  105380  107391  107396  105383+
+         105382  107395
CHEXA      84918       1  107396  105383  105382  107395  107400  105385+
+         105384  107399
CHEXA      84919       1  107400  105385  105384  107399  107404  105387+
+         105386  107403
CHEXA      84920       1  107404  105387  105386  107403  107408  105389+
+         105388  107407
CHEXA      84921       1  107408  105389  105388  107407  107412  105391+
+         105390  107411
CHEXA      84922       1  107412  105391  105390  107411  107416  105393+
+         105392  107415
CHEXA      84923       1  107416  105393  105392  107415  107420  105395+
+         105394  107419
CHEXA      84924       1  107420  105395  105394  107419  107424  105397+
+         105396  107423
CHEXA      84925       1  107424  105397  105396  107423  107428  105399+
+         105398  107427
CHEXA      84926       1  107428  105399  105398  107427  107432  105401+
+         105400  107431
CHEXA      84927       1  107432  105401  105400  107431  107436  105403+
+         105402  107435
CHEXA      84928       1  107436  105403  105402  107435  107440  105405+
+         105404  107439
CHEXA      84929       1  107440  105405  105404  107439  107444  105407+
+         105406  107443
CHEXA      84930       1  107444  105407  105406  107443  107448  105409+
+         105408  107447
CHEXA      84931       1  107448  105409  105408  107447  107452  105411+
+         105410  107451
CHEXA      84932       1  107452  105411  105410  107451  107456  105413+
+         105412  107455
CHEXA      84933       1  107456  105413  105412  107455  107460  105415+
+         105414  107459
CHEXA      84934       1  107460  105415  105414  107459  107464  105417+
+         105416  107463
CHEXA      84935       1  107464  105417  105416  107463  107468  105419+
+         105418  107467
CHEXA      84936       1  107468  105419  105418  107467  107472  105421+
+         105420  107471
CHEXA      84937       1  107472  105421  105420  107471  107476  105423+
+         105422  107475
CHEXA      84938       1  107476  105423  105422  107475  107480  105425+
+         105424  107479
CHEXA      84939       1  107480  105425  105424  107479  107484  105427+
+         105426  107483
CHEXA      84940       1  107484  105427  105426  107483  107488  105429+
+         105428  107487
CHEXA      84941       1  107488  105429  105428  107487  107492  105431+
+         105430  107491
CHEXA      84942       1  107492  105431  105430  107491  107496  105433+
+         105432  107495
CHEXA      84943       1  107496  105433  105432  107495  107500  105435+
+         105434  107499
CHEXA      84944       1  107500  105435  105434  107499  107504  105437+
+         105436  107503
CHEXA      84945       1  107504  105437  105436  107503  107508  105439+
+         105438  107507
CHEXA      84946       1  107508  105439  105438  107507  107512  105441+
+         105440  107511
CHEXA      84947       1  107512  105441  105440  107511  107516  105443+
+         105442  107515
CHEXA      84948       1  107516  105443  105442  107515  107520  105445+
+         105444  107519
CHEXA      84949       1  107520  105445  105444  107519  107524  105447+
+         105446  107523
CHEXA      84950       1  107524  105447  105446  107523  107528  105449+
+         105448  107527
CHEXA      84951       1  107528  105449  105448  107527  107532  105451+
+         105450  107531
CHEXA      84952       1  107532  105451  105450  107531  107536  105453+
+         105452  107535
CHEXA      84953       1  107536  105453  105452  107535  107540  105455+
+         105454  107539
CHEXA      84954       1  107540  105455  105454  107539  107544  105457+
+         105456  107543
CHEXA      84955       1  107544  105457  105456  107543  107548  105459+
+         105458  107547
CHEXA      84956       1  107548  105459  105458  107547  107552  105461+
+         105460  107551
CHEXA      84957       1  107552  105461  105460  107551  107556  105463+
+         105462  107555
CHEXA      84958       1  107556  105463  105462  107555  107560  105465+
+         105464  107559
CHEXA      84959       1  107560  105465  105464  107559  107564  105467+
+         105466  107563
CHEXA      84960       1  107564  105467  105466  107563  107568  105469+
+         105468  107567
CHEXA      84961       1  107568  105469  105468  107567  107572  105471+
+         105470  107571
CHEXA      84962       1  107572  105471  105470  107571  107576  105473+
+         105472  107575
CHEXA      84963       1  107576  105473  105472  107575  107580  105475+
+         105474  107579
CHEXA      84964       1  107580  105475  105474  107579  107584  105477+
+         105476  107583
CHEXA      84965       1  107584  105477  105476  107583  107588  105479+
+         105478  107587
CHEXA      84966       1  107588  105479  105478  107587  107592  105481+
+         105480  107591
CHEXA      84967       1  107592  105481  105480  107591  107596  105483+
+         105482  107595
CHEXA      84968       1  107596  105483  105482  107595  107600  105485+
+         105484  107599
CHEXA      84969       1  107600  105485  105484  107599  107604  105487+
+         105486  107603
CHEXA      84970       1  107604  105487  105486  107603  107608  105489+
+         105488  107607
CHEXA      84971       1  107608  105489  105488  107607  107612  105491+
+         105490  107611
CHEXA      84972       1  107612  105491  105490  107611  107616  105493+
+         105492  107615
CHEXA      84973       1  107616  105493  105492  107615  107620  105495+
+         105494  107619
CHEXA      84974       1  107620  105495  105494  107619  107624  105497+
+         105496  107623
CHEXA      84975       1  107624  105497  105496  107623  107628  105499+
+         105498  107627
CHEXA      84976       1  107628  105499  105498  107627  107632  105501+
+         105500  107631
CHEXA      84977       1  107632  105501  105500  107631  107636  105503+
+         105502  107635
CHEXA      84978       1  107636  105503  105502  107635  107640  105505+
+         105504  107639
CHEXA      84979       1  107640  105505  105504  107639  107644  105507+
+         105506  107643
CHEXA      84980       1  107644  105507  105506  107643  107648  105509+
+         105508  107647
CHEXA      84981       1  107648  105509  105508  107647  107652  105511+
+         105510  107651
CHEXA      84982       1  107652  105511  105510  107651  107656  105513+
+         105512  107655
CHEXA      84983       1  107656  105513  105512  107655  107660  105515+
+         105514  107659
CHEXA      84984       1  107660  105515  105514  107659  107664  105517+
+         105516  107663
CHEXA      84985       1  107664  105517  105516  107663  107668  105519+
+         105518  107667
CHEXA      84986       1  107668  105519  105518  107667  107672  105521+
+         105520  107671
CHEXA      84987       1  107672  105521  105520  107671  107676  105523+
+         105522  107675
CHEXA      84988       1  107676  105523  105522  107675  107680  105525+
+         105524  107679
CHEXA      84989       1  107680  105525  105524  107679  107684  105527+
+         105526  107683
CHEXA      84990       1  107684  105527  105526  107683  107688  105529+
+         105528  107687
CHEXA      84991       1  107688  105529  105528  107687  107692  105531+
+         105530  107691
CHEXA      84992       1  107692  105531  105530  107691  107696  105533+
+         105532  107695
CHEXA      84993       1  107696  105533  105532  107695  107700  105535+
+         105534  107699
CHEXA      84994       1  107700  105535  105534  107699  107704  105537+
+         105536  107703
CHEXA      84995       1  107704  105537  105536  107703  107708  105539+
+         105538  107707
CHEXA      84996       1  107708  105539  105538  107707  107712  105541+
+         105540  107711
CHEXA      84997       1  107712  105541  105540  107711  107716  105543+
+         105542  107715
CHEXA      84998       1  107716  105543  105542  107715  107720  105545+
+         105544  107719
CHEXA      84999       1  107720  105545  105544  107719  107724  105547+
+         105546  107723
CHEXA      85000       1  107724  105547  105546  107723  107728  105549+
+         105548  107727
CHEXA      85001       1  107728  105549  105548  107727  107732  105551+
+         105550  107731
CHEXA      85002       1  107732  105551  105550  107731  107736  105553+
+         105552  107735
CHEXA      85003       1  107736  105553  105552  107735  107740  105555+
+         105554  107739
CHEXA      85004       1  107740  105555  105554  107739  107744  105557+
+         105556  107743
CHEXA      85005       1  107744  105557  105556  107743  107748  105559+
+         105558  107747
CHEXA      85006       1  107748  105559  105558  107747  107752  105561+
+         105560  107751
CHEXA      85007       1  107752  105561  105560  107751  107756  105563+
+         105562  107755
CHEXA      85008       1  107756  105563  105562  107755  107760  105565+
+         105564  107759
CHEXA      85009       1  107760  105565  105564  107759  107764  105567+
+         105566  107763
CHEXA      85010       1  107764  105567  105566  107763  107768  105569+
+         105568  107767
CHEXA      85011       1  107768  105569  105568  107767  107772  105571+
+         105570  107771
CHEXA      85012       1  107772  105571  105570  107771  107776  105573+
+         105572  107775
CHEXA      85013       1  107776  105573  105572  107775  107780  105575+
+         105574  107779
CHEXA      85014       1  107780  105575  105574  107779  107784  105577+
+         105576  107783
CHEXA      85015       1  107784  105577  105576  107783  107788  105579+
+         105578  107787
CHEXA      85016       1  107788  105579  105578  107787  107792  105581+
+         105580  107791
CHEXA      85017       1  107792  105581  105580  107791  107796  105583+
+         105582  107795
CHEXA      85018       1  107796  105583  105582  107795  107800  105585+
+         105584  107799
CHEXA      85019       1  107800  105585  105584  107799  107804  105587+
+         105586  107803
CHEXA      85020       1  107804  105587  105586  107803  107808  105589+
+         105588  107807
CHEXA      85021       1  107808  105589  105588  107807  107812  105591+
+         105590  107811
CHEXA      85022       1  107812  105591  105590  107811  107816  105593+
+         105592  107815
CHEXA      85023       1  107816  105593  105592  107815  107820  105595+
+         105594  107819
CHEXA      85024       1  107820  105595  105594  107819  107824  105597+
+         105596  107823
CHEXA      85025       1  107824  105597  105596  107823  107828  105599+
+         105598  107827
CHEXA      85026       1  107828  105599  105598  107827  107832  105601+
+         105600  107831
CHEXA      85027       1  107832  105601  105600  107831  107836  105603+
+         105602  107835
CHEXA      85028       1  107836  105603  105602  107835  107840  105605+
+         105604  107839
CHEXA      85029       1  107840  105605  105604  107839  107844  105607+
+         105606  107843
CHEXA      85030       1  107844  105607  105606  107843  107848  105609+
+         105608  107847
CHEXA      85031       1  107848  105609  105608  107847  107852  105611+
+         105610  107851
CHEXA      85032       1  107852  105611  105610  107851  107856  105613+
+         105612  107855
CHEXA      85033       1  107856  105613  105612  107855  107860  105615+
+         105614  107859
CHEXA      85034       1  107860  105615  105614  107859  107864  105617+
+         105616  107863
CHEXA      85035       1  107864  105617  105616  107863  107868  105619+
+         105618  107867
CHEXA      85036       1  107868  105619  105618  107867  107872  105621+
+         105620  107871
CHEXA      85037       1  107872  105621  105620  107871  107876  105623+
+         105622  107875
CHEXA      85038       1  107876  105623  105622  107875  107880  105625+
+         105624  107879
CHEXA      85039       1  107880  105625  105624  107879  107884  105627+
+         105626  107883
CHEXA      85040       1  107884  105627  105626  107883  107888  105629+
+         105628  107887
CHEXA      85041       1  107888  105629  105628  107887  107892  105631+
+         105630  107891
CHEXA      85042       1  107892  105631  105630  107891  107896  105633+
+         105632  107895
CHEXA      85043       1  107896  105633  105632  107895  107900  105635+
+         105634  107899
CHEXA      85044       1  107900  105635  105634  107899  107904  105637+
+         105636  107903
CHEXA      85045       1  107904  105637  105636  107903  107908  105639+
+         105638  107907
CHEXA      85046       1  107908  105639  105638  107907  107912  105641+
+         105640  107911
CHEXA      85047       1  107912  105641  105640  107911  107916  105643+
+         105642  107915
CHEXA      85048       1  107916  105643  105642  107915  107920  105645+
+         105644  107919
CHEXA      85049       1  107920  105645  105644  107919  107924  105647+
+         105646  107923
CHEXA      85050       1  107924  105647  105646  107923  107928  105649+
+         105648  107927
CHEXA      85051       1  107928  105649  105648  107927  107932  105651+
+         105650  107931
CHEXA      85052       1  107932  105651  105650  107931  107936  105653+
+         105652  107935
CHEXA      85053       1  107936  105653  105652  107935  107940  105655+
+         105654  107939
CHEXA      85054       1  107940  105655  105654  107939  107944  105657+
+         105656  107943
CHEXA      85055       1  107944  105657  105656  107943  107948  105659+
+         105658  107947
CHEXA      85056       1  107948  105659  105658  107947  107952  105661+
+         105660  107951
CHEXA      85057       1  107952  105661  105660  107951  107956  105663+
+         105662  107955
CHEXA      85058       1  107956  105663  105662  107955  107960  105665+
+         105664  107959
CHEXA      85059       1  107960  105665  105664  107959  107964  105667+
+         105666  107963
CHEXA      85060       1  107964  105667  105666  107963  107968  105669+
+         105668  107967
CHEXA      85061       1  107968  105669  105668  107967  107972  105671+
+         105670  107971
CHEXA      85062       1  107972  105671  105670  107971  107976  105673+
+         105672  107975
CHEXA      85063       1  107976  105673  105672  107975  107980  105675+
+         105674  107979
CHEXA      85064       1  107980  105675  105674  107979  107984  105677+
+         105676  107983
CHEXA      85065       1  107984  105677  105676  107983  107988  105679+
+         105678  107987
CHEXA      85066       1  107988  105679  105678  107987  107992  105681+
+         105680  107991
CHEXA      85067       1  107992  105681  105680  107991  107996  105683+
+         105682  107995
CHEXA      85068       1  107996  105683  105682  107995  108000  105685+
+         105684  107999
CHEXA      85069       1  108000  105685  105684  107999  108004  105687+
+         105686  108003
CHEXA      85070       1  108004  105687  105686  108003  108008  105689+
+         105688  108007
CHEXA      85071       1  108008  105689  105688  108007  108012  105691+
+         105690  108011
CHEXA      85072       1  108012  105691  105690  108011  108016  105693+
+         105692  108015
CHEXA      85073       1  108016  105693  105692  108015  108020  105695+
+         105694  108019
CHEXA      85074       1  108020  105695  105694  108019  108024  105697+
+         105696  108023
CHEXA      85075       1  108024  105697  105696  108023  108028  105699+
+         105698  108027
CHEXA      85076       1  108028  105699  105698  108027  108032  105701+
+         105700  108031
CHEXA      85077       1  108032  105701  105700  108031  108036  105703+
+         105702  108035
CHEXA      85078       1  108036  105703  105702  108035  108040  105705+
+         105704  108039
CHEXA      85079       1  108040  105705  105704  108039  108044  105707+
+         105706  108043
CHEXA      85080       1  108044  105707  105706  108043  108048  105709+
+         105708  108047
CHEXA      85081       1  108048  105709  105708  108047  108052  105711+
+         105710  108051
CHEXA      85082       1  108052  105711  105710  108051  108056  105713+
+         105712  108055
CHEXA      85083       1  108056  105713  105712  108055  108060  105715+
+         105714  108059
CHEXA      85084       1  108060  105715  105714  108059  108064  105717+
+         105716  108063
CHEXA      85085       1  108064  105717  105716  108063  108068  105719+
+         105718  108067
CHEXA      85086       1  108068  105719  105718  108067  108072  105721+
+         105720  108071
CHEXA      85087       1  108072  105721  105720  108071  108076  105723+
+         105722  108075
CHEXA      85088       1  108076  105723  105722  108075  108080  105725+
+         105724  108079
CHEXA      85089       1  108080  105725  105724  108079  108084  105727+
+         105726  108083
CHEXA      85090       1  108084  105727  105726  108083  108088  105729+
+         105728  108087
CHEXA      85091       1  108088  105729  105728  108087  108092  105731+
+         105730  108091
CHEXA      85092       1  108092  105731  105730  108091  108096  105733+
+         105732  108095
CHEXA      85093       1  108096  105733  105732  108095  108100  105735+
+         105734  108099
CHEXA      85094       1  108100  105735  105734  108099  108104  105737+
+         105736  108103
CHEXA      85095       1  108104  105737  105736  108103  108108  105739+
+         105738  108107
CHEXA      85096       1  108108  105739  105738  108107  108112  105741+
+         105740  108111
CHEXA      85097       1  108112  105741  105740  108111  108116  105743+
+         105742  108115
CHEXA      85098       1  108116  105743  105742  108115  108120  105745+
+         105744  108119
CHEXA      85099       1  108120  105745  105744  108119  108124  105747+
+         105746  108123
CHEXA      85100       1  108124  105747  105746  108123  108128  105749+
+         105748  108127
CHEXA      85101       1  108128  105749  105748  108127  108132  105751+
+         105750  108131
CHEXA      85102       1  108132  105751  105750  108131  108136  105753+
+         105752  108135
CHEXA      85103       1  108136  105753  105752  108135  108140  105755+
+         105754  108139
CHEXA      85104       1  108140  105755  105754  108139  108144  105757+
+         105756  108143
CHEXA      85105       1  108144  105757  105756  108143  108148  105759+
+         105758  108147
CHEXA      85106       1  108148  105759  105758  108147  108152  105761+
+         105760  108151
CHEXA      85107       1  108152  105761  105760  108151  108156  105763+
+         105762  108155
CHEXA      85108       1  108156  105763  105762  108155  108160  105765+
+         105764  108159
CHEXA      85109       1  108160  105765  105764  108159  106964  103369+
+         103368  106963
CHEXA      85110       1  100963  100162  100965  102564  104570  103971+
+         105169  106968
CHEXA      85111       1  104570  103971  105169  106968  104572  103970+
+         105171  106972
CHEXA      85112       1  104572  103970  105171  106972  104574  103969+
+         105173  106976
CHEXA      85113       1  104574  103969  105173  106976  104576  103968+
+         105175  106980
CHEXA      85114       1  104576  103968  105175  106980  104578  103967+
+         105177  106984
CHEXA      85115       1  104578  103967  105177  106984  104580  103966+
+         105179  106988
CHEXA      85116       1  104580  103966  105179  106988  104582  103965+
+         105181  106992
CHEXA      85117       1  104582  103965  105181  106992  104584  103964+
+         105183  106996
CHEXA      85118       1  104584  103964  105183  106996  104586  103963+
+         105185  107000
CHEXA      85119       1  104586  103963  105185  107000  104588  103962+
+         105187  107004
CHEXA      85120       1  104588  103962  105187  107004  104590  103961+
+         105189  107008
CHEXA      85121       1  104590  103961  105189  107008  104592  103960+
+         105191  107012
CHEXA      85122       1  104592  103960  105191  107012  104594  103959+
+         105193  107016
CHEXA      85123       1  104594  103959  105193  107016  104596  103958+
+         105195  107020
CHEXA      85124       1  104596  103958  105195  107020  104598  103957+
+         105197  107024
CHEXA      85125       1  104598  103957  105197  107024  104600  103956+
+         105199  107028
CHEXA      85126       1  104600  103956  105199  107028  104602  103955+
+         105201  107032
CHEXA      85127       1  104602  103955  105201  107032  104604  103954+
+         105203  107036
CHEXA      85128       1  104604  103954  105203  107036  104606  103953+
+         105205  107040
CHEXA      85129       1  104606  103953  105205  107040  104608  103952+
+         105207  107044
CHEXA      85130       1  104608  103952  105207  107044  104610  103951+
+         105209  107048
CHEXA      85131       1  104610  103951  105209  107048  104612  103950+
+         105211  107052
CHEXA      85132       1  104612  103950  105211  107052  104614  103949+
+         105213  107056
CHEXA      85133       1  104614  103949  105213  107056  104616  103948+
+         105215  107060
CHEXA      85134       1  104616  103948  105215  107060  104618  103947+
+         105217  107064
CHEXA      85135       1  104618  103947  105217  107064  104620  103946+
+         105219  107068
CHEXA      85136       1  104620  103946  105219  107068  104622  103945+
+         105221  107072
CHEXA      85137       1  104622  103945  105221  107072  104624  103944+
+         105223  107076
CHEXA      85138       1  104624  103944  105223  107076  104626  103943+
+         105225  107080
CHEXA      85139       1  104626  103943  105225  107080  104628  103942+
+         105227  107084
CHEXA      85140       1  104628  103942  105227  107084  104630  103941+
+         105229  107088
CHEXA      85141       1  104630  103941  105229  107088  104632  103940+
+         105231  107092
CHEXA      85142       1  104632  103940  105231  107092  104634  103939+
+         105233  107096
CHEXA      85143       1  104634  103939  105233  107096  104636  103938+
+         105235  107100
CHEXA      85144       1  104636  103938  105235  107100  104638  103937+
+         105237  107104
CHEXA      85145       1  104638  103937  105237  107104  104640  103936+
+         105239  107108
CHEXA      85146       1  104640  103936  105239  107108  104642  103935+
+         105241  107112
CHEXA      85147       1  104642  103935  105241  107112  104644  103934+
+         105243  107116
CHEXA      85148       1  104644  103934  105243  107116  104646  103933+
+         105245  107120
CHEXA      85149       1  104646  103933  105245  107120  104648  103932+
+         105247  107124
CHEXA      85150       1  104648  103932  105247  107124  104650  103931+
+         105249  107128
CHEXA      85151       1  104650  103931  105249  107128  104652  103930+
+         105251  107132
CHEXA      85152       1  104652  103930  105251  107132  104654  103929+
+         105253  107136
CHEXA      85153       1  104654  103929  105253  107136  104656  103928+
+         105255  107140
CHEXA      85154       1  104656  103928  105255  107140  104658  103927+
+         105257  107144
CHEXA      85155       1  104658  103927  105257  107144  104660  103926+
+         105259  107148
CHEXA      85156       1  104660  103926  105259  107148  104662  103925+
+         105261  107152
CHEXA      85157       1  104662  103925  105261  107152  104664  103924+
+         105263  107156
CHEXA      85158       1  104664  103924  105263  107156  104666  103923+
+         105265  107160
CHEXA      85159       1  104666  103923  105265  107160  104668  103922+
+         105267  107164
CHEXA      85160       1  104668  103922  105267  107164  104670  103921+
+         105269  107168
CHEXA      85161       1  104670  103921  105269  107168  104672  103920+
+         105271  107172
CHEXA      85162       1  104672  103920  105271  107172  104674  103919+
+         105273  107176
CHEXA      85163       1  104674  103919  105273  107176  104676  103918+
+         105275  107180
CHEXA      85164       1  104676  103918  105275  107180  104678  103917+
+         105277  107184
CHEXA      85165       1  104678  103917  105277  107184  104680  103916+
+         105279  107188
CHEXA      85166       1  104680  103916  105279  107188  104682  103915+
+         105281  107192
CHEXA      85167       1  104682  103915  105281  107192  104684  103914+
+         105283  107196
CHEXA      85168       1  104684  103914  105283  107196  104686  103913+
+         105285  107200
CHEXA      85169       1  104686  103913  105285  107200  104688  103912+
+         105287  107204
CHEXA      85170       1  104688  103912  105287  107204  104690  103911+
+         105289  107208
CHEXA      85171       1  104690  103911  105289  107208  104692  103910+
+         105291  107212
CHEXA      85172       1  104692  103910  105291  107212  104694  103909+
+         105293  107216
CHEXA      85173       1  104694  103909  105293  107216  104696  103908+
+         105295  107220
CHEXA      85174       1  104696  103908  105295  107220  104698  103907+
+         105297  107224
CHEXA      85175       1  104698  103907  105297  107224  104700  103906+
+         105299  107228
CHEXA      85176       1  104700  103906  105299  107228  104702  103905+
+         105301  107232
CHEXA      85177       1  104702  103905  105301  107232  104704  103904+
+         105303  107236
CHEXA      85178       1  104704  103904  105303  107236  104706  103903+
+         105305  107240
CHEXA      85179       1  104706  103903  105305  107240  104708  103902+
+         105307  107244
CHEXA      85180       1  104708  103902  105307  107244  104710  103901+
+         105309  107248
CHEXA      85181       1  104710  103901  105309  107248  104712  103900+
+         105311  107252
CHEXA      85182       1  104712  103900  105311  107252  104714  103899+
+         105313  107256
CHEXA      85183       1  104714  103899  105313  107256  104716  103898+
+         105315  107260
CHEXA      85184       1  104716  103898  105315  107260  104718  103897+
+         105317  107264
CHEXA      85185       1  104718  103897  105317  107264  104720  103896+
+         105319  107268
CHEXA      85186       1  104720  103896  105319  107268  104722  103895+
+         105321  107272
CHEXA      85187       1  104722  103895  105321  107272  104724  103894+
+         105323  107276
CHEXA      85188       1  104724  103894  105323  107276  104726  103893+
+         105325  107280
CHEXA      85189       1  104726  103893  105325  107280  104728  103892+
+         105327  107284
CHEXA      85190       1  104728  103892  105327  107284  104730  103891+
+         105329  107288
CHEXA      85191       1  104730  103891  105329  107288  104732  103890+
+         105331  107292
CHEXA      85192       1  104732  103890  105331  107292  104734  103889+
+         105333  107296
CHEXA      85193       1  104734  103889  105333  107296  104736  103888+
+         105335  107300
CHEXA      85194       1  104736  103888  105335  107300  104738  103887+
+         105337  107304
CHEXA      85195       1  104738  103887  105337  107304  104740  103886+
+         105339  107308
CHEXA      85196       1  104740  103886  105339  107308  104742  103885+
+         105341  107312
CHEXA      85197       1  104742  103885  105341  107312  104744  103884+
+         105343  107316
CHEXA      85198       1  104744  103884  105343  107316  104746  103883+
+         105345  107320
CHEXA      85199       1  104746  103883  105345  107320  104748  103882+
+         105347  107324
CHEXA      85200       1  104748  103882  105347  107324  104750  103881+
+         105349  107328
CHEXA      85201       1  104750  103881  105349  107328  104752  103880+
+         105351  107332
CHEXA      85202       1  104752  103880  105351  107332  104754  103879+
+         105353  107336
CHEXA      85203       1  104754  103879  105353  107336  104756  103878+
+         105355  107340
CHEXA      85204       1  104756  103878  105355  107340  104758  103877+
+         105357  107344
CHEXA      85205       1  104758  103877  105357  107344  104760  103876+
+         105359  107348
CHEXA      85206       1  104760  103876  105359  107348  104762  103875+
+         105361  107352
CHEXA      85207       1  104762  103875  105361  107352  104764  103874+
+         105363  107356
CHEXA      85208       1  104764  103874  105363  107356  104766  103873+
+         105365  107360
CHEXA      85209       1  104766  103873  105365  107360  104768  103872+
+         105367  107364
CHEXA      85210       1  104768  103872  105367  107364  104770  103871+
+         105369  107368
CHEXA      85211       1  104770  103871  105369  107368  104772  103870+
+         105371  107372
CHEXA      85212       1  104772  103870  105371  107372  104774  103869+
+         105373  107376
CHEXA      85213       1  104774  103869  105373  107376  104776  103868+
+         105375  107380
CHEXA      85214       1  104776  103868  105375  107380  104778  103867+
+         105377  107384
CHEXA      85215       1  104778  103867  105377  107384  104780  103866+
+         105379  107388
CHEXA      85216       1  104780  103866  105379  107388  104782  103865+
+         105381  107392
CHEXA      85217       1  104782  103865  105381  107392  104784  103864+
+         105383  107396
CHEXA      85218       1  104784  103864  105383  107396  104786  103863+
+         105385  107400
CHEXA      85219       1  104786  103863  105385  107400  104788  103862+
+         105387  107404
CHEXA      85220       1  104788  103862  105387  107404  104790  103861+
+         105389  107408
CHEXA      85221       1  104790  103861  105389  107408  104792  103860+
+         105391  107412
CHEXA      85222       1  104792  103860  105391  107412  104794  103859+
+         105393  107416
CHEXA      85223       1  104794  103859  105393  107416  104796  103858+
+         105395  107420
CHEXA      85224       1  104796  103858  105395  107420  104798  103857+
+         105397  107424
CHEXA      85225       1  104798  103857  105397  107424  104800  103856+
+         105399  107428
CHEXA      85226       1  104800  103856  105399  107428  104802  103855+
+         105401  107432
CHEXA      85227       1  104802  103855  105401  107432  104804  103854+
+         105403  107436
CHEXA      85228       1  104804  103854  105403  107436  104806  103853+
+         105405  107440
CHEXA      85229       1  104806  103853  105405  107440  104808  103852+
+         105407  107444
CHEXA      85230       1  104808  103852  105407  107444  104810  103851+
+         105409  107448
CHEXA      85231       1  104810  103851  105409  107448  104812  103850+
+         105411  107452
CHEXA      85232       1  104812  103850  105411  107452  104814  103849+
+         105413  107456
CHEXA      85233       1  104814  103849  105413  107456  104816  103848+
+         105415  107460
CHEXA      85234       1  104816  103848  105415  107460  104818  103847+
+         105417  107464
CHEXA      85235       1  104818  103847  105417  107464  104820  103846+
+         105419  107468
CHEXA      85236       1  104820  103846  105419  107468  104822  103845+
+         105421  107472
CHEXA      85237       1  104822  103845  105421  107472  104824  103844+
+         105423  107476
CHEXA      85238       1  104824  103844  105423  107476  104826  103843+
+         105425  107480
CHEXA      85239       1  104826  103843  105425  107480  104828  103842+
+         105427  107484
CHEXA      85240       1  104828  103842  105427  107484  104830  103841+
+         105429  107488
CHEXA      85241       1  104830  103841  105429  107488  104832  103840+
+         105431  107492
CHEXA      85242       1  104832  103840  105431  107492  104834  103839+
+         105433  107496
CHEXA      85243       1  104834  103839  105433  107496  104836  103838+
+         105435  107500
CHEXA      85244       1  104836  103838  105435  107500  104838  103837+
+         105437  107504
CHEXA      85245       1  104838  103837  105437  107504  104840  103836+
+         105439  107508
CHEXA      85246       1  104840  103836  105439  107508  104842  103835+
+         105441  107512
CHEXA      85247       1  104842  103835  105441  107512  104844  103834+
+         105443  107516
CHEXA      85248       1  104844  103834  105443  107516  104846  103833+
+         105445  107520
CHEXA      85249       1  104846  103833  105445  107520  104848  103832+
+         105447  107524
CHEXA      85250       1  104848  103832  105447  107524  104850  103831+
+         105449  107528
CHEXA      85251       1  104850  103831  105449  107528  104852  103830+
+         105451  107532
CHEXA      85252       1  104852  103830  105451  107532  104854  103829+
+         105453  107536
CHEXA      85253       1  104854  103829  105453  107536  104856  103828+
+         105455  107540
CHEXA      85254       1  104856  103828  105455  107540  104858  103827+
+         105457  107544
CHEXA      85255       1  104858  103827  105457  107544  104860  103826+
+         105459  107548
CHEXA      85256       1  104860  103826  105459  107548  104862  103825+
+         105461  107552
CHEXA      85257       1  104862  103825  105461  107552  104864  103824+
+         105463  107556
CHEXA      85258       1  104864  103824  105463  107556  104866  103823+
+         105465  107560
CHEXA      85259       1  104866  103823  105465  107560  104868  103822+
+         105467  107564
CHEXA      85260       1  104868  103822  105467  107564  104870  103821+
+         105469  107568
CHEXA      85261       1  104870  103821  105469  107568  104872  103820+
+         105471  107572
CHEXA      85262       1  104872  103820  105471  107572  104874  103819+
+         105473  107576
CHEXA      85263       1  104874  103819  105473  107576  104876  103818+
+         105475  107580
CHEXA      85264       1  104876  103818  105475  107580  104878  103817+
+         105477  107584
CHEXA      85265       1  104878  103817  105477  107584  104880  103816+
+         105479  107588
CHEXA      85266       1  104880  103816  105479  107588  104882  103815+
+         105481  107592
CHEXA      85267       1  104882  103815  105481  107592  104884  103814+
+         105483  107596
CHEXA      85268       1  104884  103814  105483  107596  104886  103813+
+         105485  107600
CHEXA      85269       1  104886  103813  105485  107600  104888  103812+
+         105487  107604
CHEXA      85270       1  104888  103812  105487  107604  104890  103811+
+         105489  107608
CHEXA      85271       1  104890  103811  105489  107608  104892  103810+
+         105491  107612
CHEXA      85272       1  104892  103810  105491  107612  104894  103809+
+         105493  107616
CHEXA      85273       1  104894  103809  105493  107616  104896  103808+
+         105495  107620
CHEXA      85274       1  104896  103808  105495  107620  104898  103807+
+         105497  107624
CHEXA      85275       1  104898  103807  105497  107624  104900  103806+
+         105499  107628
CHEXA      85276       1  104900  103806  105499  107628  104902  103805+
+         105501  107632
CHEXA      85277       1  104902  103805  105501  107632  104904  103804+
+         105503  107636
CHEXA      85278       1  104904  103804  105503  107636  104906  103803+
+         105505  107640
CHEXA      85279       1  104906  103803  105505  107640  104908  103802+
+         105507  107644
CHEXA      85280       1  104908  103802  105507  107644  104910  103801+
+         105509  107648
CHEXA      85281       1  104910  103801  105509  107648  104912  103800+
+         105511  107652
CHEXA      85282       1  104912  103800  105511  107652  104914  103799+
+         105513  107656
CHEXA      85283       1  104914  103799  105513  107656  104916  103798+
+         105515  107660
CHEXA      85284       1  104916  103798  105515  107660  104918  103797+
+         105517  107664
CHEXA      85285       1  104918  103797  105517  107664  104920  103796+
+         105519  107668
CHEXA      85286       1  104920  103796  105519  107668  104922  103795+
+         105521  107672
CHEXA      85287       1  104922  103795  105521  107672  104924  103794+
+         105523  107676
CHEXA      85288       1  104924  103794  105523  107676  104926  103793+
+         105525  107680
CHEXA      85289       1  104926  103793  105525  107680  104928  103792+
+         105527  107684
CHEXA      85290       1  104928  103792  105527  107684  104930  103791+
+         105529  107688
CHEXA      85291       1  104930  103791  105529  107688  104932  103790+
+         105531  107692
CHEXA      85292       1  104932  103790  105531  107692  104934  103789+
+         105533  107696
CHEXA      85293       1  104934  103789  105533  107696  104936  103788+
+         105535  107700
CHEXA      85294       1  104936  103788  105535  107700  104938  103787+
+         105537  107704
CHEXA      85295       1  104938  103787  105537  107704  104940  103786+
+         105539  107708
CHEXA      85296       1  104940  103786  105539  107708  104942  103785+
+         105541  107712
CHEXA      85297       1  104942  103785  105541  107712  104944  103784+
+         105543  107716
CHEXA      85298       1  104944  103784  105543  107716  104946  103783+
+         105545  107720
CHEXA      85299       1  104946  103783  105545  107720  104948  103782+
+         105547  107724
CHEXA      85300       1  104948  103782  105547  107724  104950  103781+
+         105549  107728
CHEXA      85301       1  104950  103781  105549  107728  104952  103780+
+         105551  107732
CHEXA      85302       1  104952  103780  105551  107732  104954  103779+
+         105553  107736
CHEXA      85303       1  104954  103779  105553  107736  104956  103778+
+         105555  107740
CHEXA      85304       1  104956  103778  105555  107740  104958  103777+
+         105557  107744
CHEXA      85305       1  104958  103777  105557  107744  104960  103776+
+         105559  107748
CHEXA      85306       1  104960  103776  105559  107748  104962  103775+
+         105561  107752
CHEXA      85307       1  104962  103775  105561  107752  104964  103774+
+         105563  107756
CHEXA      85308       1  104964  103774  105563  107756  104966  103773+
+         105565  107760
CHEXA      85309       1  104966  103773  105565  107760  104968  103772+
+         105567  107764
CHEXA      85310       1  104968  103772  105567  107764  104970  103771+
+         105569  107768
CHEXA      85311       1  104970  103771  105569  107768  104972  103770+
+         105571  107772
CHEXA      85312       1  104972  103770  105571  107772  104974  103769+
+         105573  107776
CHEXA      85313       1  104974  103769  105573  107776  104976  103768+
+         105575  107780
CHEXA      85314       1  104976  103768  105575  107780  104978  103767+
+         105577  107784
CHEXA      85315       1  104978  103767  105577  107784  104980  103766+
+         105579  107788
CHEXA      85316       1  104980  103766  105579  107788  104982  103765+
+         105581  107792
CHEXA      85317       1  104982  103765  105581  107792  104984  103764+
+         105583  107796
CHEXA      85318       1  104984  103764  105583  107796  104986  103763+
+         105585  107800
CHEXA      85319       1  104986  103763  105585  107800  104988  103762+
+         105587  107804
CHEXA      85320       1  104988  103762  105587  107804  104990  103761+
+         105589  107808
CHEXA      85321       1  104990  103761  105589  107808  104992  103760+
+         105591  107812
CHEXA      85322       1  104992  103760  105591  107812  104994  103759+
+         105593  107816
CHEXA      85323       1  104994  103759  105593  107816  104996  103758+
+         105595  107820
CHEXA      85324       1  104996  103758  105595  107820  104998  103757+
+         105597  107824
CHEXA      85325       1  104998  103757  105597  107824  105000  103756+
+         105599  107828
CHEXA      85326       1  105000  103756  105599  107828  105002  103755+
+         105601  107832
CHEXA      85327       1  105002  103755  105601  107832  105004  103754+
+         105603  107836
CHEXA      85328       1  105004  103754  105603  107836  105006  103753+
+         105605  107840
CHEXA      85329       1  105006  103753  105605  107840  105008  103752+
+         105607  107844
CHEXA      85330       1  105008  103752  105607  107844  105010  103751+
+         105609  107848
CHEXA      85331       1  105010  103751  105609  107848  105012  103750+
+         105611  107852
CHEXA      85332       1  105012  103750  105611  107852  105014  103749+
+         105613  107856
CHEXA      85333       1  105014  103749  105613  107856  105016  103748+
+         105615  107860
CHEXA      85334       1  105016  103748  105615  107860  105018  103747+
+         105617  107864
CHEXA      85335       1  105018  103747  105617  107864  105020  103746+
+         105619  107868
CHEXA      85336       1  105020  103746  105619  107868  105022  103745+
+         105621  107872
CHEXA      85337       1  105022  103745  105621  107872  105024  103744+
+         105623  107876
CHEXA      85338       1  105024  103744  105623  107876  105026  103743+
+         105625  107880
CHEXA      85339       1  105026  103743  105625  107880  105028  103742+
+         105627  107884
CHEXA      85340       1  105028  103742  105627  107884  105030  103741+
+         105629  107888
CHEXA      85341       1  105030  103741  105629  107888  105032  103740+
+         105631  107892
CHEXA      85342       1  105032  103740  105631  107892  105034  103739+
+         105633  107896
CHEXA      85343       1  105034  103739  105633  107896  105036  103738+
+         105635  107900
CHEXA      85344       1  105036  103738  105635  107900  105038  103737+
+         105637  107904
CHEXA      85345       1  105038  103737  105637  107904  105040  103736+
+         105639  107908
CHEXA      85346       1  105040  103736  105639  107908  105042  103735+
+         105641  107912
CHEXA      85347       1  105042  103735  105641  107912  105044  103734+
+         105643  107916
CHEXA      85348       1  105044  103734  105643  107916  105046  103733+
+         105645  107920
CHEXA      85349       1  105046  103733  105645  107920  105048  103732+
+         105647  107924
CHEXA      85350       1  105048  103732  105647  107924  105050  103731+
+         105649  107928
CHEXA      85351       1  105050  103731  105649  107928  105052  103730+
+         105651  107932
CHEXA      85352       1  105052  103730  105651  107932  105054  103729+
+         105653  107936
CHEXA      85353       1  105054  103729  105653  107936  105056  103728+
+         105655  107940
CHEXA      85354       1  105056  103728  105655  107940  105058  103727+
+         105657  107944
CHEXA      85355       1  105058  103727  105657  107944  105060  103726+
+         105659  107948
CHEXA      85356       1  105060  103726  105659  107948  105062  103725+
+         105661  107952
CHEXA      85357       1  105062  103725  105661  107952  105064  103724+
+         105663  107956
CHEXA      85358       1  105064  103724  105663  107956  105066  103723+
+         105665  107960
CHEXA      85359       1  105066  103723  105665  107960  105068  103722+
+         105667  107964
CHEXA      85360       1  105068  103722  105667  107964  105070  103721+
+         105669  107968
CHEXA      85361       1  105070  103721  105669  107968  105072  103720+
+         105671  107972
CHEXA      85362       1  105072  103720  105671  107972  105074  103719+
+         105673  107976
CHEXA      85363       1  105074  103719  105673  107976  105076  103718+
+         105675  107980
CHEXA      85364       1  105076  103718  105675  107980  105078  103717+
+         105677  107984
CHEXA      85365       1  105078  103717  105677  107984  105080  103716+
+         105679  107988
CHEXA      85366       1  105080  103716  105679  107988  105082  103715+
+         105681  107992
CHEXA      85367       1  105082  103715  105681  107992  105084  103714+
+         105683  107996
CHEXA      85368       1  105084  103714  105683  107996  105086  103713+
+         105685  108000
CHEXA      85369       1  105086  103713  105685  108000  105088  103712+
+         105687  108004
CHEXA      85370       1  105088  103712  105687  108004  105090  103711+
+         105689  108008
CHEXA      85371       1  105090  103711  105689  108008  105092  103710+
+         105691  108012
CHEXA      85372       1  105092  103710  105691  108012  105094  103709+
+         105693  108016
CHEXA      85373       1  105094  103709  105693  108016  105096  103708+
+         105695  108020
CHEXA      85374       1  105096  103708  105695  108020  105098  103707+
+         105697  108024
CHEXA      85375       1  105098  103707  105697  108024  105100  103706+
+         105699  108028
CHEXA      85376       1  105100  103706  105699  108028  105102  103705+
+         105701  108032
CHEXA      85377       1  105102  103705  105701  108032  105104  103704+
+         105703  108036
CHEXA      85378       1  105104  103704  105703  108036  105106  103703+
+         105705  108040
CHEXA      85379       1  105106  103703  105705  108040  105108  103702+
+         105707  108044
CHEXA      85380       1  105108  103702  105707  108044  105110  103701+
+         105709  108048
CHEXA      85381       1  105110  103701  105709  108048  105112  103700+
+         105711  108052
CHEXA      85382       1  105112  103700  105711  108052  105114  103699+
+         105713  108056
CHEXA      85383       1  105114  103699  105713  108056  105116  103698+
+         105715  108060
CHEXA      85384       1  105116  103698  105715  108060  105118  103697+
+         105717  108064
CHEXA      85385       1  105118  103697  105717  108064  105120  103696+
+         105719  108068
CHEXA      85386       1  105120  103696  105719  108068  105122  103695+
+         105721  108072
CHEXA      85387       1  105122  103695  105721  108072  105124  103694+
+         105723  108076
CHEXA      85388       1  105124  103694  105723  108076  105126  103693+
+         105725  108080
CHEXA      85389       1  105126  103693  105725  108080  105128  103692+
+         105727  108084
CHEXA      85390       1  105128  103692  105727  108084  105130  103691+
+         105729  108088
CHEXA      85391       1  105130  103691  105729  108088  105132  103690+
+         105731  108092
CHEXA      85392       1  105132  103690  105731  108092  105134  103689+
+         105733  108096
CHEXA      85393       1  105134  103689  105733  108096  105136  103688+
+         105735  108100
CHEXA      85394       1  105136  103688  105735  108100  105138  103687+
+         105737  108104
CHEXA      85395       1  105138  103687  105737  108104  105140  103686+
+         105739  108108
CHEXA      85396       1  105140  103686  105739  108108  105142  103685+
+         105741  108112
CHEXA      85397       1  105142  103685  105741  108112  105144  103684+
+         105743  108116
CHEXA      85398       1  105144  103684  105743  108116  105146  103683+
+         105745  108120
CHEXA      85399       1  105146  103683  105745  108120  105148  103682+
+         105747  108124
CHEXA      85400       1  105148  103682  105747  108124  105150  103681+
+         105749  108128
CHEXA      85401       1  105150  103681  105749  108128  105152  103680+
+         105751  108132
CHEXA      85402       1  105152  103680  105751  108132  105154  103679+
+         105753  108136
CHEXA      85403       1  105154  103679  105753  108136  105156  103678+
+         105755  108140
CHEXA      85404       1  105156  103678  105755  108140  105158  103677+
+         105757  108144
CHEXA      85405       1  105158  103677  105757  108144  105160  103676+
+         105759  108148
CHEXA      85406       1  105160  103676  105759  108148  105162  103675+
+         105761  108152
CHEXA      85407       1  105162  103675  105761  108152  105164  103674+
+         105763  108156
CHEXA      85408       1  105164  103674  105763  108156  105166  103673+
+         105765  108160
CHEXA      85409       1  105166  103673  105765  108160  103367  103363+
+         103369  106964
CHEXA      85410       1  100962  100963  102564  102565  104571  104570+
+         106968  106969
CHEXA      85411       1  104571  104570  106968  106969  104573  104572+
+         106972  106973
CHEXA      85412       1  104573  104572  106972  106973  104575  104574+
+         106976  106977
CHEXA      85413       1  104575  104574  106976  106977  104577  104576+
+         106980  106981
CHEXA      85414       1  104577  104576  106980  106981  104579  104578+
+         106984  106985
CHEXA      85415       1  104579  104578  106984  106985  104581  104580+
+         106988  106989
CHEXA      85416       1  104581  104580  106988  106989  104583  104582+
+         106992  106993
CHEXA      85417       1  104583  104582  106992  106993  104585  104584+
+         106996  106997
CHEXA      85418       1  104585  104584  106996  106997  104587  104586+
+         107000  107001
CHEXA      85419       1  104587  104586  107000  107001  104589  104588+
+         107004  107005
CHEXA      85420       1  104589  104588  107004  107005  104591  104590+
+         107008  107009
CHEXA      85421       1  104591  104590  107008  107009  104593  104592+
+         107012  107013
CHEXA      85422       1  104593  104592  107012  107013  104595  104594+
+         107016  107017
CHEXA      85423       1  104595  104594  107016  107017  104597  104596+
+         107020  107021
CHEXA      85424       1  104597  104596  107020  107021  104599  104598+
+         107024  107025
CHEXA      85425       1  104599  104598  107024  107025  104601  104600+
+         107028  107029
CHEXA      85426       1  104601  104600  107028  107029  104603  104602+
+         107032  107033
CHEXA      85427       1  104603  104602  107032  107033  104605  104604+
+         107036  107037
CHEXA      85428       1  104605  104604  107036  107037  104607  104606+
+         107040  107041
CHEXA      85429       1  104607  104606  107040  107041  104609  104608+
+         107044  107045
CHEXA      85430       1  104609  104608  107044  107045  104611  104610+
+         107048  107049
CHEXA      85431       1  104611  104610  107048  107049  104613  104612+
+         107052  107053
CHEXA      85432       1  104613  104612  107052  107053  104615  104614+
+         107056  107057
CHEXA      85433       1  104615  104614  107056  107057  104617  104616+
+         107060  107061
CHEXA      85434       1  104617  104616  107060  107061  104619  104618+
+         107064  107065
CHEXA      85435       1  104619  104618  107064  107065  104621  104620+
+         107068  107069
CHEXA      85436       1  104621  104620  107068  107069  104623  104622+
+         107072  107073
CHEXA      85437       1  104623  104622  107072  107073  104625  104624+
+         107076  107077
CHEXA      85438       1  104625  104624  107076  107077  104627  104626+
+         107080  107081
CHEXA      85439       1  104627  104626  107080  107081  104629  104628+
+         107084  107085
CHEXA      85440       1  104629  104628  107084  107085  104631  104630+
+         107088  107089
CHEXA      85441       1  104631  104630  107088  107089  104633  104632+
+         107092  107093
CHEXA      85442       1  104633  104632  107092  107093  104635  104634+
+         107096  107097
CHEXA      85443       1  104635  104634  107096  107097  104637  104636+
+         107100  107101
CHEXA      85444       1  104637  104636  107100  107101  104639  104638+
+         107104  107105
CHEXA      85445       1  104639  104638  107104  107105  104641  104640+
+         107108  107109
CHEXA      85446       1  104641  104640  107108  107109  104643  104642+
+         107112  107113
CHEXA      85447       1  104643  104642  107112  107113  104645  104644+
+         107116  107117
CHEXA      85448       1  104645  104644  107116  107117  104647  104646+
+         107120  107121
CHEXA      85449       1  104647  104646  107120  107121  104649  104648+
+         107124  107125
CHEXA      85450       1  104649  104648  107124  107125  104651  104650+
+         107128  107129
CHEXA      85451       1  104651  104650  107128  107129  104653  104652+
+         107132  107133
CHEXA      85452       1  104653  104652  107132  107133  104655  104654+
+         107136  107137
CHEXA      85453       1  104655  104654  107136  107137  104657  104656+
+         107140  107141
CHEXA      85454       1  104657  104656  107140  107141  104659  104658+
+         107144  107145
CHEXA      85455       1  104659  104658  107144  107145  104661  104660+
+         107148  107149
CHEXA      85456       1  104661  104660  107148  107149  104663  104662+
+         107152  107153
CHEXA      85457       1  104663  104662  107152  107153  104665  104664+
+         107156  107157
CHEXA      85458       1  104665  104664  107156  107157  104667  104666+
+         107160  107161
CHEXA      85459       1  104667  104666  107160  107161  104669  104668+
+         107164  107165
CHEXA      85460       1  104669  104668  107164  107165  104671  104670+
+         107168  107169
CHEXA      85461       1  104671  104670  107168  107169  104673  104672+
+         107172  107173
CHEXA      85462       1  104673  104672  107172  107173  104675  104674+
+         107176  107177
CHEXA      85463       1  104675  104674  107176  107177  104677  104676+
+         107180  107181
CHEXA      85464       1  104677  104676  107180  107181  104679  104678+
+         107184  107185
CHEXA      85465       1  104679  104678  107184  107185  104681  104680+
+         107188  107189
CHEXA      85466       1  104681  104680  107188  107189  104683  104682+
+         107192  107193
CHEXA      85467       1  104683  104682  107192  107193  104685  104684+
+         107196  107197
CHEXA      85468       1  104685  104684  107196  107197  104687  104686+
+         107200  107201
CHEXA      85469       1  104687  104686  107200  107201  104689  104688+
+         107204  107205
CHEXA      85470       1  104689  104688  107204  107205  104691  104690+
+         107208  107209
CHEXA      85471       1  104691  104690  107208  107209  104693  104692+
+         107212  107213
CHEXA      85472       1  104693  104692  107212  107213  104695  104694+
+         107216  107217
CHEXA      85473       1  104695  104694  107216  107217  104697  104696+
+         107220  107221
CHEXA      85474       1  104697  104696  107220  107221  104699  104698+
+         107224  107225
CHEXA      85475       1  104699  104698  107224  107225  104701  104700+
+         107228  107229
CHEXA      85476       1  104701  104700  107228  107229  104703  104702+
+         107232  107233
CHEXA      85477       1  104703  104702  107232  107233  104705  104704+
+         107236  107237
CHEXA      85478       1  104705  104704  107236  107237  104707  104706+
+         107240  107241
CHEXA      85479       1  104707  104706  107240  107241  104709  104708+
+         107244  107245
CHEXA      85480       1  104709  104708  107244  107245  104711  104710+
+         107248  107249
CHEXA      85481       1  104711  104710  107248  107249  104713  104712+
+         107252  107253
CHEXA      85482       1  104713  104712  107252  107253  104715  104714+
+         107256  107257
CHEXA      85483       1  104715  104714  107256  107257  104717  104716+
+         107260  107261
CHEXA      85484       1  104717  104716  107260  107261  104719  104718+
+         107264  107265
CHEXA      85485       1  104719  104718  107264  107265  104721  104720+
+         107268  107269
CHEXA      85486       1  104721  104720  107268  107269  104723  104722+
+         107272  107273
CHEXA      85487       1  104723  104722  107272  107273  104725  104724+
+         107276  107277
CHEXA      85488       1  104725  104724  107276  107277  104727  104726+
+         107280  107281
CHEXA      85489       1  104727  104726  107280  107281  104729  104728+
+         107284  107285
CHEXA      85490       1  104729  104728  107284  107285  104731  104730+
+         107288  107289
CHEXA      85491       1  104731  104730  107288  107289  104733  104732+
+         107292  107293
CHEXA      85492       1  104733  104732  107292  107293  104735  104734+
+         107296  107297
CHEXA      85493       1  104735  104734  107296  107297  104737  104736+
+         107300  107301
CHEXA      85494       1  104737  104736  107300  107301  104739  104738+
+         107304  107305
CHEXA      85495       1  104739  104738  107304  107305  104741  104740+
+         107308  107309
CHEXA      85496       1  104741  104740  107308  107309  104743  104742+
+         107312  107313
CHEXA      85497       1  104743  104742  107312  107313  104745  104744+
+         107316  107317
CHEXA      85498       1  104745  104744  107316  107317  104747  104746+
+         107320  107321
CHEXA      85499       1  104747  104746  107320  107321  104749  104748+
+         107324  107325
CHEXA      85500       1  104749  104748  107324  107325  104751  104750+
+         107328  107329
CHEXA      85501       1  104751  104750  107328  107329  104753  104752+
+         107332  107333
CHEXA      85502       1  104753  104752  107332  107333  104755  104754+
+         107336  107337
CHEXA      85503       1  104755  104754  107336  107337  104757  104756+
+         107340  107341
CHEXA      85504       1  104757  104756  107340  107341  104759  104758+
+         107344  107345
CHEXA      85505       1  104759  104758  107344  107345  104761  104760+
+         107348  107349
CHEXA      85506       1  104761  104760  107348  107349  104763  104762+
+         107352  107353
CHEXA      85507       1  104763  104762  107352  107353  104765  104764+
+         107356  107357
CHEXA      85508       1  104765  104764  107356  107357  104767  104766+
+         107360  107361
CHEXA      85509       1  104767  104766  107360  107361  104769  104768+
+         107364  107365
CHEXA      85510       1  104769  104768  107364  107365  104771  104770+
+         107368  107369
CHEXA      85511       1  104771  104770  107368  107369  104773  104772+
+         107372  107373
CHEXA      85512       1  104773  104772  107372  107373  104775  104774+
+         107376  107377
CHEXA      85513       1  104775  104774  107376  107377  104777  104776+
+         107380  107381
CHEXA      85514       1  104777  104776  107380  107381  104779  104778+
+         107384  107385
CHEXA      85515       1  104779  104778  107384  107385  104781  104780+
+         107388  107389
CHEXA      85516       1  104781  104780  107388  107389  104783  104782+
+         107392  107393
CHEXA      85517       1  104783  104782  107392  107393  104785  104784+
+         107396  107397
CHEXA      85518       1  104785  104784  107396  107397  104787  104786+
+         107400  107401
CHEXA      85519       1  104787  104786  107400  107401  104789  104788+
+         107404  107405
CHEXA      85520       1  104789  104788  107404  107405  104791  104790+
+         107408  107409
CHEXA      85521       1  104791  104790  107408  107409  104793  104792+
+         107412  107413
CHEXA      85522       1  104793  104792  107412  107413  104795  104794+
+         107416  107417
CHEXA      85523       1  104795  104794  107416  107417  104797  104796+
+         107420  107421
CHEXA      85524       1  104797  104796  107420  107421  104799  104798+
+         107424  107425
CHEXA      85525       1  104799  104798  107424  107425  104801  104800+
+         107428  107429
CHEXA      85526       1  104801  104800  107428  107429  104803  104802+
+         107432  107433
CHEXA      85527       1  104803  104802  107432  107433  104805  104804+
+         107436  107437
CHEXA      85528       1  104805  104804  107436  107437  104807  104806+
+         107440  107441
CHEXA      85529       1  104807  104806  107440  107441  104809  104808+
+         107444  107445
CHEXA      85530       1  104809  104808  107444  107445  104811  104810+
+         107448  107449
CHEXA      85531       1  104811  104810  107448  107449  104813  104812+
+         107452  107453
CHEXA      85532       1  104813  104812  107452  107453  104815  104814+
+         107456  107457
CHEXA      85533       1  104815  104814  107456  107457  104817  104816+
+         107460  107461
CHEXA      85534       1  104817  104816  107460  107461  104819  104818+
+         107464  107465
CHEXA      85535       1  104819  104818  107464  107465  104821  104820+
+         107468  107469
CHEXA      85536       1  104821  104820  107468  107469  104823  104822+
+         107472  107473
CHEXA      85537       1  104823  104822  107472  107473  104825  104824+
+         107476  107477
CHEXA      85538       1  104825  104824  107476  107477  104827  104826+
+         107480  107481
CHEXA      85539       1  104827  104826  107480  107481  104829  104828+
+         107484  107485
CHEXA      85540       1  104829  104828  107484  107485  104831  104830+
+         107488  107489
CHEXA      85541       1  104831  104830  107488  107489  104833  104832+
+         107492  107493
CHEXA      85542       1  104833  104832  107492  107493  104835  104834+
+         107496  107497
CHEXA      85543       1  104835  104834  107496  107497  104837  104836+
+         107500  107501
CHEXA      85544       1  104837  104836  107500  107501  104839  104838+
+         107504  107505
CHEXA      85545       1  104839  104838  107504  107505  104841  104840+
+         107508  107509
CHEXA      85546       1  104841  104840  107508  107509  104843  104842+
+         107512  107513
CHEXA      85547       1  104843  104842  107512  107513  104845  104844+
+         107516  107517
CHEXA      85548       1  104845  104844  107516  107517  104847  104846+
+         107520  107521
CHEXA      85549       1  104847  104846  107520  107521  104849  104848+
+         107524  107525
CHEXA      85550       1  104849  104848  107524  107525  104851  104850+
+         107528  107529
CHEXA      85551       1  104851  104850  107528  107529  104853  104852+
+         107532  107533
CHEXA      85552       1  104853  104852  107532  107533  104855  104854+
+         107536  107537
CHEXA      85553       1  104855  104854  107536  107537  104857  104856+
+         107540  107541
CHEXA      85554       1  104857  104856  107540  107541  104859  104858+
+         107544  107545
CHEXA      85555       1  104859  104858  107544  107545  104861  104860+
+         107548  107549
CHEXA      85556       1  104861  104860  107548  107549  104863  104862+
+         107552  107553
CHEXA      85557       1  104863  104862  107552  107553  104865  104864+
+         107556  107557
CHEXA      85558       1  104865  104864  107556  107557  104867  104866+
+         107560  107561
CHEXA      85559       1  104867  104866  107560  107561  104869  104868+
+         107564  107565
CHEXA      85560       1  104869  104868  107564  107565  104871  104870+
+         107568  107569
CHEXA      85561       1  104871  104870  107568  107569  104873  104872+
+         107572  107573
CHEXA      85562       1  104873  104872  107572  107573  104875  104874+
+         107576  107577
CHEXA      85563       1  104875  104874  107576  107577  104877  104876+
+         107580  107581
CHEXA      85564       1  104877  104876  107580  107581  104879  104878+
+         107584  107585
CHEXA      85565       1  104879  104878  107584  107585  104881  104880+
+         107588  107589
CHEXA      85566       1  104881  104880  107588  107589  104883  104882+
+         107592  107593
CHEXA      85567       1  104883  104882  107592  107593  104885  104884+
+         107596  107597
CHEXA      85568       1  104885  104884  107596  107597  104887  104886+
+         107600  107601
CHEXA      85569       1  104887  104886  107600  107601  104889  104888+
+         107604  107605
CHEXA      85570       1  104889  104888  107604  107605  104891  104890+
+         107608  107609
CHEXA      85571       1  104891  104890  107608  107609  104893  104892+
+         107612  107613
CHEXA      85572       1  104893  104892  107612  107613  104895  104894+
+         107616  107617
CHEXA      85573       1  104895  104894  107616  107617  104897  104896+
+         107620  107621
CHEXA      85574       1  104897  104896  107620  107621  104899  104898+
+         107624  107625
CHEXA      85575       1  104899  104898  107624  107625  104901  104900+
+         107628  107629
CHEXA      85576       1  104901  104900  107628  107629  104903  104902+
+         107632  107633
CHEXA      85577       1  104903  104902  107632  107633  104905  104904+
+         107636  107637
CHEXA      85578       1  104905  104904  107636  107637  104907  104906+
+         107640  107641
CHEXA      85579       1  104907  104906  107640  107641  104909  104908+
+         107644  107645
CHEXA      85580       1  104909  104908  107644  107645  104911  104910+
+         107648  107649
CHEXA      85581       1  104911  104910  107648  107649  104913  104912+
+         107652  107653
CHEXA      85582       1  104913  104912  107652  107653  104915  104914+
+         107656  107657
CHEXA      85583       1  104915  104914  107656  107657  104917  104916+
+         107660  107661
CHEXA      85584       1  104917  104916  107660  107661  104919  104918+
+         107664  107665
CHEXA      85585       1  104919  104918  107664  107665  104921  104920+
+         107668  107669
CHEXA      85586       1  104921  104920  107668  107669  104923  104922+
+         107672  107673
CHEXA      85587       1  104923  104922  107672  107673  104925  104924+
+         107676  107677
CHEXA      85588       1  104925  104924  107676  107677  104927  104926+
+         107680  107681
CHEXA      85589       1  104927  104926  107680  107681  104929  104928+
+         107684  107685
CHEXA      85590       1  104929  104928  107684  107685  104931  104930+
+         107688  107689
CHEXA      85591       1  104931  104930  107688  107689  104933  104932+
+         107692  107693
CHEXA      85592       1  104933  104932  107692  107693  104935  104934+
+         107696  107697
CHEXA      85593       1  104935  104934  107696  107697  104937  104936+
+         107700  107701
CHEXA      85594       1  104937  104936  107700  107701  104939  104938+
+         107704  107705
CHEXA      85595       1  104939  104938  107704  107705  104941  104940+
+         107708  107709
CHEXA      85596       1  104941  104940  107708  107709  104943  104942+
+         107712  107713
CHEXA      85597       1  104943  104942  107712  107713  104945  104944+
+         107716  107717
CHEXA      85598       1  104945  104944  107716  107717  104947  104946+
+         107720  107721
CHEXA      85599       1  104947  104946  107720  107721  104949  104948+
+         107724  107725
CHEXA      85600       1  104949  104948  107724  107725  104951  104950+
+         107728  107729
CHEXA      85601       1  104951  104950  107728  107729  104953  104952+
+         107732  107733
CHEXA      85602       1  104953  104952  107732  107733  104955  104954+
+         107736  107737
CHEXA      85603       1  104955  104954  107736  107737  104957  104956+
+         107740  107741
CHEXA      85604       1  104957  104956  107740  107741  104959  104958+
+         107744  107745
CHEXA      85605       1  104959  104958  107744  107745  104961  104960+
+         107748  107749
CHEXA      85606       1  104961  104960  107748  107749  104963  104962+
+         107752  107753
CHEXA      85607       1  104963  104962  107752  107753  104965  104964+
+         107756  107757
CHEXA      85608       1  104965  104964  107756  107757  104967  104966+
+         107760  107761
CHEXA      85609       1  104967  104966  107760  107761  104969  104968+
+         107764  107765
CHEXA      85610       1  104969  104968  107764  107765  104971  104970+
+         107768  107769
CHEXA      85611       1  104971  104970  107768  107769  104973  104972+
+         107772  107773
CHEXA      85612       1  104973  104972  107772  107773  104975  104974+
+         107776  107777
CHEXA      85613       1  104975  104974  107776  107777  104977  104976+
+         107780  107781
CHEXA      85614       1  104977  104976  107780  107781  104979  104978+
+         107784  107785
CHEXA      85615       1  104979  104978  107784  107785  104981  104980+
+         107788  107789
CHEXA      85616       1  104981  104980  107788  107789  104983  104982+
+         107792  107793
CHEXA      85617       1  104983  104982  107792  107793  104985  104984+
+         107796  107797
CHEXA      85618       1  104985  104984  107796  107797  104987  104986+
+         107800  107801
CHEXA      85619       1  104987  104986  107800  107801  104989  104988+
+         107804  107805
CHEXA      85620       1  104989  104988  107804  107805  104991  104990+
+         107808  107809
CHEXA      85621       1  104991  104990  107808  107809  104993  104992+
+         107812  107813
CHEXA      85622       1  104993  104992  107812  107813  104995  104994+
+         107816  107817
CHEXA      85623       1  104995  104994  107816  107817  104997  104996+
+         107820  107821
CHEXA      85624       1  104997  104996  107820  107821  104999  104998+
+         107824  107825
CHEXA      85625       1  104999  104998  107824  107825  105001  105000+
+         107828  107829
CHEXA      85626       1  105001  105000  107828  107829  105003  105002+
+         107832  107833
CHEXA      85627       1  105003  105002  107832  107833  105005  105004+
+         107836  107837
CHEXA      85628       1  105005  105004  107836  107837  105007  105006+
+         107840  107841
CHEXA      85629       1  105007  105006  107840  107841  105009  105008+
+         107844  107845
CHEXA      85630       1  105009  105008  107844  107845  105011  105010+
+         107848  107849
CHEXA      85631       1  105011  105010  107848  107849  105013  105012+
+         107852  107853
CHEXA      85632       1  105013  105012  107852  107853  105015  105014+
+         107856  107857
CHEXA      85633       1  105015  105014  107856  107857  105017  105016+
+         107860  107861
CHEXA      85634       1  105017  105016  107860  107861  105019  105018+
+         107864  107865
CHEXA      85635       1  105019  105018  107864  107865  105021  105020+
+         107868  107869
CHEXA      85636       1  105021  105020  107868  107869  105023  105022+
+         107872  107873
CHEXA      85637       1  105023  105022  107872  107873  105025  105024+
+         107876  107877
CHEXA      85638       1  105025  105024  107876  107877  105027  105026+
+         107880  107881
CHEXA      85639       1  105027  105026  107880  107881  105029  105028+
+         107884  107885
CHEXA      85640       1  105029  105028  107884  107885  105031  105030+
+         107888  107889
CHEXA      85641       1  105031  105030  107888  107889  105033  105032+
+         107892  107893
CHEXA      85642       1  105033  105032  107892  107893  105035  105034+
+         107896  107897
CHEXA      85643       1  105035  105034  107896  107897  105037  105036+
+         107900  107901
CHEXA      85644       1  105037  105036  107900  107901  105039  105038+
+         107904  107905
CHEXA      85645       1  105039  105038  107904  107905  105041  105040+
+         107908  107909
CHEXA      85646       1  105041  105040  107908  107909  105043  105042+
+         107912  107913
CHEXA      85647       1  105043  105042  107912  107913  105045  105044+
+         107916  107917
CHEXA      85648       1  105045  105044  107916  107917  105047  105046+
+         107920  107921
CHEXA      85649       1  105047  105046  107920  107921  105049  105048+
+         107924  107925
CHEXA      85650       1  105049  105048  107924  107925  105051  105050+
+         107928  107929
CHEXA      85651       1  105051  105050  107928  107929  105053  105052+
+         107932  107933
CHEXA      85652       1  105053  105052  107932  107933  105055  105054+
+         107936  107937
CHEXA      85653       1  105055  105054  107936  107937  105057  105056+
+         107940  107941
CHEXA      85654       1  105057  105056  107940  107941  105059  105058+
+         107944  107945
CHEXA      85655       1  105059  105058  107944  107945  105061  105060+
+         107948  107949
CHEXA      85656       1  105061  105060  107948  107949  105063  105062+
+         107952  107953
CHEXA      85657       1  105063  105062  107952  107953  105065  105064+
+         107956  107957
CHEXA      85658       1  105065  105064  107956  107957  105067  105066+
+         107960  107961
CHEXA      85659       1  105067  105066  107960  107961  105069  105068+
+         107964  107965
CHEXA      85660       1  105069  105068  107964  107965  105071  105070+
+         107968  107969
CHEXA      85661       1  105071  105070  107968  107969  105073  105072+
+         107972  107973
CHEXA      85662       1  105073  105072  107972  107973  105075  105074+
+         107976  107977
CHEXA      85663       1  105075  105074  107976  107977  105077  105076+
+         107980  107981
CHEXA      85664       1  105077  105076  107980  107981  105079  105078+
+         107984  107985
CHEXA      85665       1  105079  105078  107984  107985  105081  105080+
+         107988  107989
CHEXA      85666       1  105081  105080  107988  107989  105083  105082+
+         107992  107993
CHEXA      85667       1  105083  105082  107992  107993  105085  105084+
+         107996  107997
CHEXA      85668       1  105085  105084  107996  107997  105087  105086+
+         108000  108001
CHEXA      85669       1  105087  105086  108000  108001  105089  105088+
+         108004  108005
CHEXA      85670       1  105089  105088  108004  108005  105091  105090+
+         108008  108009
CHEXA      85671       1  105091  105090  108008  108009  105093  105092+
+         108012  108013
CHEXA      85672       1  105093  105092  108012  108013  105095  105094+
+         108016  108017
CHEXA      85673       1  105095  105094  108016  108017  105097  105096+
+         108020  108021
CHEXA      85674       1  105097  105096  108020  108021  105099  105098+
+         108024  108025
CHEXA      85675       1  105099  105098  108024  108025  105101  105100+
+         108028  108029
CHEXA      85676       1  105101  105100  108028  108029  105103  105102+
+         108032  108033
CHEXA      85677       1  105103  105102  108032  108033  105105  105104+
+         108036  108037
CHEXA      85678       1  105105  105104  108036  108037  105107  105106+
+         108040  108041
CHEXA      85679       1  105107  105106  108040  108041  105109  105108+
+         108044  108045
CHEXA      85680       1  105109  105108  108044  108045  105111  105110+
+         108048  108049
CHEXA      85681       1  105111  105110  108048  108049  105113  105112+
+         108052  108053
CHEXA      85682       1  105113  105112  108052  108053  105115  105114+
+         108056  108057
CHEXA      85683       1  105115  105114  108056  108057  105117  105116+
+         108060  108061
CHEXA      85684       1  105117  105116  108060  108061  105119  105118+
+         108064  108065
CHEXA      85685       1  105119  105118  108064  108065  105121  105120+
+         108068  108069
CHEXA      85686       1  105121  105120  108068  108069  105123  105122+
+         108072  108073
CHEXA      85687       1  105123  105122  108072  108073  105125  105124+
+         108076  108077
CHEXA      85688       1  105125  105124  108076  108077  105127  105126+
+         108080  108081
CHEXA      85689       1  105127  105126  108080  108081  105129  105128+
+         108084  108085
CHEXA      85690       1  105129  105128  108084  108085  105131  105130+
+         108088  108089
CHEXA      85691       1  105131  105130  108088  108089  105133  105132+
+         108092  108093
CHEXA      85692       1  105133  105132  108092  108093  105135  105134+
+         108096  108097
CHEXA      85693       1  105135  105134  108096  108097  105137  105136+
+         108100  108101
CHEXA      85694       1  105137  105136  108100  108101  105139  105138+
+         108104  108105
CHEXA      85695       1  105139  105138  108104  108105  105141  105140+
+         108108  108109
CHEXA      85696       1  105141  105140  108108  108109  105143  105142+
+         108112  108113
CHEXA      85697       1  105143  105142  108112  108113  105145  105144+
+         108116  108117
CHEXA      85698       1  105145  105144  108116  108117  105147  105146+
+         108120  108121
CHEXA      85699       1  105147  105146  108120  108121  105149  105148+
+         108124  108125
CHEXA      85700       1  105149  105148  108124  108125  105151  105150+
+         108128  108129
CHEXA      85701       1  105151  105150  108128  108129  105153  105152+
+         108132  108133
CHEXA      85702       1  105153  105152  108132  108133  105155  105154+
+         108136  108137
CHEXA      85703       1  105155  105154  108136  108137  105157  105156+
+         108140  108141
CHEXA      85704       1  105157  105156  108140  108141  105159  105158+
+         108144  108145
CHEXA      85705       1  105159  105158  108144  108145  105161  105160+
+         108148  108149
CHEXA      85706       1  105161  105160  108148  108149  105163  105162+
+         108152  108153
CHEXA      85707       1  105163  105162  108152  108153  105165  105164+
+         108156  108157
CHEXA      85708       1  105165  105164  108156  108157  105167  105166+
+         108160  108161
CHEXA      85709       1  105167  105166  108160  108161  103366  103367+
+         106964  106965
CHEXA      85710       1  100163  100962  102565  100967  103672  104571+
+         106969  106363
CHEXA      85711       1  103672  104571  106969  106363  103671  104573+
+         106973  106361
CHEXA      85712       1  103671  104573  106973  106361  103670  104575+
+         106977  106359
CHEXA      85713       1  103670  104575  106977  106359  103669  104577+
+         106981  106357
CHEXA      85714       1  103669  104577  106981  106357  103668  104579+
+         106985  106355
CHEXA      85715       1  103668  104579  106985  106355  103667  104581+
+         106989  106353
CHEXA      85716       1  103667  104581  106989  106353  103666  104583+
+         106993  106351
CHEXA      85717       1  103666  104583  106993  106351  103665  104585+
+         106997  106349
CHEXA      85718       1  103665  104585  106997  106349  103664  104587+
+         107001  106347
CHEXA      85719       1  103664  104587  107001  106347  103663  104589+
+         107005  106345
CHEXA      85720       1  103663  104589  107005  106345  103662  104591+
+         107009  106343
CHEXA      85721       1  103662  104591  107009  106343  103661  104593+
+         107013  106341
CHEXA      85722       1  103661  104593  107013  106341  103660  104595+
+         107017  106339
CHEXA      85723       1  103660  104595  107017  106339  103659  104597+
+         107021  106337
CHEXA      85724       1  103659  104597  107021  106337  103658  104599+
+         107025  106335
CHEXA      85725       1  103658  104599  107025  106335  103657  104601+
+         107029  106333
CHEXA      85726       1  103657  104601  107029  106333  103656  104603+
+         107033  106331
CHEXA      85727       1  103656  104603  107033  106331  103655  104605+
+         107037  106329
CHEXA      85728       1  103655  104605  107037  106329  103654  104607+
+         107041  106327
CHEXA      85729       1  103654  104607  107041  106327  103653  104609+
+         107045  106325
CHEXA      85730       1  103653  104609  107045  106325  103652  104611+
+         107049  106323
CHEXA      85731       1  103652  104611  107049  106323  103651  104613+
+         107053  106321
CHEXA      85732       1  103651  104613  107053  106321  103650  104615+
+         107057  106319
CHEXA      85733       1  103650  104615  107057  106319  103649  104617+
+         107061  106317
CHEXA      85734       1  103649  104617  107061  106317  103648  104619+
+         107065  106315
CHEXA      85735       1  103648  104619  107065  106315  103647  104621+
+         107069  106313
CHEXA      85736       1  103647  104621  107069  106313  103646  104623+
+         107073  106311
CHEXA      85737       1  103646  104623  107073  106311  103645  104625+
+         107077  106309
CHEXA      85738       1  103645  104625  107077  106309  103644  104627+
+         107081  106307
CHEXA      85739       1  103644  104627  107081  106307  103643  104629+
+         107085  106305
CHEXA      85740       1  103643  104629  107085  106305  103642  104631+
+         107089  106303
CHEXA      85741       1  103642  104631  107089  106303  103641  104633+
+         107093  106301
CHEXA      85742       1  103641  104633  107093  106301  103640  104635+
+         107097  106299
CHEXA      85743       1  103640  104635  107097  106299  103639  104637+
+         107101  106297
CHEXA      85744       1  103639  104637  107101  106297  103638  104639+
+         107105  106295
CHEXA      85745       1  103638  104639  107105  106295  103637  104641+
+         107109  106293
CHEXA      85746       1  103637  104641  107109  106293  103636  104643+
+         107113  106291
CHEXA      85747       1  103636  104643  107113  106291  103635  104645+
+         107117  106289
CHEXA      85748       1  103635  104645  107117  106289  103634  104647+
+         107121  106287
CHEXA      85749       1  103634  104647  107121  106287  103633  104649+
+         107125  106285
CHEXA      85750       1  103633  104649  107125  106285  103632  104651+
+         107129  106283
CHEXA      85751       1  103632  104651  107129  106283  103631  104653+
+         107133  106281
CHEXA      85752       1  103631  104653  107133  106281  103630  104655+
+         107137  106279
CHEXA      85753       1  103630  104655  107137  106279  103629  104657+
+         107141  106277
CHEXA      85754       1  103629  104657  107141  106277  103628  104659+
+         107145  106275
CHEXA      85755       1  103628  104659  107145  106275  103627  104661+
+         107149  106273
CHEXA      85756       1  103627  104661  107149  106273  103626  104663+
+         107153  106271
CHEXA      85757       1  103626  104663  107153  106271  103625  104665+
+         107157  106269
CHEXA      85758       1  103625  104665  107157  106269  103624  104667+
+         107161  106267
CHEXA      85759       1  103624  104667  107161  106267  103623  104669+
+         107165  106265
CHEXA      85760       1  103623  104669  107165  106265  103622  104671+
+         107169  106263
CHEXA      85761       1  103622  104671  107169  106263  103621  104673+
+         107173  106261
CHEXA      85762       1  103621  104673  107173  106261  103620  104675+
+         107177  106259
CHEXA      85763       1  103620  104675  107177  106259  103619  104677+
+         107181  106257
CHEXA      85764       1  103619  104677  107181  106257  103618  104679+
+         107185  106255
CHEXA      85765       1  103618  104679  107185  106255  103617  104681+
+         107189  106253
CHEXA      85766       1  103617  104681  107189  106253  103616  104683+
+         107193  106251
CHEXA      85767       1  103616  104683  107193  106251  103615  104685+
+         107197  106249
CHEXA      85768       1  103615  104685  107197  106249  103614  104687+
+         107201  106247
CHEXA      85769       1  103614  104687  107201  106247  103613  104689+
+         107205  106245
CHEXA      85770       1  103613  104689  107205  106245  103612  104691+
+         107209  106243
CHEXA      85771       1  103612  104691  107209  106243  103611  104693+
+         107213  106241
CHEXA      85772       1  103611  104693  107213  106241  103610  104695+
+         107217  106239
CHEXA      85773       1  103610  104695  107217  106239  103609  104697+
+         107221  106237
CHEXA      85774       1  103609  104697  107221  106237  103608  104699+
+         107225  106235
CHEXA      85775       1  103608  104699  107225  106235  103607  104701+
+         107229  106233
CHEXA      85776       1  103607  104701  107229  106233  103606  104703+
+         107233  106231
CHEXA      85777       1  103606  104703  107233  106231  103605  104705+
+         107237  106229
CHEXA      85778       1  103605  104705  107237  106229  103604  104707+
+         107241  106227
CHEXA      85779       1  103604  104707  107241  106227  103603  104709+
+         107245  106225
CHEXA      85780       1  103603  104709  107245  106225  103602  104711+
+         107249  106223
CHEXA      85781       1  103602  104711  107249  106223  103601  104713+
+         107253  106221
CHEXA      85782       1  103601  104713  107253  106221  103600  104715+
+         107257  106219
CHEXA      85783       1  103600  104715  107257  106219  103599  104717+
+         107261  106217
CHEXA      85784       1  103599  104717  107261  106217  103598  104719+
+         107265  106215
CHEXA      85785       1  103598  104719  107265  106215  103597  104721+
+         107269  106213
CHEXA      85786       1  103597  104721  107269  106213  103596  104723+
+         107273  106211
CHEXA      85787       1  103596  104723  107273  106211  103595  104725+
+         107277  106209
CHEXA      85788       1  103595  104725  107277  106209  103594  104727+
+         107281  106207
CHEXA      85789       1  103594  104727  107281  106207  103593  104729+
+         107285  106205
CHEXA      85790       1  103593  104729  107285  106205  103592  104731+
+         107289  106203
CHEXA      85791       1  103592  104731  107289  106203  103591  104733+
+         107293  106201
CHEXA      85792       1  103591  104733  107293  106201  103590  104735+
+         107297  106199
CHEXA      85793       1  103590  104735  107297  106199  103589  104737+
+         107301  106197
CHEXA      85794       1  103589  104737  107301  106197  103588  104739+
+         107305  106195
CHEXA      85795       1  103588  104739  107305  106195  103587  104741+
+         107309  106193
CHEXA      85796       1  103587  104741  107309  106193  103586  104743+
+         107313  106191
CHEXA      85797       1  103586  104743  107313  106191  103585  104745+
+         107317  106189
CHEXA      85798       1  103585  104745  107317  106189  103584  104747+
+         107321  106187
CHEXA      85799       1  103584  104747  107321  106187  103583  104749+
+         107325  106185
CHEXA      85800       1  103583  104749  107325  106185  103582  104751+
+         107329  106183
CHEXA      85801       1  103582  104751  107329  106183  103581  104753+
+         107333  106181
CHEXA      85802       1  103581  104753  107333  106181  103580  104755+
+         107337  106179
CHEXA      85803       1  103580  104755  107337  106179  103579  104757+
+         107341  106177
CHEXA      85804       1  103579  104757  107341  106177  103578  104759+
+         107345  106175
CHEXA      85805       1  103578  104759  107345  106175  103577  104761+
+         107349  106173
CHEXA      85806       1  103577  104761  107349  106173  103576  104763+
+         107353  106171
CHEXA      85807       1  103576  104763  107353  106171  103575  104765+
+         107357  106169
CHEXA      85808       1  103575  104765  107357  106169  103574  104767+
+         107361  106167
CHEXA      85809       1  103574  104767  107361  106167  103573  104769+
+         107365  106165
CHEXA      85810       1  103573  104769  107365  106165  103572  104771+
+         107369  106163
CHEXA      85811       1  103572  104771  107369  106163  103571  104773+
+         107373  106161
CHEXA      85812       1  103571  104773  107373  106161  103570  104775+
+         107377  106159
CHEXA      85813       1  103570  104775  107377  106159  103569  104777+
+         107381  106157
CHEXA      85814       1  103569  104777  107381  106157  103568  104779+
+         107385  106155
CHEXA      85815       1  103568  104779  107385  106155  103567  104781+
+         107389  106153
CHEXA      85816       1  103567  104781  107389  106153  103566  104783+
+         107393  106151
CHEXA      85817       1  103566  104783  107393  106151  103565  104785+
+         107397  106149
CHEXA      85818       1  103565  104785  107397  106149  103564  104787+
+         107401  106147
CHEXA      85819       1  103564  104787  107401  106147  103563  104789+
+         107405  106145
CHEXA      85820       1  103563  104789  107405  106145  103562  104791+
+         107409  106143
CHEXA      85821       1  103562  104791  107409  106143  103561  104793+
+         107413  106141
CHEXA      85822       1  103561  104793  107413  106141  103560  104795+
+         107417  106139
CHEXA      85823       1  103560  104795  107417  106139  103559  104797+
+         107421  106137
CHEXA      85824       1  103559  104797  107421  106137  103558  104799+
+         107425  106135
CHEXA      85825       1  103558  104799  107425  106135  103557  104801+
+         107429  106133
CHEXA      85826       1  103557  104801  107429  106133  103556  104803+
+         107433  106131
CHEXA      85827       1  103556  104803  107433  106131  103555  104805+
+         107437  106129
CHEXA      85828       1  103555  104805  107437  106129  103554  104807+
+         107441  106127
CHEXA      85829       1  103554  104807  107441  106127  103553  104809+
+         107445  106125
CHEXA      85830       1  103553  104809  107445  106125  103552  104811+
+         107449  106123
CHEXA      85831       1  103552  104811  107449  106123  103551  104813+
+         107453  106121
CHEXA      85832       1  103551  104813  107453  106121  103550  104815+
+         107457  106119
CHEXA      85833       1  103550  104815  107457  106119  103549  104817+
+         107461  106117
CHEXA      85834       1  103549  104817  107461  106117  103548  104819+
+         107465  106115
CHEXA      85835       1  103548  104819  107465  106115  103547  104821+
+         107469  106113
CHEXA      85836       1  103547  104821  107469  106113  103546  104823+
+         107473  106111
CHEXA      85837       1  103546  104823  107473  106111  103545  104825+
+         107477  106109
CHEXA      85838       1  103545  104825  107477  106109  103544  104827+
+         107481  106107
CHEXA      85839       1  103544  104827  107481  106107  103543  104829+
+         107485  106105
CHEXA      85840       1  103543  104829  107485  106105  103542  104831+
+         107489  106103
CHEXA      85841       1  103542  104831  107489  106103  103541  104833+
+         107493  106101
CHEXA      85842       1  103541  104833  107493  106101  103540  104835+
+         107497  106099
CHEXA      85843       1  103540  104835  107497  106099  103539  104837+
+         107501  106097
CHEXA      85844       1  103539  104837  107501  106097  103538  104839+
+         107505  106095
CHEXA      85845       1  103538  104839  107505  106095  103537  104841+
+         107509  106093
CHEXA      85846       1  103537  104841  107509  106093  103536  104843+
+         107513  106091
CHEXA      85847       1  103536  104843  107513  106091  103535  104845+
+         107517  106089
CHEXA      85848       1  103535  104845  107517  106089  103534  104847+
+         107521  106087
CHEXA      85849       1  103534  104847  107521  106087  103533  104849+
+         107525  106085
CHEXA      85850       1  103533  104849  107525  106085  103532  104851+
+         107529  106083
CHEXA      85851       1  103532  104851  107529  106083  103531  104853+
+         107533  106081
CHEXA      85852       1  103531  104853  107533  106081  103530  104855+
+         107537  106079
CHEXA      85853       1  103530  104855  107537  106079  103529  104857+
+         107541  106077
CHEXA      85854       1  103529  104857  107541  106077  103528  104859+
+         107545  106075
CHEXA      85855       1  103528  104859  107545  106075  103527  104861+
+         107549  106073
CHEXA      85856       1  103527  104861  107549  106073  103526  104863+
+         107553  106071
CHEXA      85857       1  103526  104863  107553  106071  103525  104865+
+         107557  106069
CHEXA      85858       1  103525  104865  107557  106069  103524  104867+
+         107561  106067
CHEXA      85859       1  103524  104867  107561  106067  103523  104869+
+         107565  106065
CHEXA      85860       1  103523  104869  107565  106065  103522  104871+
+         107569  106063
CHEXA      85861       1  103522  104871  107569  106063  103521  104873+
+         107573  106061
CHEXA      85862       1  103521  104873  107573  106061  103520  104875+
+         107577  106059
CHEXA      85863       1  103520  104875  107577  106059  103519  104877+
+         107581  106057
CHEXA      85864       1  103519  104877  107581  106057  103518  104879+
+         107585  106055
CHEXA      85865       1  103518  104879  107585  106055  103517  104881+
+         107589  106053
CHEXA      85866       1  103517  104881  107589  106053  103516  104883+
+         107593  106051
CHEXA      85867       1  103516  104883  107593  106051  103515  104885+
+         107597  106049
CHEXA      85868       1  103515  104885  107597  106049  103514  104887+
+         107601  106047
CHEXA      85869       1  103514  104887  107601  106047  103513  104889+
+         107605  106045
CHEXA      85870       1  103513  104889  107605  106045  103512  104891+
+         107609  106043
CHEXA      85871       1  103512  104891  107609  106043  103511  104893+
+         107613  106041
CHEXA      85872       1  103511  104893  107613  106041  103510  104895+
+         107617  106039
CHEXA      85873       1  103510  104895  107617  106039  103509  104897+
+         107621  106037
CHEXA      85874       1  103509  104897  107621  106037  103508  104899+
+         107625  106035
CHEXA      85875       1  103508  104899  107625  106035  103507  104901+
+         107629  106033
CHEXA      85876       1  103507  104901  107629  106033  103506  104903+
+         107633  106031
CHEXA      85877       1  103506  104903  107633  106031  103505  104905+
+         107637  106029
CHEXA      85878       1  103505  104905  107637  106029  103504  104907+
+         107641  106027
CHEXA      85879       1  103504  104907  107641  106027  103503  104909+
+         107645  106025
CHEXA      85880       1  103503  104909  107645  106025  103502  104911+
+         107649  106023
CHEXA      85881       1  103502  104911  107649  106023  103501  104913+
+         107653  106021
CHEXA      85882       1  103501  104913  107653  106021  103500  104915+
+         107657  106019
CHEXA      85883       1  103500  104915  107657  106019  103499  104917+
+         107661  106017
CHEXA      85884       1  103499  104917  107661  106017  103498  104919+
+         107665  106015
CHEXA      85885       1  103498  104919  107665  106015  103497  104921+
+         107669  106013
CHEXA      85886       1  103497  104921  107669  106013  103496  104923+
+         107673  106011
CHEXA      85887       1  103496  104923  107673  106011  103495  104925+
+         107677  106009
CHEXA      85888       1  103495  104925  107677  106009  103494  104927+
+         107681  106007
CHEXA      85889       1  103494  104927  107681  106007  103493  104929+
+         107685  106005
CHEXA      85890       1  103493  104929  107685  106005  103492  104931+
+         107689  106003
CHEXA      85891       1  103492  104931  107689  106003  103491  104933+
+         107693  106001
CHEXA      85892       1  103491  104933  107693  106001  103490  104935+
+         107697  105999
CHEXA      85893       1  103490  104935  107697  105999  103489  104937+
+         107701  105997
CHEXA      85894       1  103489  104937  107701  105997  103488  104939+
+         107705  105995
CHEXA      85895       1  103488  104939  107705  105995  103487  104941+
+         107709  105993
CHEXA      85896       1  103487  104941  107709  105993  103486  104943+
+         107713  105991
CHEXA      85897       1  103486  104943  107713  105991  103485  104945+
+         107717  105989
CHEXA      85898       1  103485  104945  107717  105989  103484  104947+
+         107721  105987
CHEXA      85899       1  103484  104947  107721  105987  103483  104949+
+         107725  105985
CHEXA      85900       1  103483  104949  107725  105985  103482  104951+
+         107729  105983
CHEXA      85901       1  103482  104951  107729  105983  103481  104953+
+         107733  105981
CHEXA      85902       1  103481  104953  107733  105981  103480  104955+
+         107737  105979
CHEXA      85903       1  103480  104955  107737  105979  103479  104957+
+         107741  105977
CHEXA      85904       1  103479  104957  107741  105977  103478  104959+
+         107745  105975
CHEXA      85905       1  103478  104959  107745  105975  103477  104961+
+         107749  105973
CHEXA      85906       1  103477  104961  107749  105973  103476  104963+
+         107753  105971
CHEXA      85907       1  103476  104963  107753  105971  103475  104965+
+         107757  105969
CHEXA      85908       1  103475  104965  107757  105969  103474  104967+
+         107761  105967
CHEXA      85909       1  103474  104967  107761  105967  103473  104969+
+         107765  105965
CHEXA      85910       1  103473  104969  107765  105965  103472  104971+
+         107769  105963
CHEXA      85911       1  103472  104971  107769  105963  103471  104973+
+         107773  105961
CHEXA      85912       1  103471  104973  107773  105961  103470  104975+
+         107777  105959
CHEXA      85913       1  103470  104975  107777  105959  103469  104977+
+         107781  105957
CHEXA      85914       1  103469  104977  107781  105957  103468  104979+
+         107785  105955
CHEXA      85915       1  103468  104979  107785  105955  103467  104981+
+         107789  105953
CHEXA      85916       1  103467  104981  107789  105953  103466  104983+
+         107793  105951
CHEXA      85917       1  103466  104983  107793  105951  103465  104985+
+         107797  105949
CHEXA      85918       1  103465  104985  107797  105949  103464  104987+
+         107801  105947
CHEXA      85919       1  103464  104987  107801  105947  103463  104989+
+         107805  105945
CHEXA      85920       1  103463  104989  107805  105945  103462  104991+
+         107809  105943
CHEXA      85921       1  103462  104991  107809  105943  103461  104993+
+         107813  105941
CHEXA      85922       1  103461  104993  107813  105941  103460  104995+
+         107817  105939
CHEXA      85923       1  103460  104995  107817  105939  103459  104997+
+         107821  105937
CHEXA      85924       1  103459  104997  107821  105937  103458  104999+
+         107825  105935
CHEXA      85925       1  103458  104999  107825  105935  103457  105001+
+         107829  105933
CHEXA      85926       1  103457  105001  107829  105933  103456  105003+
+         107833  105931
CHEXA      85927       1  103456  105003  107833  105931  103455  105005+
+         107837  105929
CHEXA      85928       1  103455  105005  107837  105929  103454  105007+
+         107841  105927
CHEXA      85929       1  103454  105007  107841  105927  103453  105009+
+         107845  105925
CHEXA      85930       1  103453  105009  107845  105925  103452  105011+
+         107849  105923
CHEXA      85931       1  103452  105011  107849  105923  103451  105013+
+         107853  105921
CHEXA      85932       1  103451  105013  107853  105921  103450  105015+
+         107857  105919
CHEXA      85933       1  103450  105015  107857  105919  103449  105017+
+         107861  105917
CHEXA      85934       1  103449  105017  107861  105917  103448  105019+
+         107865  105915
CHEXA      85935       1  103448  105019  107865  105915  103447  105021+
+         107869  105913
CHEXA      85936       1  103447  105021  107869  105913  103446  105023+
+         107873  105911
CHEXA      85937       1  103446  105023  107873  105911  103445  105025+
+         107877  105909
CHEXA      85938       1  103445  105025  107877  105909  103444  105027+
+         107881  105907
CHEXA      85939       1  103444  105027  107881  105907  103443  105029+
+         107885  105905
CHEXA      85940       1  103443  105029  107885  105905  103442  105031+
+         107889  105903
CHEXA      85941       1  103442  105031  107889  105903  103441  105033+
+         107893  105901
CHEXA      85942       1  103441  105033  107893  105901  103440  105035+
+         107897  105899
CHEXA      85943       1  103440  105035  107897  105899  103439  105037+
+         107901  105897
CHEXA      85944       1  103439  105037  107901  105897  103438  105039+
+         107905  105895
CHEXA      85945       1  103438  105039  107905  105895  103437  105041+
+         107909  105893
CHEXA      85946       1  103437  105041  107909  105893  103436  105043+
+         107913  105891
CHEXA      85947       1  103436  105043  107913  105891  103435  105045+
+         107917  105889
CHEXA      85948       1  103435  105045  107917  105889  103434  105047+
+         107921  105887
CHEXA      85949       1  103434  105047  107921  105887  103433  105049+
+         107925  105885
CHEXA      85950       1  103433  105049  107925  105885  103432  105051+
+         107929  105883
CHEXA      85951       1  103432  105051  107929  105883  103431  105053+
+         107933  105881
CHEXA      85952       1  103431  105053  107933  105881  103430  105055+
+         107937  105879
CHEXA      85953       1  103430  105055  107937  105879  103429  105057+
+         107941  105877
CHEXA      85954       1  103429  105057  107941  105877  103428  105059+
+         107945  105875
CHEXA      85955       1  103428  105059  107945  105875  103427  105061+
+         107949  105873
CHEXA      85956       1  103427  105061  107949  105873  103426  105063+
+         107953  105871
CHEXA      85957       1  103426  105063  107953  105871  103425  105065+
+         107957  105869
CHEXA      85958       1  103425  105065  107957  105869  103424  105067+
+         107961  105867
CHEXA      85959       1  103424  105067  107961  105867  103423  105069+
+         107965  105865
CHEXA      85960       1  103423  105069  107965  105865  103422  105071+
+         107969  105863
CHEXA      85961       1  103422  105071  107969  105863  103421  105073+
+         107973  105861
CHEXA      85962       1  103421  105073  107973  105861  103420  105075+
+         107977  105859
CHEXA      85963       1  103420  105075  107977  105859  103419  105077+
+         107981  105857
CHEXA      85964       1  103419  105077  107981  105857  103418  105079+
+         107985  105855
CHEXA      85965       1  103418  105079  107985  105855  103417  105081+
+         107989  105853
CHEXA      85966       1  103417  105081  107989  105853  103416  105083+
+         107993  105851
CHEXA      85967       1  103416  105083  107993  105851  103415  105085+
+         107997  105849
CHEXA      85968       1  103415  105085  107997  105849  103414  105087+
+         108001  105847
CHEXA      85969       1  103414  105087  108001  105847  103413  105089+
+         108005  105845
CHEXA      85970       1  103413  105089  108005  105845  103412  105091+
+         108009  105843
CHEXA      85971       1  103412  105091  108009  105843  103411  105093+
+         108013  105841
CHEXA      85972       1  103411  105093  108013  105841  103410  105095+
+         108017  105839
CHEXA      85973       1  103410  105095  108017  105839  103409  105097+
+         108021  105837
CHEXA      85974       1  103409  105097  108021  105837  103408  105099+
+         108025  105835
CHEXA      85975       1  103408  105099  108025  105835  103407  105101+
+         108029  105833
CHEXA      85976       1  103407  105101  108029  105833  103406  105103+
+         108033  105831
CHEXA      85977       1  103406  105103  108033  105831  103405  105105+
+         108037  105829
CHEXA      85978       1  103405  105105  108037  105829  103404  105107+
+         108041  105827
CHEXA      85979       1  103404  105107  108041  105827  103403  105109+
+         108045  105825
CHEXA      85980       1  103403  105109  108045  105825  103402  105111+
+         108049  105823
CHEXA      85981       1  103402  105111  108049  105823  103401  105113+
+         108053  105821
CHEXA      85982       1  103401  105113  108053  105821  103400  105115+
+         108057  105819
CHEXA      85983       1  103400  105115  108057  105819  103399  105117+
+         108061  105817
CHEXA      85984       1  103399  105117  108061  105817  103398  105119+
+         108065  105815
CHEXA      85985       1  103398  105119  108065  105815  103397  105121+
+         108069  105813
CHEXA      85986       1  103397  105121  108069  105813  103396  105123+
+         108073  105811
CHEXA      85987       1  103396  105123  108073  105811  103395  105125+
+         108077  105809
CHEXA      85988       1  103395  105125  108077  105809  103394  105127+
+         108081  105807
CHEXA      85989       1  103394  105127  108081  105807  103393  105129+
+         108085  105805
CHEXA      85990       1  103393  105129  108085  105805  103392  105131+
+         108089  105803
CHEXA      85991       1  103392  105131  108089  105803  103391  105133+
+         108093  105801
CHEXA      85992       1  103391  105133  108093  105801  103390  105135+
+         108097  105799
CHEXA      85993       1  103390  105135  108097  105799  103389  105137+
+         108101  105797
CHEXA      85994       1  103389  105137  108101  105797  103388  105139+
+         108105  105795
CHEXA      85995       1  103388  105139  108105  105795  103387  105141+
+         108109  105793
CHEXA      85996       1  103387  105141  108109  105793  103386  105143+
+         108113  105791
CHEXA      85997       1  103386  105143  108113  105791  103385  105145+
+         108117  105789
CHEXA      85998       1  103385  105145  108117  105789  103384  105147+
+         108121  105787
CHEXA      85999       1  103384  105147  108121  105787  103383  105149+
+         108125  105785
CHEXA      86000       1  103383  105149  108125  105785  103382  105151+
+         108129  105783
CHEXA      86001       1  103382  105151  108129  105783  103381  105153+
+         108133  105781
CHEXA      86002       1  103381  105153  108133  105781  103380  105155+
+         108137  105779
CHEXA      86003       1  103380  105155  108137  105779  103379  105157+
+         108141  105777
CHEXA      86004       1  103379  105157  108141  105777  103378  105159+
+         108145  105775
CHEXA      86005       1  103378  105159  108145  105775  103377  105161+
+         108149  105773
CHEXA      86006       1  103377  105161  108149  105773  103376  105163+
+         108153  105771
CHEXA      86007       1  103376  105163  108153  105771  103375  105165+
+         108157  105769
CHEXA      86008       1  103375  105165  108157  105769  103374  105167+
+         108161  105767
CHEXA      86009       1  103374  105167  108161  105767  103362  103366+
+         106965  103371
CHEXA      86010       1  100967  102565  102562  100966  106363  106969+
+         106966  106362
CHEXA      86011       1  106363  106969  106966  106362  106361  106973+
+         106970  106360
CHEXA      86012       1  106361  106973  106970  106360  106359  106977+
+         106974  106358
CHEXA      86013       1  106359  106977  106974  106358  106357  106981+
+         106978  106356
CHEXA      86014       1  106357  106981  106978  106356  106355  106985+
+         106982  106354
CHEXA      86015       1  106355  106985  106982  106354  106353  106989+
+         106986  106352
CHEXA      86016       1  106353  106989  106986  106352  106351  106993+
+         106990  106350
CHEXA      86017       1  106351  106993  106990  106350  106349  106997+
+         106994  106348
CHEXA      86018       1  106349  106997  106994  106348  106347  107001+
+         106998  106346
CHEXA      86019       1  106347  107001  106998  106346  106345  107005+
+         107002  106344
CHEXA      86020       1  106345  107005  107002  106344  106343  107009+
+         107006  106342
CHEXA      86021       1  106343  107009  107006  106342  106341  107013+
+         107010  106340
CHEXA      86022       1  106341  107013  107010  106340  106339  107017+
+         107014  106338
CHEXA      86023       1  106339  107017  107014  106338  106337  107021+
+         107018  106336
CHEXA      86024       1  106337  107021  107018  106336  106335  107025+
+         107022  106334
CHEXA      86025       1  106335  107025  107022  106334  106333  107029+
+         107026  106332
CHEXA      86026       1  106333  107029  107026  106332  106331  107033+
+         107030  106330
CHEXA      86027       1  106331  107033  107030  106330  106329  107037+
+         107034  106328
CHEXA      86028       1  106329  107037  107034  106328  106327  107041+
+         107038  106326
CHEXA      86029       1  106327  107041  107038  106326  106325  107045+
+         107042  106324
CHEXA      86030       1  106325  107045  107042  106324  106323  107049+
+         107046  106322
CHEXA      86031       1  106323  107049  107046  106322  106321  107053+
+         107050  106320
CHEXA      86032       1  106321  107053  107050  106320  106319  107057+
+         107054  106318
CHEXA      86033       1  106319  107057  107054  106318  106317  107061+
+         107058  106316
CHEXA      86034       1  106317  107061  107058  106316  106315  107065+
+         107062  106314
CHEXA      86035       1  106315  107065  107062  106314  106313  107069+
+         107066  106312
CHEXA      86036       1  106313  107069  107066  106312  106311  107073+
+         107070  106310
CHEXA      86037       1  106311  107073  107070  106310  106309  107077+
+         107074  106308
CHEXA      86038       1  106309  107077  107074  106308  106307  107081+
+         107078  106306
CHEXA      86039       1  106307  107081  107078  106306  106305  107085+
+         107082  106304
CHEXA      86040       1  106305  107085  107082  106304  106303  107089+
+         107086  106302
CHEXA      86041       1  106303  107089  107086  106302  106301  107093+
+         107090  106300
CHEXA      86042       1  106301  107093  107090  106300  106299  107097+
+         107094  106298
CHEXA      86043       1  106299  107097  107094  106298  106297  107101+
+         107098  106296
CHEXA      86044       1  106297  107101  107098  106296  106295  107105+
+         107102  106294
CHEXA      86045       1  106295  107105  107102  106294  106293  107109+
+         107106  106292
CHEXA      86046       1  106293  107109  107106  106292  106291  107113+
+         107110  106290
CHEXA      86047       1  106291  107113  107110  106290  106289  107117+
+         107114  106288
CHEXA      86048       1  106289  107117  107114  106288  106287  107121+
+         107118  106286
CHEXA      86049       1  106287  107121  107118  106286  106285  107125+
+         107122  106284
CHEXA      86050       1  106285  107125  107122  106284  106283  107129+
+         107126  106282
CHEXA      86051       1  106283  107129  107126  106282  106281  107133+
+         107130  106280
CHEXA      86052       1  106281  107133  107130  106280  106279  107137+
+         107134  106278
CHEXA      86053       1  106279  107137  107134  106278  106277  107141+
+         107138  106276
CHEXA      86054       1  106277  107141  107138  106276  106275  107145+
+         107142  106274
CHEXA      86055       1  106275  107145  107142  106274  106273  107149+
+         107146  106272
CHEXA      86056       1  106273  107149  107146  106272  106271  107153+
+         107150  106270
CHEXA      86057       1  106271  107153  107150  106270  106269  107157+
+         107154  106268
CHEXA      86058       1  106269  107157  107154  106268  106267  107161+
+         107158  106266
CHEXA      86059       1  106267  107161  107158  106266  106265  107165+
+         107162  106264
CHEXA      86060       1  106265  107165  107162  106264  106263  107169+
+         107166  106262
CHEXA      86061       1  106263  107169  107166  106262  106261  107173+
+         107170  106260
CHEXA      86062       1  106261  107173  107170  106260  106259  107177+
+         107174  106258
CHEXA      86063       1  106259  107177  107174  106258  106257  107181+
+         107178  106256
CHEXA      86064       1  106257  107181  107178  106256  106255  107185+
+         107182  106254
CHEXA      86065       1  106255  107185  107182  106254  106253  107189+
+         107186  106252
CHEXA      86066       1  106253  107189  107186  106252  106251  107193+
+         107190  106250
CHEXA      86067       1  106251  107193  107190  106250  106249  107197+
+         107194  106248
CHEXA      86068       1  106249  107197  107194  106248  106247  107201+
+         107198  106246
CHEXA      86069       1  106247  107201  107198  106246  106245  107205+
+         107202  106244
CHEXA      86070       1  106245  107205  107202  106244  106243  107209+
+         107206  106242
CHEXA      86071       1  106243  107209  107206  106242  106241  107213+
+         107210  106240
CHEXA      86072       1  106241  107213  107210  106240  106239  107217+
+         107214  106238
CHEXA      86073       1  106239  107217  107214  106238  106237  107221+
+         107218  106236
CHEXA      86074       1  106237  107221  107218  106236  106235  107225+
+         107222  106234
CHEXA      86075       1  106235  107225  107222  106234  106233  107229+
+         107226  106232
CHEXA      86076       1  106233  107229  107226  106232  106231  107233+
+         107230  106230
CHEXA      86077       1  106231  107233  107230  106230  106229  107237+
+         107234  106228
CHEXA      86078       1  106229  107237  107234  106228  106227  107241+
+         107238  106226
CHEXA      86079       1  106227  107241  107238  106226  106225  107245+
+         107242  106224
CHEXA      86080       1  106225  107245  107242  106224  106223  107249+
+         107246  106222
CHEXA      86081       1  106223  107249  107246  106222  106221  107253+
+         107250  106220
CHEXA      86082       1  106221  107253  107250  106220  106219  107257+
+         107254  106218
CHEXA      86083       1  106219  107257  107254  106218  106217  107261+
+         107258  106216
CHEXA      86084       1  106217  107261  107258  106216  106215  107265+
+         107262  106214
CHEXA      86085       1  106215  107265  107262  106214  106213  107269+
+         107266  106212
CHEXA      86086       1  106213  107269  107266  106212  106211  107273+
+         107270  106210
CHEXA      86087       1  106211  107273  107270  106210  106209  107277+
+         107274  106208
CHEXA      86088       1  106209  107277  107274  106208  106207  107281+
+         107278  106206
CHEXA      86089       1  106207  107281  107278  106206  106205  107285+
+         107282  106204
CHEXA      86090       1  106205  107285  107282  106204  106203  107289+
+         107286  106202
CHEXA      86091       1  106203  107289  107286  106202  106201  107293+
+         107290  106200
CHEXA      86092       1  106201  107293  107290  106200  106199  107297+
+         107294  106198
CHEXA      86093       1  106199  107297  107294  106198  106197  107301+
+         107298  106196
CHEXA      86094       1  106197  107301  107298  106196  106195  107305+
+         107302  106194
CHEXA      86095       1  106195  107305  107302  106194  106193  107309+
+         107306  106192
CHEXA      86096       1  106193  107309  107306  106192  106191  107313+
+         107310  106190
CHEXA      86097       1  106191  107313  107310  106190  106189  107317+
+         107314  106188
CHEXA      86098       1  106189  107317  107314  106188  106187  107321+
+         107318  106186
CHEXA      86099       1  106187  107321  107318  106186  106185  107325+
+         107322  106184
CHEXA      86100       1  106185  107325  107322  106184  106183  107329+
+         107326  106182
CHEXA      86101       1  106183  107329  107326  106182  106181  107333+
+         107330  106180
CHEXA      86102       1  106181  107333  107330  106180  106179  107337+
+         107334  106178
CHEXA      86103       1  106179  107337  107334  106178  106177  107341+
+         107338  106176
CHEXA      86104       1  106177  107341  107338  106176  106175  107345+
+         107342  106174
CHEXA      86105       1  106175  107345  107342  106174  106173  107349+
+         107346  106172
CHEXA      86106       1  106173  107349  107346  106172  106171  107353+
+         107350  106170
CHEXA      86107       1  106171  107353  107350  106170  106169  107357+
+         107354  106168
CHEXA      86108       1  106169  107357  107354  106168  106167  107361+
+         107358  106166
CHEXA      86109       1  106167  107361  107358  106166  106165  107365+
+         107362  106164
CHEXA      86110       1  106165  107365  107362  106164  106163  107369+
+         107366  106162
CHEXA      86111       1  106163  107369  107366  106162  106161  107373+
+         107370  106160
CHEXA      86112       1  106161  107373  107370  106160  106159  107377+
+         107374  106158
CHEXA      86113       1  106159  107377  107374  106158  106157  107381+
+         107378  106156
CHEXA      86114       1  106157  107381  107378  106156  106155  107385+
+         107382  106154
CHEXA      86115       1  106155  107385  107382  106154  106153  107389+
+         107386  106152
CHEXA      86116       1  106153  107389  107386  106152  106151  107393+
+         107390  106150
CHEXA      86117       1  106151  107393  107390  106150  106149  107397+
+         107394  106148
CHEXA      86118       1  106149  107397  107394  106148  106147  107401+
+         107398  106146
CHEXA      86119       1  106147  107401  107398  106146  106145  107405+
+         107402  106144
CHEXA      86120       1  106145  107405  107402  106144  106143  107409+
+         107406  106142
CHEXA      86121       1  106143  107409  107406  106142  106141  107413+
+         107410  106140
CHEXA      86122       1  106141  107413  107410  106140  106139  107417+
+         107414  106138
CHEXA      86123       1  106139  107417  107414  106138  106137  107421+
+         107418  106136
CHEXA      86124       1  106137  107421  107418  106136  106135  107425+
+         107422  106134
CHEXA      86125       1  106135  107425  107422  106134  106133  107429+
+         107426  106132
CHEXA      86126       1  106133  107429  107426  106132  106131  107433+
+         107430  106130
CHEXA      86127       1  106131  107433  107430  106130  106129  107437+
+         107434  106128
CHEXA      86128       1  106129  107437  107434  106128  106127  107441+
+         107438  106126
CHEXA      86129       1  106127  107441  107438  106126  106125  107445+
+         107442  106124
CHEXA      86130       1  106125  107445  107442  106124  106123  107449+
+         107446  106122
CHEXA      86131       1  106123  107449  107446  106122  106121  107453+
+         107450  106120
CHEXA      86132       1  106121  107453  107450  106120  106119  107457+
+         107454  106118
CHEXA      86133       1  106119  107457  107454  106118  106117  107461+
+         107458  106116
CHEXA      86134       1  106117  107461  107458  106116  106115  107465+
+         107462  106114
CHEXA      86135       1  106115  107465  107462  106114  106113  107469+
+         107466  106112
CHEXA      86136       1  106113  107469  107466  106112  106111  107473+
+         107470  106110
CHEXA      86137       1  106111  107473  107470  106110  106109  107477+
+         107474  106108
CHEXA      86138       1  106109  107477  107474  106108  106107  107481+
+         107478  106106
CHEXA      86139       1  106107  107481  107478  106106  106105  107485+
+         107482  106104
CHEXA      86140       1  106105  107485  107482  106104  106103  107489+
+         107486  106102
CHEXA      86141       1  106103  107489  107486  106102  106101  107493+
+         107490  106100
CHEXA      86142       1  106101  107493  107490  106100  106099  107497+
+         107494  106098
CHEXA      86143       1  106099  107497  107494  106098  106097  107501+
+         107498  106096
CHEXA      86144       1  106097  107501  107498  106096  106095  107505+
+         107502  106094
CHEXA      86145       1  106095  107505  107502  106094  106093  107509+
+         107506  106092
CHEXA      86146       1  106093  107509  107506  106092  106091  107513+
+         107510  106090
CHEXA      86147       1  106091  107513  107510  106090  106089  107517+
+         107514  106088
CHEXA      86148       1  106089  107517  107514  106088  106087  107521+
+         107518  106086
CHEXA      86149       1  106087  107521  107518  106086  106085  107525+
+         107522  106084
CHEXA      86150       1  106085  107525  107522  106084  106083  107529+
+         107526  106082
CHEXA      86151       1  106083  107529  107526  106082  106081  107533+
+         107530  106080
CHEXA      86152       1  106081  107533  107530  106080  106079  107537+
+         107534  106078
CHEXA      86153       1  106079  107537  107534  106078  106077  107541+
+         107538  106076
CHEXA      86154       1  106077  107541  107538  106076  106075  107545+
+         107542  106074
CHEXA      86155       1  106075  107545  107542  106074  106073  107549+
+         107546  106072
CHEXA      86156       1  106073  107549  107546  106072  106071  107553+
+         107550  106070
CHEXA      86157       1  106071  107553  107550  106070  106069  107557+
+         107554  106068
CHEXA      86158       1  106069  107557  107554  106068  106067  107561+
+         107558  106066
CHEXA      86159       1  106067  107561  107558  106066  106065  107565+
+         107562  106064
CHEXA      86160       1  106065  107565  107562  106064  106063  107569+
+         107566  106062
CHEXA      86161       1  106063  107569  107566  106062  106061  107573+
+         107570  106060
CHEXA      86162       1  106061  107573  107570  106060  106059  107577+
+         107574  106058
CHEXA      86163       1  106059  107577  107574  106058  106057  107581+
+         107578  106056
CHEXA      86164       1  106057  107581  107578  106056  106055  107585+
+         107582  106054
CHEXA      86165       1  106055  107585  107582  106054  106053  107589+
+         107586  106052
CHEXA      86166       1  106053  107589  107586  106052  106051  107593+
+         107590  106050
CHEXA      86167       1  106051  107593  107590  106050  106049  107597+
+         107594  106048
CHEXA      86168       1  106049  107597  107594  106048  106047  107601+
+         107598  106046
CHEXA      86169       1  106047  107601  107598  106046  106045  107605+
+         107602  106044
CHEXA      86170       1  106045  107605  107602  106044  106043  107609+
+         107606  106042
CHEXA      86171       1  106043  107609  107606  106042  106041  107613+
+         107610  106040
CHEXA      86172       1  106041  107613  107610  106040  106039  107617+
+         107614  106038
CHEXA      86173       1  106039  107617  107614  106038  106037  107621+
+         107618  106036
CHEXA      86174       1  106037  107621  107618  106036  106035  107625+
+         107622  106034
CHEXA      86175       1  106035  107625  107622  106034  106033  107629+
+         107626  106032
CHEXA      86176       1  106033  107629  107626  106032  106031  107633+
+         107630  106030
CHEXA      86177       1  106031  107633  107630  106030  106029  107637+
+         107634  106028
CHEXA      86178       1  106029  107637  107634  106028  106027  107641+
+         107638  106026
CHEXA      86179       1  106027  107641  107638  106026  106025  107645+
+         107642  106024
CHEXA      86180       1  106025  107645  107642  106024  106023  107649+
+         107646  106022
CHEXA      86181       1  106023  107649  107646  106022  106021  107653+
+         107650  106020
CHEXA      86182       1  106021  107653  107650  106020  106019  107657+
+         107654  106018
CHEXA      86183       1  106019  107657  107654  106018  106017  107661+
+         107658  106016
CHEXA      86184       1  106017  107661  107658  106016  106015  107665+
+         107662  106014
CHEXA      86185       1  106015  107665  107662  106014  106013  107669+
+         107666  106012
CHEXA      86186       1  106013  107669  107666  106012  106011  107673+
+         107670  106010
CHEXA      86187       1  106011  107673  107670  106010  106009  107677+
+         107674  106008
CHEXA      86188       1  106009  107677  107674  106008  106007  107681+
+         107678  106006
CHEXA      86189       1  106007  107681  107678  106006  106005  107685+
+         107682  106004
CHEXA      86190       1  106005  107685  107682  106004  106003  107689+
+         107686  106002
CHEXA      86191       1  106003  107689  107686  106002  106001  107693+
+         107690  106000
CHEXA      86192       1  106001  107693  107690  106000  105999  107697+
+         107694  105998
CHEXA      86193       1  105999  107697  107694  105998  105997  107701+
+         107698  105996
CHEXA      86194       1  105997  107701  107698  105996  105995  107705+
+         107702  105994
CHEXA      86195       1  105995  107705  107702  105994  105993  107709+
+         107706  105992
CHEXA      86196       1  105993  107709  107706  105992  105991  107713+
+         107710  105990
CHEXA      86197       1  105991  107713  107710  105990  105989  107717+
+         107714  105988
CHEXA      86198       1  105989  107717  107714  105988  105987  107721+
+         107718  105986
CHEXA      86199       1  105987  107721  107718  105986  105985  107725+
+         107722  105984
CHEXA      86200       1  105985  107725  107722  105984  105983  107729+
+         107726  105982
CHEXA      86201       1  105983  107729  107726  105982  105981  107733+
+         107730  105980
CHEXA      86202       1  105981  107733  107730  105980  105979  107737+
+         107734  105978
CHEXA      86203       1  105979  107737  107734  105978  105977  107741+
+         107738  105976
CHEXA      86204       1  105977  107741  107738  105976  105975  107745+
+         107742  105974
CHEXA      86205       1  105975  107745  107742  105974  105973  107749+
+         107746  105972
CHEXA      86206       1  105973  107749  107746  105972  105971  107753+
+         107750  105970
CHEXA      86207       1  105971  107753  107750  105970  105969  107757+
+         107754  105968
CHEXA      86208       1  105969  107757  107754  105968  105967  107761+
+         107758  105966
CHEXA      86209       1  105967  107761  107758  105966  105965  107765+
+         107762  105964
CHEXA      86210       1  105965  107765  107762  105964  105963  107769+
+         107766  105962
CHEXA      86211       1  105963  107769  107766  105962  105961  107773+
+         107770  105960
CHEXA      86212       1  105961  107773  107770  105960  105959  107777+
+         107774  105958
CHEXA      86213       1  105959  107777  107774  105958  105957  107781+
+         107778  105956
CHEXA      86214       1  105957  107781  107778  105956  105955  107785+
+         107782  105954
CHEXA      86215       1  105955  107785  107782  105954  105953  107789+
+         107786  105952
CHEXA      86216       1  105953  107789  107786  105952  105951  107793+
+         107790  105950
CHEXA      86217       1  105951  107793  107790  105950  105949  107797+
+         107794  105948
CHEXA      86218       1  105949  107797  107794  105948  105947  107801+
+         107798  105946
CHEXA      86219       1  105947  107801  107798  105946  105945  107805+
+         107802  105944
CHEXA      86220       1  105945  107805  107802  105944  105943  107809+
+         107806  105942
CHEXA      86221       1  105943  107809  107806  105942  105941  107813+
+         107810  105940
CHEXA      86222       1  105941  107813  107810  105940  105939  107817+
+         107814  105938
CHEXA      86223       1  105939  107817  107814  105938  105937  107821+
+         107818  105936
CHEXA      86224       1  105937  107821  107818  105936  105935  107825+
+         107822  105934
CHEXA      86225       1  105935  107825  107822  105934  105933  107829+
+         107826  105932
CHEXA      86226       1  105933  107829  107826  105932  105931  107833+
+         107830  105930
CHEXA      86227       1  105931  107833  107830  105930  105929  107837+
+         107834  105928
CHEXA      86228       1  105929  107837  107834  105928  105927  107841+
+         107838  105926
CHEXA      86229       1  105927  107841  107838  105926  105925  107845+
+         107842  105924
CHEXA      86230       1  105925  107845  107842  105924  105923  107849+
+         107846  105922
CHEXA      86231       1  105923  107849  107846  105922  105921  107853+
+         107850  105920
CHEXA      86232       1  105921  107853  107850  105920  105919  107857+
+         107854  105918
CHEXA      86233       1  105919  107857  107854  105918  105917  107861+
+         107858  105916
CHEXA      86234       1  105917  107861  107858  105916  105915  107865+
+         107862  105914
CHEXA      86235       1  105915  107865  107862  105914  105913  107869+
+         107866  105912
CHEXA      86236       1  105913  107869  107866  105912  105911  107873+
+         107870  105910
CHEXA      86237       1  105911  107873  107870  105910  105909  107877+
+         107874  105908
CHEXA      86238       1  105909  107877  107874  105908  105907  107881+
+         107878  105906
CHEXA      86239       1  105907  107881  107878  105906  105905  107885+
+         107882  105904
CHEXA      86240       1  105905  107885  107882  105904  105903  107889+
+         107886  105902
CHEXA      86241       1  105903  107889  107886  105902  105901  107893+
+         107890  105900
CHEXA      86242       1  105901  107893  107890  105900  105899  107897+
+         107894  105898
CHEXA      86243       1  105899  107897  107894  105898  105897  107901+
+         107898  105896
CHEXA      86244       1  105897  107901  107898  105896  105895  107905+
+         107902  105894
CHEXA      86245       1  105895  107905  107902  105894  105893  107909+
+         107906  105892
CHEXA      86246       1  105893  107909  107906  105892  105891  107913+
+         107910  105890
CHEXA      86247       1  105891  107913  107910  105890  105889  107917+
+         107914  105888
CHEXA      86248       1  105889  107917  107914  105888  105887  107921+
+         107918  105886
CHEXA      86249       1  105887  107921  107918  105886  105885  107925+
+         107922  105884
CHEXA      86250       1  105885  107925  107922  105884  105883  107929+
+         107926  105882
CHEXA      86251       1  105883  107929  107926  105882  105881  107933+
+         107930  105880
CHEXA      86252       1  105881  107933  107930  105880  105879  107937+
+         107934  105878
CHEXA      86253       1  105879  107937  107934  105878  105877  107941+
+         107938  105876
CHEXA      86254       1  105877  107941  107938  105876  105875  107945+
+         107942  105874
CHEXA      86255       1  105875  107945  107942  105874  105873  107949+
+         107946  105872
CHEXA      86256       1  105873  107949  107946  105872  105871  107953+
+         107950  105870
CHEXA      86257       1  105871  107953  107950  105870  105869  107957+
+         107954  105868
CHEXA      86258       1  105869  107957  107954  105868  105867  107961+
+         107958  105866
CHEXA      86259       1  105867  107961  107958  105866  105865  107965+
+         107962  105864
CHEXA      86260       1  105865  107965  107962  105864  105863  107969+
+         107966  105862
CHEXA      86261       1  105863  107969  107966  105862  105861  107973+
+         107970  105860
CHEXA      86262       1  105861  107973  107970  105860  105859  107977+
+         107974  105858
CHEXA      86263       1  105859  107977  107974  105858  105857  107981+
+         107978  105856
CHEXA      86264       1  105857  107981  107978  105856  105855  107985+
+         107982  105854
CHEXA      86265       1  105855  107985  107982  105854  105853  107989+
+         107986  105852
CHEXA      86266       1  105853  107989  107986  105852  105851  107993+
+         107990  105850
CHEXA      86267       1  105851  107993  107990  105850  105849  107997+
+         107994  105848
CHEXA      86268       1  105849  107997  107994  105848  105847  108001+
+         107998  105846
CHEXA      86269       1  105847  108001  107998  105846  105845  108005+
+         108002  105844
CHEXA      86270       1  105845  108005  108002  105844  105843  108009+
+         108006  105842
CHEXA      86271       1  105843  108009  108006  105842  105841  108013+
+         108010  105840
CHEXA      86272       1  105841  108013  108010  105840  105839  108017+
+         108014  105838
CHEXA      86273       1  105839  108017  108014  105838  105837  108021+
+         108018  105836
CHEXA      86274       1  105837  108021  108018  105836  105835  108025+
+         108022  105834
CHEXA      86275       1  105835  108025  108022  105834  105833  108029+
+         108026  105832
CHEXA      86276       1  105833  108029  108026  105832  105831  108033+
+         108030  105830
CHEXA      86277       1  105831  108033  108030  105830  105829  108037+
+         108034  105828
CHEXA      86278       1  105829  108037  108034  105828  105827  108041+
+         108038  105826
CHEXA      86279       1  105827  108041  108038  105826  105825  108045+
+         108042  105824
CHEXA      86280       1  105825  108045  108042  105824  105823  108049+
+         108046  105822
CHEXA      86281       1  105823  108049  108046  105822  105821  108053+
+         108050  105820
CHEXA      86282       1  105821  108053  108050  105820  105819  108057+
+         108054  105818
CHEXA      86283       1  105819  108057  108054  105818  105817  108061+
+         108058  105816
CHEXA      86284       1  105817  108061  108058  105816  105815  108065+
+         108062  105814
CHEXA      86285       1  105815  108065  108062  105814  105813  108069+
+         108066  105812
CHEXA      86286       1  105813  108069  108066  105812  105811  108073+
+         108070  105810
CHEXA      86287       1  105811  108073  108070  105810  105809  108077+
+         108074  105808
CHEXA      86288       1  105809  108077  108074  105808  105807  108081+
+         108078  105806
CHEXA      86289       1  105807  108081  108078  105806  105805  108085+
+         108082  105804
CHEXA      86290       1  105805  108085  108082  105804  105803  108089+
+         108086  105802
CHEXA      86291       1  105803  108089  108086  105802  105801  108093+
+         108090  105800
CHEXA      86292       1  105801  108093  108090  105800  105799  108097+
+         108094  105798
CHEXA      86293       1  105799  108097  108094  105798  105797  108101+
+         108098  105796
CHEXA      86294       1  105797  108101  108098  105796  105795  108105+
+         108102  105794
CHEXA      86295       1  105795  108105  108102  105794  105793  108109+
+         108106  105792
CHEXA      86296       1  105793  108109  108106  105792  105791  108113+
+         108110  105790
CHEXA      86297       1  105791  108113  108110  105790  105789  108117+
+         108114  105788
CHEXA      86298       1  105789  108117  108114  105788  105787  108121+
+         108118  105786
CHEXA      86299       1  105787  108121  108118  105786  105785  108125+
+         108122  105784
CHEXA      86300       1  105785  108125  108122  105784  105783  108129+
+         108126  105782
CHEXA      86301       1  105783  108129  108126  105782  105781  108133+
+         108130  105780
CHEXA      86302       1  105781  108133  108130  105780  105779  108137+
+         108134  105778
CHEXA      86303       1  105779  108137  108134  105778  105777  108141+
+         108138  105776
CHEXA      86304       1  105777  108141  108138  105776  105775  108145+
+         108142  105774
CHEXA      86305       1  105775  108145  108142  105774  105773  108149+
+         108146  105772
CHEXA      86306       1  105773  108149  108146  105772  105771  108153+
+         108150  105770
CHEXA      86307       1  105771  108153  108150  105770  105769  108157+
+         108154  105768
CHEXA      86308       1  105769  108157  108154  105768  105767  108161+
+         108158  105766
CHEXA      86309       1  105767  108161  108158  105766  103371  106965+
+         106962  103370
$*  Mesh Collector: Solid(1)
$*  Mesh: 3d_mesh(4)
CHEXA      86310       1  106965  106964  106963  106962  109369  109368+
+         109367  109366
CHEXA      86311       1  109369  109368  109367  109366  109373  109372+
+         109371  109370
CHEXA      86312       1  109373  109372  109371  109370  109377  109376+
+         109375  109374
CHEXA      86313       1  109377  109376  109375  109374  109381  109380+
+         109379  109378
CHEXA      86314       1  109381  109380  109379  109378  109385  109384+
+         109383  109382
CHEXA      86315       1  109385  109384  109383  109382  109389  109388+
+         109387  109386
CHEXA      86316       1  109389  109388  109387  109386  109393  109392+
+         109391  109390
CHEXA      86317       1  109393  109392  109391  109390  109397  109396+
+         109395  109394
CHEXA      86318       1  109397  109396  109395  109394  109401  109400+
+         109399  109398
CHEXA      86319       1  109401  109400  109399  109398  109405  109404+
+         109403  109402
CHEXA      86320       1  109405  109404  109403  109402  109409  109408+
+         109407  109406
CHEXA      86321       1  109409  109408  109407  109406  109413  109412+
+         109411  109410
CHEXA      86322       1  109413  109412  109411  109410  109417  109416+
+         109415  109414
CHEXA      86323       1  109417  109416  109415  109414  109421  109420+
+         109419  109418
CHEXA      86324       1  109421  109420  109419  109418  109425  109424+
+         109423  109422
CHEXA      86325       1  109425  109424  109423  109422  109429  109428+
+         109427  109426
CHEXA      86326       1  109429  109428  109427  109426  109433  109432+
+         109431  109430
CHEXA      86327       1  109433  109432  109431  109430  109437  109436+
+         109435  109434
CHEXA      86328       1  109437  109436  109435  109434  109441  109440+
+         109439  109438
CHEXA      86329       1  109441  109440  109439  109438  109445  109444+
+         109443  109442
CHEXA      86330       1  109445  109444  109443  109442  109449  109448+
+         109447  109446
CHEXA      86331       1  109449  109448  109447  109446  109453  109452+
+         109451  109450
CHEXA      86332       1  109453  109452  109451  109450  109457  109456+
+         109455  109454
CHEXA      86333       1  109457  109456  109455  109454  109461  109460+
+         109459  109458
CHEXA      86334       1  109461  109460  109459  109458  109465  109464+
+         109463  109462
CHEXA      86335       1  109465  109464  109463  109462  109469  109468+
+         109467  109466
CHEXA      86336       1  109469  109468  109467  109466  109473  109472+
+         109471  109470
CHEXA      86337       1  109473  109472  109471  109470  109477  109476+
+         109475  109474
CHEXA      86338       1  109477  109476  109475  109474  109481  109480+
+         109479  109478
CHEXA      86339       1  109481  109480  109479  109478  109485  109484+
+         109483  109482
CHEXA      86340       1  109485  109484  109483  109482  109489  109488+
+         109487  109486
CHEXA      86341       1  109489  109488  109487  109486  109493  109492+
+         109491  109490
CHEXA      86342       1  109493  109492  109491  109490  109497  109496+
+         109495  109494
CHEXA      86343       1  109497  109496  109495  109494  109501  109500+
+         109499  109498
CHEXA      86344       1  109501  109500  109499  109498  109505  109504+
+         109503  109502
CHEXA      86345       1  109505  109504  109503  109502  109509  109508+
+         109507  109506
CHEXA      86346       1  109509  109508  109507  109506  109513  109512+
+         109511  109510
CHEXA      86347       1  109513  109512  109511  109510  109517  109516+
+         109515  109514
CHEXA      86348       1  109517  109516  109515  109514  109521  109520+
+         109519  109518
CHEXA      86349       1  109521  109520  109519  109518  109525  109524+
+         109523  109522
CHEXA      86350       1  109525  109524  109523  109522  109529  109528+
+         109527  109526
CHEXA      86351       1  109529  109528  109527  109526  109533  109532+
+         109531  109530
CHEXA      86352       1  109533  109532  109531  109530  109537  109536+
+         109535  109534
CHEXA      86353       1  109537  109536  109535  109534  109541  109540+
+         109539  109538
CHEXA      86354       1  109541  109540  109539  109538  109545  109544+
+         109543  109542
CHEXA      86355       1  109545  109544  109543  109542  109549  109548+
+         109547  109546
CHEXA      86356       1  109549  109548  109547  109546  109553  109552+
+         109551  109550
CHEXA      86357       1  109553  109552  109551  109550  109557  109556+
+         109555  109554
CHEXA      86358       1  109557  109556  109555  109554  109561  109560+
+         109559  109558
CHEXA      86359       1  109561  109560  109559  109558  109565  109564+
+         109563  109562
CHEXA      86360       1  109565  109564  109563  109562  109569  109568+
+         109567  109566
CHEXA      86361       1  109569  109568  109567  109566  109573  109572+
+         109571  109570
CHEXA      86362       1  109573  109572  109571  109570  109577  109576+
+         109575  109574
CHEXA      86363       1  109577  109576  109575  109574  109581  109580+
+         109579  109578
CHEXA      86364       1  109581  109580  109579  109578  109585  109584+
+         109583  109582
CHEXA      86365       1  109585  109584  109583  109582  109589  109588+
+         109587  109586
CHEXA      86366       1  109589  109588  109587  109586  109593  109592+
+         109591  109590
CHEXA      86367       1  109593  109592  109591  109590  109597  109596+
+         109595  109594
CHEXA      86368       1  109597  109596  109595  109594  109601  109600+
+         109599  109598
CHEXA      86369       1  109601  109600  109599  109598  109605  109604+
+         109603  109602
CHEXA      86370       1  109605  109604  109603  109602  109609  109608+
+         109607  109606
CHEXA      86371       1  109609  109608  109607  109606  109613  109612+
+         109611  109610
CHEXA      86372       1  109613  109612  109611  109610  109617  109616+
+         109615  109614
CHEXA      86373       1  109617  109616  109615  109614  109621  109620+
+         109619  109618
CHEXA      86374       1  109621  109620  109619  109618  109625  109624+
+         109623  109622
CHEXA      86375       1  109625  109624  109623  109622  109629  109628+
+         109627  109626
CHEXA      86376       1  109629  109628  109627  109626  109633  109632+
+         109631  109630
CHEXA      86377       1  109633  109632  109631  109630  109637  109636+
+         109635  109634
CHEXA      86378       1  109637  109636  109635  109634  109641  109640+
+         109639  109638
CHEXA      86379       1  109641  109640  109639  109638  109645  109644+
+         109643  109642
CHEXA      86380       1  109645  109644  109643  109642  109649  109648+
+         109647  109646
CHEXA      86381       1  109649  109648  109647  109646  109653  109652+
+         109651  109650
CHEXA      86382       1  109653  109652  109651  109650  109657  109656+
+         109655  109654
CHEXA      86383       1  109657  109656  109655  109654  109661  109660+
+         109659  109658
CHEXA      86384       1  109661  109660  109659  109658  109665  109664+
+         109663  109662
CHEXA      86385       1  109665  109664  109663  109662  109669  109668+
+         109667  109666
CHEXA      86386       1  109669  109668  109667  109666  109673  109672+
+         109671  109670
CHEXA      86387       1  109673  109672  109671  109670  109677  109676+
+         109675  109674
CHEXA      86388       1  109677  109676  109675  109674  109681  109680+
+         109679  109678
CHEXA      86389       1  109681  109680  109679  109678  109685  109684+
+         109683  109682
CHEXA      86390       1  109685  109684  109683  109682  109689  109688+
+         109687  109686
CHEXA      86391       1  109689  109688  109687  109686  109693  109692+
+         109691  109690
CHEXA      86392       1  109693  109692  109691  109690  109697  109696+
+         109695  109694
CHEXA      86393       1  109697  109696  109695  109694  109701  109700+
+         109699  109698
CHEXA      86394       1  109701  109700  109699  109698  109705  109704+
+         109703  109702
CHEXA      86395       1  109705  109704  109703  109702  109709  109708+
+         109707  109706
CHEXA      86396       1  109709  109708  109707  109706  109713  109712+
+         109711  109710
CHEXA      86397       1  109713  109712  109711  109710  109717  109716+
+         109715  109714
CHEXA      86398       1  109717  109716  109715  109714  109721  109720+
+         109719  109718
CHEXA      86399       1  109721  109720  109719  109718  109725  109724+
+         109723  109722
CHEXA      86400       1  109725  109724  109723  109722  109729  109728+
+         109727  109726
CHEXA      86401       1  109729  109728  109727  109726  109733  109732+
+         109731  109730
CHEXA      86402       1  109733  109732  109731  109730  109737  109736+
+         109735  109734
CHEXA      86403       1  109737  109736  109735  109734  109741  109740+
+         109739  109738
CHEXA      86404       1  109741  109740  109739  109738  109745  109744+
+         109743  109742
CHEXA      86405       1  109745  109744  109743  109742  109749  109748+
+         109747  109746
CHEXA      86406       1  109749  109748  109747  109746  109753  109752+
+         109751  109750
CHEXA      86407       1  109753  109752  109751  109750  109757  109756+
+         109755  109754
CHEXA      86408       1  109757  109756  109755  109754  109761  109760+
+         109759  109758
CHEXA      86409       1  109761  109760  109759  109758  109365  109364+
+         109363  109362
CHEXA      86410       1  103370  106962  103372  103365  109162  109366+
+         109164  108561
CHEXA      86411       1  109162  109366  109164  108561  109160  109370+
+         109166  108560
CHEXA      86412       1  109160  109370  109166  108560  109158  109374+
+         109168  108559
CHEXA      86413       1  109158  109374  109168  108559  109156  109378+
+         109170  108558
CHEXA      86414       1  109156  109378  109170  108558  109154  109382+
+         109172  108557
CHEXA      86415       1  109154  109382  109172  108557  109152  109386+
+         109174  108556
CHEXA      86416       1  109152  109386  109174  108556  109150  109390+
+         109176  108555
CHEXA      86417       1  109150  109390  109176  108555  109148  109394+
+         109178  108554
CHEXA      86418       1  109148  109394  109178  108554  109146  109398+
+         109180  108553
CHEXA      86419       1  109146  109398  109180  108553  109144  109402+
+         109182  108552
CHEXA      86420       1  109144  109402  109182  108552  109142  109406+
+         109184  108551
CHEXA      86421       1  109142  109406  109184  108551  109140  109410+
+         109186  108550
CHEXA      86422       1  109140  109410  109186  108550  109138  109414+
+         109188  108549
CHEXA      86423       1  109138  109414  109188  108549  109136  109418+
+         109190  108548
CHEXA      86424       1  109136  109418  109190  108548  109134  109422+
+         109192  108547
CHEXA      86425       1  109134  109422  109192  108547  109132  109426+
+         109194  108546
CHEXA      86426       1  109132  109426  109194  108546  109130  109430+
+         109196  108545
CHEXA      86427       1  109130  109430  109196  108545  109128  109434+
+         109198  108544
CHEXA      86428       1  109128  109434  109198  108544  109126  109438+
+         109200  108543
CHEXA      86429       1  109126  109438  109200  108543  109124  109442+
+         109202  108542
CHEXA      86430       1  109124  109442  109202  108542  109122  109446+
+         109204  108541
CHEXA      86431       1  109122  109446  109204  108541  109120  109450+
+         109206  108540
CHEXA      86432       1  109120  109450  109206  108540  109118  109454+
+         109208  108539
CHEXA      86433       1  109118  109454  109208  108539  109116  109458+
+         109210  108538
CHEXA      86434       1  109116  109458  109210  108538  109114  109462+
+         109212  108537
CHEXA      86435       1  109114  109462  109212  108537  109112  109466+
+         109214  108536
CHEXA      86436       1  109112  109466  109214  108536  109110  109470+
+         109216  108535
CHEXA      86437       1  109110  109470  109216  108535  109108  109474+
+         109218  108534
CHEXA      86438       1  109108  109474  109218  108534  109106  109478+
+         109220  108533
CHEXA      86439       1  109106  109478  109220  108533  109104  109482+
+         109222  108532
CHEXA      86440       1  109104  109482  109222  108532  109102  109486+
+         109224  108531
CHEXA      86441       1  109102  109486  109224  108531  109100  109490+
+         109226  108530
CHEXA      86442       1  109100  109490  109226  108530  109098  109494+
+         109228  108529
CHEXA      86443       1  109098  109494  109228  108529  109096  109498+
+         109230  108528
CHEXA      86444       1  109096  109498  109230  108528  109094  109502+
+         109232  108527
CHEXA      86445       1  109094  109502  109232  108527  109092  109506+
+         109234  108526
CHEXA      86446       1  109092  109506  109234  108526  109090  109510+
+         109236  108525
CHEXA      86447       1  109090  109510  109236  108525  109088  109514+
+         109238  108524
CHEXA      86448       1  109088  109514  109238  108524  109086  109518+
+         109240  108523
CHEXA      86449       1  109086  109518  109240  108523  109084  109522+
+         109242  108522
CHEXA      86450       1  109084  109522  109242  108522  109082  109526+
+         109244  108521
CHEXA      86451       1  109082  109526  109244  108521  109080  109530+
+         109246  108520
CHEXA      86452       1  109080  109530  109246  108520  109078  109534+
+         109248  108519
CHEXA      86453       1  109078  109534  109248  108519  109076  109538+
+         109250  108518
CHEXA      86454       1  109076  109538  109250  108518  109074  109542+
+         109252  108517
CHEXA      86455       1  109074  109542  109252  108517  109072  109546+
+         109254  108516
CHEXA      86456       1  109072  109546  109254  108516  109070  109550+
+         109256  108515
CHEXA      86457       1  109070  109550  109256  108515  109068  109554+
+         109258  108514
CHEXA      86458       1  109068  109554  109258  108514  109066  109558+
+         109260  108513
CHEXA      86459       1  109066  109558  109260  108513  109064  109562+
+         109262  108512
CHEXA      86460       1  109064  109562  109262  108512  109062  109566+
+         109264  108511
CHEXA      86461       1  109062  109566  109264  108511  109060  109570+
+         109266  108510
CHEXA      86462       1  109060  109570  109266  108510  109058  109574+
+         109268  108509
CHEXA      86463       1  109058  109574  109268  108509  109056  109578+
+         109270  108508
CHEXA      86464       1  109056  109578  109270  108508  109054  109582+
+         109272  108507
CHEXA      86465       1  109054  109582  109272  108507  109052  109586+
+         109274  108506
CHEXA      86466       1  109052  109586  109274  108506  109050  109590+
+         109276  108505
CHEXA      86467       1  109050  109590  109276  108505  109048  109594+
+         109278  108504
CHEXA      86468       1  109048  109594  109278  108504  109046  109598+
+         109280  108503
CHEXA      86469       1  109046  109598  109280  108503  109044  109602+
+         109282  108502
CHEXA      86470       1  109044  109602  109282  108502  109042  109606+
+         109284  108501
CHEXA      86471       1  109042  109606  109284  108501  109040  109610+
+         109286  108500
CHEXA      86472       1  109040  109610  109286  108500  109038  109614+
+         109288  108499
CHEXA      86473       1  109038  109614  109288  108499  109036  109618+
+         109290  108498
CHEXA      86474       1  109036  109618  109290  108498  109034  109622+
+         109292  108497
CHEXA      86475       1  109034  109622  109292  108497  109032  109626+
+         109294  108496
CHEXA      86476       1  109032  109626  109294  108496  109030  109630+
+         109296  108495
CHEXA      86477       1  109030  109630  109296  108495  109028  109634+
+         109298  108494
CHEXA      86478       1  109028  109634  109298  108494  109026  109638+
+         109300  108493
CHEXA      86479       1  109026  109638  109300  108493  109024  109642+
+         109302  108492
CHEXA      86480       1  109024  109642  109302  108492  109022  109646+
+         109304  108491
CHEXA      86481       1  109022  109646  109304  108491  109020  109650+
+         109306  108490
CHEXA      86482       1  109020  109650  109306  108490  109018  109654+
+         109308  108489
CHEXA      86483       1  109018  109654  109308  108489  109016  109658+
+         109310  108488
CHEXA      86484       1  109016  109658  109310  108488  109014  109662+
+         109312  108487
CHEXA      86485       1  109014  109662  109312  108487  109012  109666+
+         109314  108486
CHEXA      86486       1  109012  109666  109314  108486  109010  109670+
+         109316  108485
CHEXA      86487       1  109010  109670  109316  108485  109008  109674+
+         109318  108484
CHEXA      86488       1  109008  109674  109318  108484  109006  109678+
+         109320  108483
CHEXA      86489       1  109006  109678  109320  108483  109004  109682+
+         109322  108482
CHEXA      86490       1  109004  109682  109322  108482  109002  109686+
+         109324  108481
CHEXA      86491       1  109002  109686  109324  108481  109000  109690+
+         109326  108480
CHEXA      86492       1  109000  109690  109326  108480  108998  109694+
+         109328  108479
CHEXA      86493       1  108998  109694  109328  108479  108996  109698+
+         109330  108478
CHEXA      86494       1  108996  109698  109330  108478  108994  109702+
+         109332  108477
CHEXA      86495       1  108994  109702  109332  108477  108992  109706+
+         109334  108476
CHEXA      86496       1  108992  109706  109334  108476  108990  109710+
+         109336  108475
CHEXA      86497       1  108990  109710  109336  108475  108988  109714+
+         109338  108474
CHEXA      86498       1  108988  109714  109338  108474  108986  109718+
+         109340  108473
CHEXA      86499       1  108986  109718  109340  108473  108984  109722+
+         109342  108472
CHEXA      86500       1  108984  109722  109342  108472  108982  109726+
+         109344  108471
CHEXA      86501       1  108982  109726  109344  108471  108980  109730+
+         109346  108470
CHEXA      86502       1  108980  109730  109346  108470  108978  109734+
+         109348  108469
CHEXA      86503       1  108978  109734  109348  108469  108976  109738+
+         109350  108468
CHEXA      86504       1  108976  109738  109350  108468  108974  109742+
+         109352  108467
CHEXA      86505       1  108974  109742  109352  108467  108972  109746+
+         109354  108466
CHEXA      86506       1  108972  109746  109354  108466  108970  109750+
+         109356  108465
CHEXA      86507       1  108970  109750  109356  108465  108968  109754+
+         109358  108464
CHEXA      86508       1  108968  109754  109358  108464  108966  109758+
+         109360  108463
CHEXA      86509       1  108966  109758  109360  108463  108567  109362+
+         108568  108165
CHEXA      86510       1  106962  106963  103373  103372  109366  109367+
+         109165  109164
CHEXA      86511       1  109366  109367  109165  109164  109370  109371+
+         109167  109166
CHEXA      86512       1  109370  109371  109167  109166  109374  109375+
+         109169  109168
CHEXA      86513       1  109374  109375  109169  109168  109378  109379+
+         109171  109170
CHEXA      86514       1  109378  109379  109171  109170  109382  109383+
+         109173  109172
CHEXA      86515       1  109382  109383  109173  109172  109386  109387+
+         109175  109174
CHEXA      86516       1  109386  109387  109175  109174  109390  109391+
+         109177  109176
CHEXA      86517       1  109390  109391  109177  109176  109394  109395+
+         109179  109178
CHEXA      86518       1  109394  109395  109179  109178  109398  109399+
+         109181  109180
CHEXA      86519       1  109398  109399  109181  109180  109402  109403+
+         109183  109182
CHEXA      86520       1  109402  109403  109183  109182  109406  109407+
+         109185  109184
CHEXA      86521       1  109406  109407  109185  109184  109410  109411+
+         109187  109186
CHEXA      86522       1  109410  109411  109187  109186  109414  109415+
+         109189  109188
CHEXA      86523       1  109414  109415  109189  109188  109418  109419+
+         109191  109190
CHEXA      86524       1  109418  109419  109191  109190  109422  109423+
+         109193  109192
CHEXA      86525       1  109422  109423  109193  109192  109426  109427+
+         109195  109194
CHEXA      86526       1  109426  109427  109195  109194  109430  109431+
+         109197  109196
CHEXA      86527       1  109430  109431  109197  109196  109434  109435+
+         109199  109198
CHEXA      86528       1  109434  109435  109199  109198  109438  109439+
+         109201  109200
CHEXA      86529       1  109438  109439  109201  109200  109442  109443+
+         109203  109202
CHEXA      86530       1  109442  109443  109203  109202  109446  109447+
+         109205  109204
CHEXA      86531       1  109446  109447  109205  109204  109450  109451+
+         109207  109206
CHEXA      86532       1  109450  109451  109207  109206  109454  109455+
+         109209  109208
CHEXA      86533       1  109454  109455  109209  109208  109458  109459+
+         109211  109210
CHEXA      86534       1  109458  109459  109211  109210  109462  109463+
+         109213  109212
CHEXA      86535       1  109462  109463  109213  109212  109466  109467+
+         109215  109214
CHEXA      86536       1  109466  109467  109215  109214  109470  109471+
+         109217  109216
CHEXA      86537       1  109470  109471  109217  109216  109474  109475+
+         109219  109218
CHEXA      86538       1  109474  109475  109219  109218  109478  109479+
+         109221  109220
CHEXA      86539       1  109478  109479  109221  109220  109482  109483+
+         109223  109222
CHEXA      86540       1  109482  109483  109223  109222  109486  109487+
+         109225  109224
CHEXA      86541       1  109486  109487  109225  109224  109490  109491+
+         109227  109226
CHEXA      86542       1  109490  109491  109227  109226  109494  109495+
+         109229  109228
CHEXA      86543       1  109494  109495  109229  109228  109498  109499+
+         109231  109230
CHEXA      86544       1  109498  109499  109231  109230  109502  109503+
+         109233  109232
CHEXA      86545       1  109502  109503  109233  109232  109506  109507+
+         109235  109234
CHEXA      86546       1  109506  109507  109235  109234  109510  109511+
+         109237  109236
CHEXA      86547       1  109510  109511  109237  109236  109514  109515+
+         109239  109238
CHEXA      86548       1  109514  109515  109239  109238  109518  109519+
+         109241  109240
CHEXA      86549       1  109518  109519  109241  109240  109522  109523+
+         109243  109242
CHEXA      86550       1  109522  109523  109243  109242  109526  109527+
+         109245  109244
CHEXA      86551       1  109526  109527  109245  109244  109530  109531+
+         109247  109246
CHEXA      86552       1  109530  109531  109247  109246  109534  109535+
+         109249  109248
CHEXA      86553       1  109534  109535  109249  109248  109538  109539+
+         109251  109250
CHEXA      86554       1  109538  109539  109251  109250  109542  109543+
+         109253  109252
CHEXA      86555       1  109542  109543  109253  109252  109546  109547+
+         109255  109254
CHEXA      86556       1  109546  109547  109255  109254  109550  109551+
+         109257  109256
CHEXA      86557       1  109550  109551  109257  109256  109554  109555+
+         109259  109258
CHEXA      86558       1  109554  109555  109259  109258  109558  109559+
+         109261  109260
CHEXA      86559       1  109558  109559  109261  109260  109562  109563+
+         109263  109262
CHEXA      86560       1  109562  109563  109263  109262  109566  109567+
+         109265  109264
CHEXA      86561       1  109566  109567  109265  109264  109570  109571+
+         109267  109266
CHEXA      86562       1  109570  109571  109267  109266  109574  109575+
+         109269  109268
CHEXA      86563       1  109574  109575  109269  109268  109578  109579+
+         109271  109270
CHEXA      86564       1  109578  109579  109271  109270  109582  109583+
+         109273  109272
CHEXA      86565       1  109582  109583  109273  109272  109586  109587+
+         109275  109274
CHEXA      86566       1  109586  109587  109275  109274  109590  109591+
+         109277  109276
CHEXA      86567       1  109590  109591  109277  109276  109594  109595+
+         109279  109278
CHEXA      86568       1  109594  109595  109279  109278  109598  109599+
+         109281  109280
CHEXA      86569       1  109598  109599  109281  109280  109602  109603+
+         109283  109282
CHEXA      86570       1  109602  109603  109283  109282  109606  109607+
+         109285  109284
CHEXA      86571       1  109606  109607  109285  109284  109610  109611+
+         109287  109286
CHEXA      86572       1  109610  109611  109287  109286  109614  109615+
+         109289  109288
CHEXA      86573       1  109614  109615  109289  109288  109618  109619+
+         109291  109290
CHEXA      86574       1  109618  109619  109291  109290  109622  109623+
+         109293  109292
CHEXA      86575       1  109622  109623  109293  109292  109626  109627+
+         109295  109294
CHEXA      86576       1  109626  109627  109295  109294  109630  109631+
+         109297  109296
CHEXA      86577       1  109630  109631  109297  109296  109634  109635+
+         109299  109298
CHEXA      86578       1  109634  109635  109299  109298  109638  109639+
+         109301  109300
CHEXA      86579       1  109638  109639  109301  109300  109642  109643+
+         109303  109302
CHEXA      86580       1  109642  109643  109303  109302  109646  109647+
+         109305  109304
CHEXA      86581       1  109646  109647  109305  109304  109650  109651+
+         109307  109306
CHEXA      86582       1  109650  109651  109307  109306  109654  109655+
+         109309  109308
CHEXA      86583       1  109654  109655  109309  109308  109658  109659+
+         109311  109310
CHEXA      86584       1  109658  109659  109311  109310  109662  109663+
+         109313  109312
CHEXA      86585       1  109662  109663  109313  109312  109666  109667+
+         109315  109314
CHEXA      86586       1  109666  109667  109315  109314  109670  109671+
+         109317  109316
CHEXA      86587       1  109670  109671  109317  109316  109674  109675+
+         109319  109318
CHEXA      86588       1  109674  109675  109319  109318  109678  109679+
+         109321  109320
CHEXA      86589       1  109678  109679  109321  109320  109682  109683+
+         109323  109322
CHEXA      86590       1  109682  109683  109323  109322  109686  109687+
+         109325  109324
CHEXA      86591       1  109686  109687  109325  109324  109690  109691+
+         109327  109326
CHEXA      86592       1  109690  109691  109327  109326  109694  109695+
+         109329  109328
CHEXA      86593       1  109694  109695  109329  109328  109698  109699+
+         109331  109330
CHEXA      86594       1  109698  109699  109331  109330  109702  109703+
+         109333  109332
CHEXA      86595       1  109702  109703  109333  109332  109706  109707+
+         109335  109334
CHEXA      86596       1  109706  109707  109335  109334  109710  109711+
+         109337  109336
CHEXA      86597       1  109710  109711  109337  109336  109714  109715+
+         109339  109338
CHEXA      86598       1  109714  109715  109339  109338  109718  109719+
+         109341  109340
CHEXA      86599       1  109718  109719  109341  109340  109722  109723+
+         109343  109342
CHEXA      86600       1  109722  109723  109343  109342  109726  109727+
+         109345  109344
CHEXA      86601       1  109726  109727  109345  109344  109730  109731+
+         109347  109346
CHEXA      86602       1  109730  109731  109347  109346  109734  109735+
+         109349  109348
CHEXA      86603       1  109734  109735  109349  109348  109738  109739+
+         109351  109350
CHEXA      86604       1  109738  109739  109351  109350  109742  109743+
+         109353  109352
CHEXA      86605       1  109742  109743  109353  109352  109746  109747+
+         109355  109354
CHEXA      86606       1  109746  109747  109355  109354  109750  109751+
+         109357  109356
CHEXA      86607       1  109750  109751  109357  109356  109754  109755+
+         109359  109358
CHEXA      86608       1  109754  109755  109359  109358  109758  109759+
+         109361  109360
CHEXA      86609       1  109758  109759  109361  109360  109362  109363+
+         108569  108568
CHEXA      86610       1  106963  103368  103364  103373  109367  108768+
+         108462  109165
CHEXA      86611       1  109367  108768  108462  109165  109371  108770+
+         108461  109167
CHEXA      86612       1  109371  108770  108461  109167  109375  108772+
+         108460  109169
CHEXA      86613       1  109375  108772  108460  109169  109379  108774+
+         108459  109171
CHEXA      86614       1  109379  108774  108459  109171  109383  108776+
+         108458  109173
CHEXA      86615       1  109383  108776  108458  109173  109387  108778+
+         108457  109175
CHEXA      86616       1  109387  108778  108457  109175  109391  108780+
+         108456  109177
CHEXA      86617       1  109391  108780  108456  109177  109395  108782+
+         108455  109179
CHEXA      86618       1  109395  108782  108455  109179  109399  108784+
+         108454  109181
CHEXA      86619       1  109399  108784  108454  109181  109403  108786+
+         108453  109183
CHEXA      86620       1  109403  108786  108453  109183  109407  108788+
+         108452  109185
CHEXA      86621       1  109407  108788  108452  109185  109411  108790+
+         108451  109187
CHEXA      86622       1  109411  108790  108451  109187  109415  108792+
+         108450  109189
CHEXA      86623       1  109415  108792  108450  109189  109419  108794+
+         108449  109191
CHEXA      86624       1  109419  108794  108449  109191  109423  108796+
+         108448  109193
CHEXA      86625       1  109423  108796  108448  109193  109427  108798+
+         108447  109195
CHEXA      86626       1  109427  108798  108447  109195  109431  108800+
+         108446  109197
CHEXA      86627       1  109431  108800  108446  109197  109435  108802+
+         108445  109199
CHEXA      86628       1  109435  108802  108445  109199  109439  108804+
+         108444  109201
CHEXA      86629       1  109439  108804  108444  109201  109443  108806+
+         108443  109203
CHEXA      86630       1  109443  108806  108443  109203  109447  108808+
+         108442  109205
CHEXA      86631       1  109447  108808  108442  109205  109451  108810+
+         108441  109207
CHEXA      86632       1  109451  108810  108441  109207  109455  108812+
+         108440  109209
CHEXA      86633       1  109455  108812  108440  109209  109459  108814+
+         108439  109211
CHEXA      86634       1  109459  108814  108439  109211  109463  108816+
+         108438  109213
CHEXA      86635       1  109463  108816  108438  109213  109467  108818+
+         108437  109215
CHEXA      86636       1  109467  108818  108437  109215  109471  108820+
+         108436  109217
CHEXA      86637       1  109471  108820  108436  109217  109475  108822+
+         108435  109219
CHEXA      86638       1  109475  108822  108435  109219  109479  108824+
+         108434  109221
CHEXA      86639       1  109479  108824  108434  109221  109483  108826+
+         108433  109223
CHEXA      86640       1  109483  108826  108433  109223  109487  108828+
+         108432  109225
CHEXA      86641       1  109487  108828  108432  109225  109491  108830+
+         108431  109227
CHEXA      86642       1  109491  108830  108431  109227  109495  108832+
+         108430  109229
CHEXA      86643       1  109495  108832  108430  109229  109499  108834+
+         108429  109231
CHEXA      86644       1  109499  108834  108429  109231  109503  108836+
+         108428  109233
CHEXA      86645       1  109503  108836  108428  109233  109507  108838+
+         108427  109235
CHEXA      86646       1  109507  108838  108427  109235  109511  108840+
+         108426  109237
CHEXA      86647       1  109511  108840  108426  109237  109515  108842+
+         108425  109239
CHEXA      86648       1  109515  108842  108425  109239  109519  108844+
+         108424  109241
CHEXA      86649       1  109519  108844  108424  109241  109523  108846+
+         108423  109243
CHEXA      86650       1  109523  108846  108423  109243  109527  108848+
+         108422  109245
CHEXA      86651       1  109527  108848  108422  109245  109531  108850+
+         108421  109247
CHEXA      86652       1  109531  108850  108421  109247  109535  108852+
+         108420  109249
CHEXA      86653       1  109535  108852  108420  109249  109539  108854+
+         108419  109251
CHEXA      86654       1  109539  108854  108419  109251  109543  108856+
+         108418  109253
CHEXA      86655       1  109543  108856  108418  109253  109547  108858+
+         108417  109255
CHEXA      86656       1  109547  108858  108417  109255  109551  108860+
+         108416  109257
CHEXA      86657       1  109551  108860  108416  109257  109555  108862+
+         108415  109259
CHEXA      86658       1  109555  108862  108415  109259  109559  108864+
+         108414  109261
CHEXA      86659       1  109559  108864  108414  109261  109563  108866+
+         108413  109263
CHEXA      86660       1  109563  108866  108413  109263  109567  108868+
+         108412  109265
CHEXA      86661       1  109567  108868  108412  109265  109571  108870+
+         108411  109267
CHEXA      86662       1  109571  108870  108411  109267  109575  108872+
+         108410  109269
CHEXA      86663       1  109575  108872  108410  109269  109579  108874+
+         108409  109271
CHEXA      86664       1  109579  108874  108409  109271  109583  108876+
+         108408  109273
CHEXA      86665       1  109583  108876  108408  109273  109587  108878+
+         108407  109275
CHEXA      86666       1  109587  108878  108407  109275  109591  108880+
+         108406  109277
CHEXA      86667       1  109591  108880  108406  109277  109595  108882+
+         108405  109279
CHEXA      86668       1  109595  108882  108405  109279  109599  108884+
+         108404  109281
CHEXA      86669       1  109599  108884  108404  109281  109603  108886+
+         108403  109283
CHEXA      86670       1  109603  108886  108403  109283  109607  108888+
+         108402  109285
CHEXA      86671       1  109607  108888  108402  109285  109611  108890+
+         108401  109287
CHEXA      86672       1  109611  108890  108401  109287  109615  108892+
+         108400  109289
CHEXA      86673       1  109615  108892  108400  109289  109619  108894+
+         108399  109291
CHEXA      86674       1  109619  108894  108399  109291  109623  108896+
+         108398  109293
CHEXA      86675       1  109623  108896  108398  109293  109627  108898+
+         108397  109295
CHEXA      86676       1  109627  108898  108397  109295  109631  108900+
+         108396  109297
CHEXA      86677       1  109631  108900  108396  109297  109635  108902+
+         108395  109299
CHEXA      86678       1  109635  108902  108395  109299  109639  108904+
+         108394  109301
CHEXA      86679       1  109639  108904  108394  109301  109643  108906+
+         108393  109303
CHEXA      86680       1  109643  108906  108393  109303  109647  108908+
+         108392  109305
CHEXA      86681       1  109647  108908  108392  109305  109651  108910+
+         108391  109307
CHEXA      86682       1  109651  108910  108391  109307  109655  108912+
+         108390  109309
CHEXA      86683       1  109655  108912  108390  109309  109659  108914+
+         108389  109311
CHEXA      86684       1  109659  108914  108389  109311  109663  108916+
+         108388  109313
CHEXA      86685       1  109663  108916  108388  109313  109667  108918+
+         108387  109315
CHEXA      86686       1  109667  108918  108387  109315  109671  108920+
+         108386  109317
CHEXA      86687       1  109671  108920  108386  109317  109675  108922+
+         108385  109319
CHEXA      86688       1  109675  108922  108385  109319  109679  108924+
+         108384  109321
CHEXA      86689       1  109679  108924  108384  109321  109683  108926+
+         108383  109323
CHEXA      86690       1  109683  108926  108383  109323  109687  108928+
+         108382  109325
CHEXA      86691       1  109687  108928  108382  109325  109691  108930+
+         108381  109327
CHEXA      86692       1  109691  108930  108381  109327  109695  108932+
+         108380  109329
CHEXA      86693       1  109695  108932  108380  109329  109699  108934+
+         108379  109331
CHEXA      86694       1  109699  108934  108379  109331  109703  108936+
+         108378  109333
CHEXA      86695       1  109703  108936  108378  109333  109707  108938+
+         108377  109335
CHEXA      86696       1  109707  108938  108377  109335  109711  108940+
+         108376  109337
CHEXA      86697       1  109711  108940  108376  109337  109715  108942+
+         108375  109339
CHEXA      86698       1  109715  108942  108375  109339  109719  108944+
+         108374  109341
CHEXA      86699       1  109719  108944  108374  109341  109723  108946+
+         108373  109343
CHEXA      86700       1  109723  108946  108373  109343  109727  108948+
+         108372  109345
CHEXA      86701       1  109727  108948  108372  109345  109731  108950+
+         108371  109347
CHEXA      86702       1  109731  108950  108371  109347  109735  108952+
+         108370  109349
CHEXA      86703       1  109735  108952  108370  109349  109739  108954+
+         108369  109351
CHEXA      86704       1  109739  108954  108369  109351  109743  108956+
+         108368  109353
CHEXA      86705       1  109743  108956  108368  109353  109747  108958+
+         108367  109355
CHEXA      86706       1  109747  108958  108367  109355  109751  108960+
+         108366  109357
CHEXA      86707       1  109751  108960  108366  109357  109755  108962+
+         108365  109359
CHEXA      86708       1  109755  108962  108365  109359  109759  108964+
+         108364  109361
CHEXA      86709       1  109759  108964  108364  109361  109363  108564+
+         108164  108569
CHEXA      86710       1  106964  103369  103368  106963  109368  108769+
+         108768  109367
CHEXA      86711       1  109368  108769  108768  109367  109372  108771+
+         108770  109371
CHEXA      86712       1  109372  108771  108770  109371  109376  108773+
+         108772  109375
CHEXA      86713       1  109376  108773  108772  109375  109380  108775+
+         108774  109379
CHEXA      86714       1  109380  108775  108774  109379  109384  108777+
+         108776  109383
CHEXA      86715       1  109384  108777  108776  109383  109388  108779+
+         108778  109387
CHEXA      86716       1  109388  108779  108778  109387  109392  108781+
+         108780  109391
CHEXA      86717       1  109392  108781  108780  109391  109396  108783+
+         108782  109395
CHEXA      86718       1  109396  108783  108782  109395  109400  108785+
+         108784  109399
CHEXA      86719       1  109400  108785  108784  109399  109404  108787+
+         108786  109403
CHEXA      86720       1  109404  108787  108786  109403  109408  108789+
+         108788  109407
CHEXA      86721       1  109408  108789  108788  109407  109412  108791+
+         108790  109411
CHEXA      86722       1  109412  108791  108790  109411  109416  108793+
+         108792  109415
CHEXA      86723       1  109416  108793  108792  109415  109420  108795+
+         108794  109419
CHEXA      86724       1  109420  108795  108794  109419  109424  108797+
+         108796  109423
CHEXA      86725       1  109424  108797  108796  109423  109428  108799+
+         108798  109427
CHEXA      86726       1  109428  108799  108798  109427  109432  108801+
+         108800  109431
CHEXA      86727       1  109432  108801  108800  109431  109436  108803+
+         108802  109435
CHEXA      86728       1  109436  108803  108802  109435  109440  108805+
+         108804  109439
CHEXA      86729       1  109440  108805  108804  109439  109444  108807+
+         108806  109443
CHEXA      86730       1  109444  108807  108806  109443  109448  108809+
+         108808  109447
CHEXA      86731       1  109448  108809  108808  109447  109452  108811+
+         108810  109451
CHEXA      86732       1  109452  108811  108810  109451  109456  108813+
+         108812  109455
CHEXA      86733       1  109456  108813  108812  109455  109460  108815+
+         108814  109459
CHEXA      86734       1  109460  108815  108814  109459  109464  108817+
+         108816  109463
CHEXA      86735       1  109464  108817  108816  109463  109468  108819+
+         108818  109467
CHEXA      86736       1  109468  108819  108818  109467  109472  108821+
+         108820  109471
CHEXA      86737       1  109472  108821  108820  109471  109476  108823+
+         108822  109475
CHEXA      86738       1  109476  108823  108822  109475  109480  108825+
+         108824  109479
CHEXA      86739       1  109480  108825  108824  109479  109484  108827+
+         108826  109483
CHEXA      86740       1  109484  108827  108826  109483  109488  108829+
+         108828  109487
CHEXA      86741       1  109488  108829  108828  109487  109492  108831+
+         108830  109491
CHEXA      86742       1  109492  108831  108830  109491  109496  108833+
+         108832  109495
CHEXA      86743       1  109496  108833  108832  109495  109500  108835+
+         108834  109499
CHEXA      86744       1  109500  108835  108834  109499  109504  108837+
+         108836  109503
CHEXA      86745       1  109504  108837  108836  109503  109508  108839+
+         108838  109507
CHEXA      86746       1  109508  108839  108838  109507  109512  108841+
+         108840  109511
CHEXA      86747       1  109512  108841  108840  109511  109516  108843+
+         108842  109515
CHEXA      86748       1  109516  108843  108842  109515  109520  108845+
+         108844  109519
CHEXA      86749       1  109520  108845  108844  109519  109524  108847+
+         108846  109523
CHEXA      86750       1  109524  108847  108846  109523  109528  108849+
+         108848  109527
CHEXA      86751       1  109528  108849  108848  109527  109532  108851+
+         108850  109531
CHEXA      86752       1  109532  108851  108850  109531  109536  108853+
+         108852  109535
CHEXA      86753       1  109536  108853  108852  109535  109540  108855+
+         108854  109539
CHEXA      86754       1  109540  108855  108854  109539  109544  108857+
+         108856  109543
CHEXA      86755       1  109544  108857  108856  109543  109548  108859+
+         108858  109547
CHEXA      86756       1  109548  108859  108858  109547  109552  108861+
+         108860  109551
CHEXA      86757       1  109552  108861  108860  109551  109556  108863+
+         108862  109555
CHEXA      86758       1  109556  108863  108862  109555  109560  108865+
+         108864  109559
CHEXA      86759       1  109560  108865  108864  109559  109564  108867+
+         108866  109563
CHEXA      86760       1  109564  108867  108866  109563  109568  108869+
+         108868  109567
CHEXA      86761       1  109568  108869  108868  109567  109572  108871+
+         108870  109571
CHEXA      86762       1  109572  108871  108870  109571  109576  108873+
+         108872  109575
CHEXA      86763       1  109576  108873  108872  109575  109580  108875+
+         108874  109579
CHEXA      86764       1  109580  108875  108874  109579  109584  108877+
+         108876  109583
CHEXA      86765       1  109584  108877  108876  109583  109588  108879+
+         108878  109587
CHEXA      86766       1  109588  108879  108878  109587  109592  108881+
+         108880  109591
CHEXA      86767       1  109592  108881  108880  109591  109596  108883+
+         108882  109595
CHEXA      86768       1  109596  108883  108882  109595  109600  108885+
+         108884  109599
CHEXA      86769       1  109600  108885  108884  109599  109604  108887+
+         108886  109603
CHEXA      86770       1  109604  108887  108886  109603  109608  108889+
+         108888  109607
CHEXA      86771       1  109608  108889  108888  109607  109612  108891+
+         108890  109611
CHEXA      86772       1  109612  108891  108890  109611  109616  108893+
+         108892  109615
CHEXA      86773       1  109616  108893  108892  109615  109620  108895+
+         108894  109619
CHEXA      86774       1  109620  108895  108894  109619  109624  108897+
+         108896  109623
CHEXA      86775       1  109624  108897  108896  109623  109628  108899+
+         108898  109627
CHEXA      86776       1  109628  108899  108898  109627  109632  108901+
+         108900  109631
CHEXA      86777       1  109632  108901  108900  109631  109636  108903+
+         108902  109635
CHEXA      86778       1  109636  108903  108902  109635  109640  108905+
+         108904  109639
CHEXA      86779       1  109640  108905  108904  109639  109644  108907+
+         108906  109643
CHEXA      86780       1  109644  108907  108906  109643  109648  108909+
+         108908  109647
CHEXA      86781       1  109648  108909  108908  109647  109652  108911+
+         108910  109651
CHEXA      86782       1  109652  108911  108910  109651  109656  108913+
+         108912  109655
CHEXA      86783       1  109656  108913  108912  109655  109660  108915+
+         108914  109659
CHEXA      86784       1  109660  108915  108914  109659  109664  108917+
+         108916  109663
CHEXA      86785       1  109664  108917  108916  109663  109668  108919+
+         108918  109667
CHEXA      86786       1  109668  108919  108918  109667  109672  108921+
+         108920  109671
CHEXA      86787       1  109672  108921  108920  109671  109676  108923+
+         108922  109675
CHEXA      86788       1  109676  108923  108922  109675  109680  108925+
+         108924  109679
CHEXA      86789       1  109680  108925  108924  109679  109684  108927+
+         108926  109683
CHEXA      86790       1  109684  108927  108926  109683  109688  108929+
+         108928  109687
CHEXA      86791       1  109688  108929  108928  109687  109692  108931+
+         108930  109691
CHEXA      86792       1  109692  108931  108930  109691  109696  108933+
+         108932  109695
CHEXA      86793       1  109696  108933  108932  109695  109700  108935+
+         108934  109699
CHEXA      86794       1  109700  108935  108934  109699  109704  108937+
+         108936  109703
CHEXA      86795       1  109704  108937  108936  109703  109708  108939+
+         108938  109707
CHEXA      86796       1  109708  108939  108938  109707  109712  108941+
+         108940  109711
CHEXA      86797       1  109712  108941  108940  109711  109716  108943+
+         108942  109715
CHEXA      86798       1  109716  108943  108942  109715  109720  108945+
+         108944  109719
CHEXA      86799       1  109720  108945  108944  109719  109724  108947+
+         108946  109723
CHEXA      86800       1  109724  108947  108946  109723  109728  108949+
+         108948  109727
CHEXA      86801       1  109728  108949  108948  109727  109732  108951+
+         108950  109731
CHEXA      86802       1  109732  108951  108950  109731  109736  108953+
+         108952  109735
CHEXA      86803       1  109736  108953  108952  109735  109740  108955+
+         108954  109739
CHEXA      86804       1  109740  108955  108954  109739  109744  108957+
+         108956  109743
CHEXA      86805       1  109744  108957  108956  109743  109748  108959+
+         108958  109747
CHEXA      86806       1  109748  108959  108958  109747  109752  108961+
+         108960  109751
CHEXA      86807       1  109752  108961  108960  109751  109756  108963+
+         108962  109755
CHEXA      86808       1  109756  108963  108962  109755  109760  108965+
+         108964  109759
CHEXA      86809       1  109760  108965  108964  109759  109364  108565+
+         108564  109363
CHEXA      86810       1  103367  103363  103369  106964  108767  108264+
+         108769  109368
CHEXA      86811       1  108767  108264  108769  109368  108765  108263+
+         108771  109372
CHEXA      86812       1  108765  108263  108771  109372  108763  108262+
+         108773  109376
CHEXA      86813       1  108763  108262  108773  109376  108761  108261+
+         108775  109380
CHEXA      86814       1  108761  108261  108775  109380  108759  108260+
+         108777  109384
CHEXA      86815       1  108759  108260  108777  109384  108757  108259+
+         108779  109388
CHEXA      86816       1  108757  108259  108779  109388  108755  108258+
+         108781  109392
CHEXA      86817       1  108755  108258  108781  109392  108753  108257+
+         108783  109396
CHEXA      86818       1  108753  108257  108783  109396  108751  108256+
+         108785  109400
CHEXA      86819       1  108751  108256  108785  109400  108749  108255+
+         108787  109404
CHEXA      86820       1  108749  108255  108787  109404  108747  108254+
+         108789  109408
CHEXA      86821       1  108747  108254  108789  109408  108745  108253+
+         108791  109412
CHEXA      86822       1  108745  108253  108791  109412  108743  108252+
+         108793  109416
CHEXA      86823       1  108743  108252  108793  109416  108741  108251+
+         108795  109420
CHEXA      86824       1  108741  108251  108795  109420  108739  108250+
+         108797  109424
CHEXA      86825       1  108739  108250  108797  109424  108737  108249+
+         108799  109428
CHEXA      86826       1  108737  108249  108799  109428  108735  108248+
+         108801  109432
CHEXA      86827       1  108735  108248  108801  109432  108733  108247+
+         108803  109436
CHEXA      86828       1  108733  108247  108803  109436  108731  108246+
+         108805  109440
CHEXA      86829       1  108731  108246  108805  109440  108729  108245+
+         108807  109444
CHEXA      86830       1  108729  108245  108807  109444  108727  108244+
+         108809  109448
CHEXA      86831       1  108727  108244  108809  109448  108725  108243+
+         108811  109452
CHEXA      86832       1  108725  108243  108811  109452  108723  108242+
+         108813  109456
CHEXA      86833       1  108723  108242  108813  109456  108721  108241+
+         108815  109460
CHEXA      86834       1  108721  108241  108815  109460  108719  108240+
+         108817  109464
CHEXA      86835       1  108719  108240  108817  109464  108717  108239+
+         108819  109468
CHEXA      86836       1  108717  108239  108819  109468  108715  108238+
+         108821  109472
CHEXA      86837       1  108715  108238  108821  109472  108713  108237+
+         108823  109476
CHEXA      86838       1  108713  108237  108823  109476  108711  108236+
+         108825  109480
CHEXA      86839       1  108711  108236  108825  109480  108709  108235+
+         108827  109484
CHEXA      86840       1  108709  108235  108827  109484  108707  108234+
+         108829  109488
CHEXA      86841       1  108707  108234  108829  109488  108705  108233+
+         108831  109492
CHEXA      86842       1  108705  108233  108831  109492  108703  108232+
+         108833  109496
CHEXA      86843       1  108703  108232  108833  109496  108701  108231+
+         108835  109500
CHEXA      86844       1  108701  108231  108835  109500  108699  108230+
+         108837  109504
CHEXA      86845       1  108699  108230  108837  109504  108697  108229+
+         108839  109508
CHEXA      86846       1  108697  108229  108839  109508  108695  108228+
+         108841  109512
CHEXA      86847       1  108695  108228  108841  109512  108693  108227+
+         108843  109516
CHEXA      86848       1  108693  108227  108843  109516  108691  108226+
+         108845  109520
CHEXA      86849       1  108691  108226  108845  109520  108689  108225+
+         108847  109524
CHEXA      86850       1  108689  108225  108847  109524  108687  108224+
+         108849  109528
CHEXA      86851       1  108687  108224  108849  109528  108685  108223+
+         108851  109532
CHEXA      86852       1  108685  108223  108851  109532  108683  108222+
+         108853  109536
CHEXA      86853       1  108683  108222  108853  109536  108681  108221+
+         108855  109540
CHEXA      86854       1  108681  108221  108855  109540  108679  108220+
+         108857  109544
CHEXA      86855       1  108679  108220  108857  109544  108677  108219+
+         108859  109548
CHEXA      86856       1  108677  108219  108859  109548  108675  108218+
+         108861  109552
CHEXA      86857       1  108675  108218  108861  109552  108673  108217+
+         108863  109556
CHEXA      86858       1  108673  108217  108863  109556  108671  108216+
+         108865  109560
CHEXA      86859       1  108671  108216  108865  109560  108669  108215+
+         108867  109564
CHEXA      86860       1  108669  108215  108867  109564  108667  108214+
+         108869  109568
CHEXA      86861       1  108667  108214  108869  109568  108665  108213+
+         108871  109572
CHEXA      86862       1  108665  108213  108871  109572  108663  108212+
+         108873  109576
CHEXA      86863       1  108663  108212  108873  109576  108661  108211+
+         108875  109580
CHEXA      86864       1  108661  108211  108875  109580  108659  108210+
+         108877  109584
CHEXA      86865       1  108659  108210  108877  109584  108657  108209+
+         108879  109588
CHEXA      86866       1  108657  108209  108879  109588  108655  108208+
+         108881  109592
CHEXA      86867       1  108655  108208  108881  109592  108653  108207+
+         108883  109596
CHEXA      86868       1  108653  108207  108883  109596  108651  108206+
+         108885  109600
CHEXA      86869       1  108651  108206  108885  109600  108649  108205+
+         108887  109604
CHEXA      86870       1  108649  108205  108887  109604  108647  108204+
+         108889  109608
CHEXA      86871       1  108647  108204  108889  109608  108645  108203+
+         108891  109612
CHEXA      86872       1  108645  108203  108891  109612  108643  108202+
+         108893  109616
CHEXA      86873       1  108643  108202  108893  109616  108641  108201+
+         108895  109620
CHEXA      86874       1  108641  108201  108895  109620  108639  108200+
+         108897  109624
CHEXA      86875       1  108639  108200  108897  109624  108637  108199+
+         108899  109628
CHEXA      86876       1  108637  108199  108899  109628  108635  108198+
+         108901  109632
CHEXA      86877       1  108635  108198  108901  109632  108633  108197+
+         108903  109636
CHEXA      86878       1  108633  108197  108903  109636  108631  108196+
+         108905  109640
CHEXA      86879       1  108631  108196  108905  109640  108629  108195+
+         108907  109644
CHEXA      86880       1  108629  108195  108907  109644  108627  108194+
+         108909  109648
CHEXA      86881       1  108627  108194  108909  109648  108625  108193+
+         108911  109652
CHEXA      86882       1  108625  108193  108911  109652  108623  108192+
+         108913  109656
CHEXA      86883       1  108623  108192  108913  109656  108621  108191+
+         108915  109660
CHEXA      86884       1  108621  108191  108915  109660  108619  108190+
+         108917  109664
CHEXA      86885       1  108619  108190  108917  109664  108617  108189+
+         108919  109668
CHEXA      86886       1  108617  108189  108919  109668  108615  108188+
+         108921  109672
CHEXA      86887       1  108615  108188  108921  109672  108613  108187+
+         108923  109676
CHEXA      86888       1  108613  108187  108923  109676  108611  108186+
+         108925  109680
CHEXA      86889       1  108611  108186  108925  109680  108609  108185+
+         108927  109684
CHEXA      86890       1  108609  108185  108927  109684  108607  108184+
+         108929  109688
CHEXA      86891       1  108607  108184  108929  109688  108605  108183+
+         108931  109692
CHEXA      86892       1  108605  108183  108931  109692  108603  108182+
+         108933  109696
CHEXA      86893       1  108603  108182  108933  109696  108601  108181+
+         108935  109700
CHEXA      86894       1  108601  108181  108935  109700  108599  108180+
+         108937  109704
CHEXA      86895       1  108599  108180  108937  109704  108597  108179+
+         108939  109708
CHEXA      86896       1  108597  108179  108939  109708  108595  108178+
+         108941  109712
CHEXA      86897       1  108595  108178  108941  109712  108593  108177+
+         108943  109716
CHEXA      86898       1  108593  108177  108943  109716  108591  108176+
+         108945  109720
CHEXA      86899       1  108591  108176  108945  109720  108589  108175+
+         108947  109724
CHEXA      86900       1  108589  108175  108947  109724  108587  108174+
+         108949  109728
CHEXA      86901       1  108587  108174  108949  109728  108585  108173+
+         108951  109732
CHEXA      86902       1  108585  108173  108951  109732  108583  108172+
+         108953  109736
CHEXA      86903       1  108583  108172  108953  109736  108581  108171+
+         108955  109740
CHEXA      86904       1  108581  108171  108955  109740  108579  108170+
+         108957  109744
CHEXA      86905       1  108579  108170  108957  109744  108577  108169+
+         108959  109748
CHEXA      86906       1  108577  108169  108959  109748  108575  108168+
+         108961  109752
CHEXA      86907       1  108575  108168  108961  109752  108573  108167+
+         108963  109756
CHEXA      86908       1  108573  108167  108963  109756  108571  108166+
+         108965  109760
CHEXA      86909       1  108571  108166  108965  109760  108562  108162+
+         108565  109364
CHEXA      86910       1  103366  103367  106964  106965  108766  108767+
+         109368  109369
CHEXA      86911       1  108766  108767  109368  109369  108764  108765+
+         109372  109373
CHEXA      86912       1  108764  108765  109372  109373  108762  108763+
+         109376  109377
CHEXA      86913       1  108762  108763  109376  109377  108760  108761+
+         109380  109381
CHEXA      86914       1  108760  108761  109380  109381  108758  108759+
+         109384  109385
CHEXA      86915       1  108758  108759  109384  109385  108756  108757+
+         109388  109389
CHEXA      86916       1  108756  108757  109388  109389  108754  108755+
+         109392  109393
CHEXA      86917       1  108754  108755  109392  109393  108752  108753+
+         109396  109397
CHEXA      86918       1  108752  108753  109396  109397  108750  108751+
+         109400  109401
CHEXA      86919       1  108750  108751  109400  109401  108748  108749+
+         109404  109405
CHEXA      86920       1  108748  108749  109404  109405  108746  108747+
+         109408  109409
CHEXA      86921       1  108746  108747  109408  109409  108744  108745+
+         109412  109413
CHEXA      86922       1  108744  108745  109412  109413  108742  108743+
+         109416  109417
CHEXA      86923       1  108742  108743  109416  109417  108740  108741+
+         109420  109421
CHEXA      86924       1  108740  108741  109420  109421  108738  108739+
+         109424  109425
CHEXA      86925       1  108738  108739  109424  109425  108736  108737+
+         109428  109429
CHEXA      86926       1  108736  108737  109428  109429  108734  108735+
+         109432  109433
CHEXA      86927       1  108734  108735  109432  109433  108732  108733+
+         109436  109437
CHEXA      86928       1  108732  108733  109436  109437  108730  108731+
+         109440  109441
CHEXA      86929       1  108730  108731  109440  109441  108728  108729+
+         109444  109445
CHEXA      86930       1  108728  108729  109444  109445  108726  108727+
+         109448  109449
CHEXA      86931       1  108726  108727  109448  109449  108724  108725+
+         109452  109453
CHEXA      86932       1  108724  108725  109452  109453  108722  108723+
+         109456  109457
CHEXA      86933       1  108722  108723  109456  109457  108720  108721+
+         109460  109461
CHEXA      86934       1  108720  108721  109460  109461  108718  108719+
+         109464  109465
CHEXA      86935       1  108718  108719  109464  109465  108716  108717+
+         109468  109469
CHEXA      86936       1  108716  108717  109468  109469  108714  108715+
+         109472  109473
CHEXA      86937       1  108714  108715  109472  109473  108712  108713+
+         109476  109477
CHEXA      86938       1  108712  108713  109476  109477  108710  108711+
+         109480  109481
CHEXA      86939       1  108710  108711  109480  109481  108708  108709+
+         109484  109485
CHEXA      86940       1  108708  108709  109484  109485  108706  108707+
+         109488  109489
CHEXA      86941       1  108706  108707  109488  109489  108704  108705+
+         109492  109493
CHEXA      86942       1  108704  108705  109492  109493  108702  108703+
+         109496  109497
CHEXA      86943       1  108702  108703  109496  109497  108700  108701+
+         109500  109501
CHEXA      86944       1  108700  108701  109500  109501  108698  108699+
+         109504  109505
CHEXA      86945       1  108698  108699  109504  109505  108696  108697+
+         109508  109509
CHEXA      86946       1  108696  108697  109508  109509  108694  108695+
+         109512  109513
CHEXA      86947       1  108694  108695  109512  109513  108692  108693+
+         109516  109517
CHEXA      86948       1  108692  108693  109516  109517  108690  108691+
+         109520  109521
CHEXA      86949       1  108690  108691  109520  109521  108688  108689+
+         109524  109525
CHEXA      86950       1  108688  108689  109524  109525  108686  108687+
+         109528  109529
CHEXA      86951       1  108686  108687  109528  109529  108684  108685+
+         109532  109533
CHEXA      86952       1  108684  108685  109532  109533  108682  108683+
+         109536  109537
CHEXA      86953       1  108682  108683  109536  109537  108680  108681+
+         109540  109541
CHEXA      86954       1  108680  108681  109540  109541  108678  108679+
+         109544  109545
CHEXA      86955       1  108678  108679  109544  109545  108676  108677+
+         109548  109549
CHEXA      86956       1  108676  108677  109548  109549  108674  108675+
+         109552  109553
CHEXA      86957       1  108674  108675  109552  109553  108672  108673+
+         109556  109557
CHEXA      86958       1  108672  108673  109556  109557  108670  108671+
+         109560  109561
CHEXA      86959       1  108670  108671  109560  109561  108668  108669+
+         109564  109565
CHEXA      86960       1  108668  108669  109564  109565  108666  108667+
+         109568  109569
CHEXA      86961       1  108666  108667  109568  109569  108664  108665+
+         109572  109573
CHEXA      86962       1  108664  108665  109572  109573  108662  108663+
+         109576  109577
CHEXA      86963       1  108662  108663  109576  109577  108660  108661+
+         109580  109581
CHEXA      86964       1  108660  108661  109580  109581  108658  108659+
+         109584  109585
CHEXA      86965       1  108658  108659  109584  109585  108656  108657+
+         109588  109589
CHEXA      86966       1  108656  108657  109588  109589  108654  108655+
+         109592  109593
CHEXA      86967       1  108654  108655  109592  109593  108652  108653+
+         109596  109597
CHEXA      86968       1  108652  108653  109596  109597  108650  108651+
+         109600  109601
CHEXA      86969       1  108650  108651  109600  109601  108648  108649+
+         109604  109605
CHEXA      86970       1  108648  108649  109604  109605  108646  108647+
+         109608  109609
CHEXA      86971       1  108646  108647  109608  109609  108644  108645+
+         109612  109613
CHEXA      86972       1  108644  108645  109612  109613  108642  108643+
+         109616  109617
CHEXA      86973       1  108642  108643  109616  109617  108640  108641+
+         109620  109621
CHEXA      86974       1  108640  108641  109620  109621  108638  108639+
+         109624  109625
CHEXA      86975       1  108638  108639  109624  109625  108636  108637+
+         109628  109629
CHEXA      86976       1  108636  108637  109628  109629  108634  108635+
+         109632  109633
CHEXA      86977       1  108634  108635  109632  109633  108632  108633+
+         109636  109637
CHEXA      86978       1  108632  108633  109636  109637  108630  108631+
+         109640  109641
CHEXA      86979       1  108630  108631  109640  109641  108628  108629+
+         109644  109645
CHEXA      86980       1  108628  108629  109644  109645  108626  108627+
+         109648  109649
CHEXA      86981       1  108626  108627  109648  109649  108624  108625+
+         109652  109653
CHEXA      86982       1  108624  108625  109652  109653  108622  108623+
+         109656  109657
CHEXA      86983       1  108622  108623  109656  109657  108620  108621+
+         109660  109661
CHEXA      86984       1  108620  108621  109660  109661  108618  108619+
+         109664  109665
CHEXA      86985       1  108618  108619  109664  109665  108616  108617+
+         109668  109669
CHEXA      86986       1  108616  108617  109668  109669  108614  108615+
+         109672  109673
CHEXA      86987       1  108614  108615  109672  109673  108612  108613+
+         109676  109677
CHEXA      86988       1  108612  108613  109676  109677  108610  108611+
+         109680  109681
CHEXA      86989       1  108610  108611  109680  109681  108608  108609+
+         109684  109685
CHEXA      86990       1  108608  108609  109684  109685  108606  108607+
+         109688  109689
CHEXA      86991       1  108606  108607  109688  109689  108604  108605+
+         109692  109693
CHEXA      86992       1  108604  108605  109692  109693  108602  108603+
+         109696  109697
CHEXA      86993       1  108602  108603  109696  109697  108600  108601+
+         109700  109701
CHEXA      86994       1  108600  108601  109700  109701  108598  108599+
+         109704  109705
CHEXA      86995       1  108598  108599  109704  109705  108596  108597+
+         109708  109709
CHEXA      86996       1  108596  108597  109708  109709  108594  108595+
+         109712  109713
CHEXA      86997       1  108594  108595  109712  109713  108592  108593+
+         109716  109717
CHEXA      86998       1  108592  108593  109716  109717  108590  108591+
+         109720  109721
CHEXA      86999       1  108590  108591  109720  109721  108588  108589+
+         109724  109725
CHEXA      87000       1  108588  108589  109724  109725  108586  108587+
+         109728  109729
CHEXA      87001       1  108586  108587  109728  109729  108584  108585+
+         109732  109733
CHEXA      87002       1  108584  108585  109732  109733  108582  108583+
+         109736  109737
CHEXA      87003       1  108582  108583  109736  109737  108580  108581+
+         109740  109741
CHEXA      87004       1  108580  108581  109740  109741  108578  108579+
+         109744  109745
CHEXA      87005       1  108578  108579  109744  109745  108576  108577+
+         109748  109749
CHEXA      87006       1  108576  108577  109748  109749  108574  108575+
+         109752  109753
CHEXA      87007       1  108574  108575  109752  109753  108572  108573+
+         109756  109757
CHEXA      87008       1  108572  108573  109756  109757  108570  108571+
+         109760  109761
CHEXA      87009       1  108570  108571  109760  109761  108563  108562+
+         109364  109365
CHEXA      87010       1  103362  103366  106965  103371  108363  108766+
+         109369  109163
CHEXA      87011       1  108363  108766  109369  109163  108362  108764+
+         109373  109161
CHEXA      87012       1  108362  108764  109373  109161  108361  108762+
+         109377  109159
CHEXA      87013       1  108361  108762  109377  109159  108360  108760+
+         109381  109157
CHEXA      87014       1  108360  108760  109381  109157  108359  108758+
+         109385  109155
CHEXA      87015       1  108359  108758  109385  109155  108358  108756+
+         109389  109153
CHEXA      87016       1  108358  108756  109389  109153  108357  108754+
+         109393  109151
CHEXA      87017       1  108357  108754  109393  109151  108356  108752+
+         109397  109149
CHEXA      87018       1  108356  108752  109397  109149  108355  108750+
+         109401  109147
CHEXA      87019       1  108355  108750  109401  109147  108354  108748+
+         109405  109145
CHEXA      87020       1  108354  108748  109405  109145  108353  108746+
+         109409  109143
CHEXA      87021       1  108353  108746  109409  109143  108352  108744+
+         109413  109141
CHEXA      87022       1  108352  108744  109413  109141  108351  108742+
+         109417  109139
CHEXA      87023       1  108351  108742  109417  109139  108350  108740+
+         109421  109137
CHEXA      87024       1  108350  108740  109421  109137  108349  108738+
+         109425  109135
CHEXA      87025       1  108349  108738  109425  109135  108348  108736+
+         109429  109133
CHEXA      87026       1  108348  108736  109429  109133  108347  108734+
+         109433  109131
CHEXA      87027       1  108347  108734  109433  109131  108346  108732+
+         109437  109129
CHEXA      87028       1  108346  108732  109437  109129  108345  108730+
+         109441  109127
CHEXA      87029       1  108345  108730  109441  109127  108344  108728+
+         109445  109125
CHEXA      87030       1  108344  108728  109445  109125  108343  108726+
+         109449  109123
CHEXA      87031       1  108343  108726  109449  109123  108342  108724+
+         109453  109121
CHEXA      87032       1  108342  108724  109453  109121  108341  108722+
+         109457  109119
CHEXA      87033       1  108341  108722  109457  109119  108340  108720+
+         109461  109117
CHEXA      87034       1  108340  108720  109461  109117  108339  108718+
+         109465  109115
CHEXA      87035       1  108339  108718  109465  109115  108338  108716+
+         109469  109113
CHEXA      87036       1  108338  108716  109469  109113  108337  108714+
+         109473  109111
CHEXA      87037       1  108337  108714  109473  109111  108336  108712+
+         109477  109109
CHEXA      87038       1  108336  108712  109477  109109  108335  108710+
+         109481  109107
CHEXA      87039       1  108335  108710  109481  109107  108334  108708+
+         109485  109105
CHEXA      87040       1  108334  108708  109485  109105  108333  108706+
+         109489  109103
CHEXA      87041       1  108333  108706  109489  109103  108332  108704+
+         109493  109101
CHEXA      87042       1  108332  108704  109493  109101  108331  108702+
+         109497  109099
CHEXA      87043       1  108331  108702  109497  109099  108330  108700+
+         109501  109097
CHEXA      87044       1  108330  108700  109501  109097  108329  108698+
+         109505  109095
CHEXA      87045       1  108329  108698  109505  109095  108328  108696+
+         109509  109093
CHEXA      87046       1  108328  108696  109509  109093  108327  108694+
+         109513  109091
CHEXA      87047       1  108327  108694  109513  109091  108326  108692+
+         109517  109089
CHEXA      87048       1  108326  108692  109517  109089  108325  108690+
+         109521  109087
CHEXA      87049       1  108325  108690  109521  109087  108324  108688+
+         109525  109085
CHEXA      87050       1  108324  108688  109525  109085  108323  108686+
+         109529  109083
CHEXA      87051       1  108323  108686  109529  109083  108322  108684+
+         109533  109081
CHEXA      87052       1  108322  108684  109533  109081  108321  108682+
+         109537  109079
CHEXA      87053       1  108321  108682  109537  109079  108320  108680+
+         109541  109077
CHEXA      87054       1  108320  108680  109541  109077  108319  108678+
+         109545  109075
CHEXA      87055       1  108319  108678  109545  109075  108318  108676+
+         109549  109073
CHEXA      87056       1  108318  108676  109549  109073  108317  108674+
+         109553  109071
CHEXA      87057       1  108317  108674  109553  109071  108316  108672+
+         109557  109069
CHEXA      87058       1  108316  108672  109557  109069  108315  108670+
+         109561  109067
CHEXA      87059       1  108315  108670  109561  109067  108314  108668+
+         109565  109065
CHEXA      87060       1  108314  108668  109565  109065  108313  108666+
+         109569  109063
CHEXA      87061       1  108313  108666  109569  109063  108312  108664+
+         109573  109061
CHEXA      87062       1  108312  108664  109573  109061  108311  108662+
+         109577  109059
CHEXA      87063       1  108311  108662  109577  109059  108310  108660+
+         109581  109057
CHEXA      87064       1  108310  108660  109581  109057  108309  108658+
+         109585  109055
CHEXA      87065       1  108309  108658  109585  109055  108308  108656+
+         109589  109053
CHEXA      87066       1  108308  108656  109589  109053  108307  108654+
+         109593  109051
CHEXA      87067       1  108307  108654  109593  109051  108306  108652+
+         109597  109049
CHEXA      87068       1  108306  108652  109597  109049  108305  108650+
+         109601  109047
CHEXA      87069       1  108305  108650  109601  109047  108304  108648+
+         109605  109045
CHEXA      87070       1  108304  108648  109605  109045  108303  108646+
+         109609  109043
CHEXA      87071       1  108303  108646  109609  109043  108302  108644+
+         109613  109041
CHEXA      87072       1  108302  108644  109613  109041  108301  108642+
+         109617  109039
CHEXA      87073       1  108301  108642  109617  109039  108300  108640+
+         109621  109037
CHEXA      87074       1  108300  108640  109621  109037  108299  108638+
+         109625  109035
CHEXA      87075       1  108299  108638  109625  109035  108298  108636+
+         109629  109033
CHEXA      87076       1  108298  108636  109629  109033  108297  108634+
+         109633  109031
CHEXA      87077       1  108297  108634  109633  109031  108296  108632+
+         109637  109029
CHEXA      87078       1  108296  108632  109637  109029  108295  108630+
+         109641  109027
CHEXA      87079       1  108295  108630  109641  109027  108294  108628+
+         109645  109025
CHEXA      87080       1  108294  108628  109645  109025  108293  108626+
+         109649  109023
CHEXA      87081       1  108293  108626  109649  109023  108292  108624+
+         109653  109021
CHEXA      87082       1  108292  108624  109653  109021  108291  108622+
+         109657  109019
CHEXA      87083       1  108291  108622  109657  109019  108290  108620+
+         109661  109017
CHEXA      87084       1  108290  108620  109661  109017  108289  108618+
+         109665  109015
CHEXA      87085       1  108289  108618  109665  109015  108288  108616+
+         109669  109013
CHEXA      87086       1  108288  108616  109669  109013  108287  108614+
+         109673  109011
CHEXA      87087       1  108287  108614  109673  109011  108286  108612+
+         109677  109009
CHEXA      87088       1  108286  108612  109677  109009  108285  108610+
+         109681  109007
CHEXA      87089       1  108285  108610  109681  109007  108284  108608+
+         109685  109005
CHEXA      87090       1  108284  108608  109685  109005  108283  108606+
+         109689  109003
CHEXA      87091       1  108283  108606  109689  109003  108282  108604+
+         109693  109001
CHEXA      87092       1  108282  108604  109693  109001  108281  108602+
+         109697  108999
CHEXA      87093       1  108281  108602  109697  108999  108280  108600+
+         109701  108997
CHEXA      87094       1  108280  108600  109701  108997  108279  108598+
+         109705  108995
CHEXA      87095       1  108279  108598  109705  108995  108278  108596+
+         109709  108993
CHEXA      87096       1  108278  108596  109709  108993  108277  108594+
+         109713  108991
CHEXA      87097       1  108277  108594  109713  108991  108276  108592+
+         109717  108989
CHEXA      87098       1  108276  108592  109717  108989  108275  108590+
+         109721  108987
CHEXA      87099       1  108275  108590  109721  108987  108274  108588+
+         109725  108985
CHEXA      87100       1  108274  108588  109725  108985  108273  108586+
+         109729  108983
CHEXA      87101       1  108273  108586  109729  108983  108272  108584+
+         109733  108981
CHEXA      87102       1  108272  108584  109733  108981  108271  108582+
+         109737  108979
CHEXA      87103       1  108271  108582  109737  108979  108270  108580+
+         109741  108977
CHEXA      87104       1  108270  108580  109741  108977  108269  108578+
+         109745  108975
CHEXA      87105       1  108269  108578  109745  108975  108268  108576+
+         109749  108973
CHEXA      87106       1  108268  108576  109749  108973  108267  108574+
+         109753  108971
CHEXA      87107       1  108267  108574  109753  108971  108266  108572+
+         109757  108969
CHEXA      87108       1  108266  108572  109757  108969  108265  108570+
+         109761  108967
CHEXA      87109       1  108265  108570  109761  108967  108163  108563+
+         109365  108566
CHEXA      87110       1  103371  106965  106962  103370  109163  109369+
+         109366  109162
CHEXA      87111       1  109163  109369  109366  109162  109161  109373+
+         109370  109160
CHEXA      87112       1  109161  109373  109370  109160  109159  109377+
+         109374  109158
CHEXA      87113       1  109159  109377  109374  109158  109157  109381+
+         109378  109156
CHEXA      87114       1  109157  109381  109378  109156  109155  109385+
+         109382  109154
CHEXA      87115       1  109155  109385  109382  109154  109153  109389+
+         109386  109152
CHEXA      87116       1  109153  109389  109386  109152  109151  109393+
+         109390  109150
CHEXA      87117       1  109151  109393  109390  109150  109149  109397+
+         109394  109148
CHEXA      87118       1  109149  109397  109394  109148  109147  109401+
+         109398  109146
CHEXA      87119       1  109147  109401  109398  109146  109145  109405+
+         109402  109144
CHEXA      87120       1  109145  109405  109402  109144  109143  109409+
+         109406  109142
CHEXA      87121       1  109143  109409  109406  109142  109141  109413+
+         109410  109140
CHEXA      87122       1  109141  109413  109410  109140  109139  109417+
+         109414  109138
CHEXA      87123       1  109139  109417  109414  109138  109137  109421+
+         109418  109136
CHEXA      87124       1  109137  109421  109418  109136  109135  109425+
+         109422  109134
CHEXA      87125       1  109135  109425  109422  109134  109133  109429+
+         109426  109132
CHEXA      87126       1  109133  109429  109426  109132  109131  109433+
+         109430  109130
CHEXA      87127       1  109131  109433  109430  109130  109129  109437+
+         109434  109128
CHEXA      87128       1  109129  109437  109434  109128  109127  109441+
+         109438  109126
CHEXA      87129       1  109127  109441  109438  109126  109125  109445+
+         109442  109124
CHEXA      87130       1  109125  109445  109442  109124  109123  109449+
+         109446  109122
CHEXA      87131       1  109123  109449  109446  109122  109121  109453+
+         109450  109120
CHEXA      87132       1  109121  109453  109450  109120  109119  109457+
+         109454  109118
CHEXA      87133       1  109119  109457  109454  109118  109117  109461+
+         109458  109116
CHEXA      87134       1  109117  109461  109458  109116  109115  109465+
+         109462  109114
CHEXA      87135       1  109115  109465  109462  109114  109113  109469+
+         109466  109112
CHEXA      87136       1  109113  109469  109466  109112  109111  109473+
+         109470  109110
CHEXA      87137       1  109111  109473  109470  109110  109109  109477+
+         109474  109108
CHEXA      87138       1  109109  109477  109474  109108  109107  109481+
+         109478  109106
CHEXA      87139       1  109107  109481  109478  109106  109105  109485+
+         109482  109104
CHEXA      87140       1  109105  109485  109482  109104  109103  109489+
+         109486  109102
CHEXA      87141       1  109103  109489  109486  109102  109101  109493+
+         109490  109100
CHEXA      87142       1  109101  109493  109490  109100  109099  109497+
+         109494  109098
CHEXA      87143       1  109099  109497  109494  109098  109097  109501+
+         109498  109096
CHEXA      87144       1  109097  109501  109498  109096  109095  109505+
+         109502  109094
CHEXA      87145       1  109095  109505  109502  109094  109093  109509+
+         109506  109092
CHEXA      87146       1  109093  109509  109506  109092  109091  109513+
+         109510  109090
CHEXA      87147       1  109091  109513  109510  109090  109089  109517+
+         109514  109088
CHEXA      87148       1  109089  109517  109514  109088  109087  109521+
+         109518  109086
CHEXA      87149       1  109087  109521  109518  109086  109085  109525+
+         109522  109084
CHEXA      87150       1  109085  109525  109522  109084  109083  109529+
+         109526  109082
CHEXA      87151       1  109083  109529  109526  109082  109081  109533+
+         109530  109080
CHEXA      87152       1  109081  109533  109530  109080  109079  109537+
+         109534  109078
CHEXA      87153       1  109079  109537  109534  109078  109077  109541+
+         109538  109076
CHEXA      87154       1  109077  109541  109538  109076  109075  109545+
+         109542  109074
CHEXA      87155       1  109075  109545  109542  109074  109073  109549+
+         109546  109072
CHEXA      87156       1  109073  109549  109546  109072  109071  109553+
+         109550  109070
CHEXA      87157       1  109071  109553  109550  109070  109069  109557+
+         109554  109068
CHEXA      87158       1  109069  109557  109554  109068  109067  109561+
+         109558  109066
CHEXA      87159       1  109067  109561  109558  109066  109065  109565+
+         109562  109064
CHEXA      87160       1  109065  109565  109562  109064  109063  109569+
+         109566  109062
CHEXA      87161       1  109063  109569  109566  109062  109061  109573+
+         109570  109060
CHEXA      87162       1  109061  109573  109570  109060  109059  109577+
+         109574  109058
CHEXA      87163       1  109059  109577  109574  109058  109057  109581+
+         109578  109056
CHEXA      87164       1  109057  109581  109578  109056  109055  109585+
+         109582  109054
CHEXA      87165       1  109055  109585  109582  109054  109053  109589+
+         109586  109052
CHEXA      87166       1  109053  109589  109586  109052  109051  109593+
+         109590  109050
CHEXA      87167       1  109051  109593  109590  109050  109049  109597+
+         109594  109048
CHEXA      87168       1  109049  109597  109594  109048  109047  109601+
+         109598  109046
CHEXA      87169       1  109047  109601  109598  109046  109045  109605+
+         109602  109044
CHEXA      87170       1  109045  109605  109602  109044  109043  109609+
+         109606  109042
CHEXA      87171       1  109043  109609  109606  109042  109041  109613+
+         109610  109040
CHEXA      87172       1  109041  109613  109610  109040  109039  109617+
+         109614  109038
CHEXA      87173       1  109039  109617  109614  109038  109037  109621+
+         109618  109036
CHEXA      87174       1  109037  109621  109618  109036  109035  109625+
+         109622  109034
CHEXA      87175       1  109035  109625  109622  109034  109033  109629+
+         109626  109032
CHEXA      87176       1  109033  109629  109626  109032  109031  109633+
+         109630  109030
CHEXA      87177       1  109031  109633  109630  109030  109029  109637+
+         109634  109028
CHEXA      87178       1  109029  109637  109634  109028  109027  109641+
+         109638  109026
CHEXA      87179       1  109027  109641  109638  109026  109025  109645+
+         109642  109024
CHEXA      87180       1  109025  109645  109642  109024  109023  109649+
+         109646  109022
CHEXA      87181       1  109023  109649  109646  109022  109021  109653+
+         109650  109020
CHEXA      87182       1  109021  109653  109650  109020  109019  109657+
+         109654  109018
CHEXA      87183       1  109019  109657  109654  109018  109017  109661+
+         109658  109016
CHEXA      87184       1  109017  109661  109658  109016  109015  109665+
+         109662  109014
CHEXA      87185       1  109015  109665  109662  109014  109013  109669+
+         109666  109012
CHEXA      87186       1  109013  109669  109666  109012  109011  109673+
+         109670  109010
CHEXA      87187       1  109011  109673  109670  109010  109009  109677+
+         109674  109008
CHEXA      87188       1  109009  109677  109674  109008  109007  109681+
+         109678  109006
CHEXA      87189       1  109007  109681  109678  109006  109005  109685+
+         109682  109004
CHEXA      87190       1  109005  109685  109682  109004  109003  109689+
+         109686  109002
CHEXA      87191       1  109003  109689  109686  109002  109001  109693+
+         109690  109000
CHEXA      87192       1  109001  109693  109690  109000  108999  109697+
+         109694  108998
CHEXA      87193       1  108999  109697  109694  108998  108997  109701+
+         109698  108996
CHEXA      87194       1  108997  109701  109698  108996  108995  109705+
+         109702  108994
CHEXA      87195       1  108995  109705  109702  108994  108993  109709+
+         109706  108992
CHEXA      87196       1  108993  109709  109706  108992  108991  109713+
+         109710  108990
CHEXA      87197       1  108991  109713  109710  108990  108989  109717+
+         109714  108988
CHEXA      87198       1  108989  109717  109714  108988  108987  109721+
+         109718  108986
CHEXA      87199       1  108987  109721  109718  108986  108985  109725+
+         109722  108984
CHEXA      87200       1  108985  109725  109722  108984  108983  109729+
+         109726  108982
CHEXA      87201       1  108983  109729  109726  108982  108981  109733+
+         109730  108980
CHEXA      87202       1  108981  109733  109730  108980  108979  109737+
+         109734  108978
CHEXA      87203       1  108979  109737  109734  108978  108977  109741+
+         109738  108976
CHEXA      87204       1  108977  109741  109738  108976  108975  109745+
+         109742  108974
CHEXA      87205       1  108975  109745  109742  108974  108973  109749+
+         109746  108972
CHEXA      87206       1  108973  109749  109746  108972  108971  109753+
+         109750  108970
CHEXA      87207       1  108971  109753  109750  108970  108969  109757+
+         109754  108968
CHEXA      87208       1  108969  109757  109754  108968  108967  109761+
+         109758  108966
CHEXA      87209       1  108967  109761  109758  108966  108566  109365+
+         109362  108567
$*  Mesh Collector: Thin Shell(1)
$*  Mesh: 2d_mesh(1)
CQUAD8     80001       2   96922   96924   96925   96923   96926   96927+
+          96928   96929
CQUAD8     80002       2   96961   96954   96922   96948   96955   96930+
+          96931   96950
CQUAD8     80003       2   96954   96953   96924   96922   96956   96932+
+          96926   96930
CQUAD8     80004       2   96953   96960   96943   96924   96957   96945+
+          96933   96932
CQUAD8     80005       2   96924   96943   96944   96925   96933   96946+
+          96934   96927
CQUAD8     80006       2   96925   96944   96958   96938   96934   96947+
+          96940   96935
CQUAD8     80007       2   96923   96925   96938   96939   96928   96935+
+          96941   96936
CQUAD8     80008       2   96949   96923   96939   96959   96937   96936+
+          96942   96951
CQUAD8     80009       2   96948   96922   96923   96949   96931   96929+
+          96937   96952
$*
$* PROPERTY CARDS
$*
$*  Property: PSOLID1::free_body_diag_fem1::[1]
PSOLID         1       1       0                           SMECH
$*  Property: PSHELL1::free_body_diag_fem1::[2]
PSHELL         2       12.000000       11.000000       10.833333  0.0000
$*
$* MATERIAL CARDS
$*
$*  Material: Steel::free_body_diag_fem1::[1]
MAT1           12.0694+8        0.2880007.8290-61.1280-5
MATT1          1       1               2               3
TABLEM1        1                       1                                +
+        20.00002.0694+8 21.11002.0694+8    ENDT
TABLEM1        2                       1                                +
+        20.00000.288000 21.11000.288000 23.89000.288000 37.78000.288000+
+        51.67000.289000 65.56000.289000 79.44000.290000 93.33000.290000+
+       107.22000.291000121.11000.291000135.00000.291000148.89000.292000+
+       162.78000.292000176.67000.293000190.56000.293000204.44000.293000+
+       218.33000.294000232.22000.294000246.11000.294000260.00000.295000+
+       273.89000.295000287.78000.296000301.67000.296000315.56000.296000+
+       329.44000.297000343.33000.297000357.22000.298000371.11000.298000+
+       385.00000.298000398.89000.299000412.78000.299000426.67000.300000+
+       440.56000.300000454.44000.301000468.33000.301000482.22000.302000+
+       496.11000.302000510.00000.303000523.89000.304000537.78000.304000+
+       551.67000.305000565.56000.306000579.44000.307000593.33000.308000+
+       607.22000.309000621.11000.310000635.00000.311000648.89000.312000+
+       662.78000.313000676.67000.314000690.56000.316000704.44000.317000+
+           ENDT
TABLEM1        3                       1                                +
+        20.00001.1280-5 93.33001.1790-5107.22001.1880-5121.11001.1970-5+
+       135.00001.2060-5148.89001.2132-5162.78001.2222-5176.67001.2312-5+
+       190.56001.2402-5204.44001.2492-5218.33001.2582-5232.22001.2672-5+
+       246.11001.2762-5260.00001.2852-5273.89001.2942-5287.78001.3032-5+
+       301.67001.3122-5315.56001.3212-5329.44001.3302-5343.33001.3392-5+
+       357.22001.3464-5371.11001.3554-5385.00001.3644-5398.89001.3734-5+
+       412.78001.3806-5426.67001.3896-5440.56001.3986-5454.44001.4058-5+
+       468.33001.4148-5482.22001.4238-5496.11001.4310-5510.00001.4400-5+
+       523.89001.4472-5537.78001.4544-5551.67001.4616-5565.56001.4688-5+
+       579.44001.4742-5593.33001.4796-5607.22001.4832-5621.11001.4886-5+
+       635.00001.4904-5648.89001.4922-5662.78001.4922-5676.67001.4922-5+
+       690.56001.4904-5704.44001.4886-5718.33001.4850-5732.22001.4796-5+
+       746.11001.4724-5760.00001.4634-5773.89001.4472-5787.78001.4256-5+
+       801.67001.4004-5815.56001.3680-5    ENDT
$*
$* LOAD AND CONSTRAINT CARDS
$*
$*  Load: Force(1)
FORCE          1  100163       0 1666.67  0.0000  0.0000-1.00000
FORCE          1  100165       0 1666.67  0.0000  0.0000-1.00000
FORCE          1  100966       0 3333.33  0.0000  0.0000-1.00000
FORCE          1  100967       0 3333.33  0.0000  0.0000-1.00000
FORCE          1  103362       0 1666.67  0.0000  0.0000-1.00000
FORCE          1  103365       0 1666.67  0.0000  0.0000-1.00000
FORCE          1  103370       0 3333.33  0.0000  0.0000-1.00000
FORCE          1  103371       0 3333.33  0.0000  0.0000-1.00000
FORCE          1  103374       0 3333.33  0.0000  0.0000-1.00000
FORCE          1  103375       0 3333.33  0.0000  0.0000-1.00000
FORCE          1  103376       0 3333.33  0.0000  0.0000-1.00000
FORCE          1  103377       0 3333.33  0.0000  0.0000-1.00000
FORCE          1  103378       0 3333.33  0.0000  0.0000-1.00000
FORCE          1  103379       0 3333.33  0.0000  0.0000-1.00000
FORCE          1  103380       0 3333.33  0.0000  0.0000-1.00000
FORCE          1  103381       0 3333.33  0.0000  0.0000-1.00000
FORCE          1  103382       0 3333.33  0.0000  0.0000-1.00000
FORCE          1  103383       0 3333.33  0.0000  0.0000-1.00000
FORCE          1  103384       0 3333.33  0.0000  0.0000-1.00000
FORCE          1  103385       0 3333.33  0.0000  0.0000-1.00000
FORCE          1  103386       0 3333.33  0.0000  0.0000-1.00000
FORCE          1  103387       0 3333.33  0.0000  0.0000-1.00000
FORCE          1  103388       0 3333.33  0.0000  0.0000-1.00000
FORCE          1  103389       0 3333.33  0.0000  0.0000-1.00000
FORCE          1  103390       0 3333.33  0.0000  0.0000-1.00000
FORCE          1  103391       0 3333.33  0.0000  0.0000-1.00000
FORCE          1  103392       0 3333.33  0.0000  0.0000-1.00000
FORCE          1  103393       0 3333.33  0.0000  0.0000-1.00000
FORCE          1  103394       0 3333.33  0.0000  0.0000-1.00000
FORCE          1  103395       0 3333.33  0.0000  0.0000-1.00000
FORCE          1  103396       0 3333.33  0.0000  0.0000-1.00000
FORCE          1  103397       0 3333.33  0.0000  0.0000-1.00000
FORCE          1  103398       0 3333.33  0.0000  0.0000-1.00000
FORCE          1  103399       0 3333.33  0.0000  0.0000-1.00000
FORCE          1  103400       0 3333.33  0.0000  0.0000-1.00000
FORCE          1  103401       0 3333.33  0.0000  0.0000-1.00000
FORCE          1  103402       0 3333.33  0.0000  0.0000-1.00000
FORCE          1  103403       0 3333.33  0.0000  0.0000-1.00000
FORCE          1  103404       0 3333.33  0.0000  0.0000-1.00000
FORCE          1  103405       0 3333.33  0.0000  0.0000-1.00000
FORCE          1  103406       0 3333.33  0.0000  0.0000-1.00000
FORCE          1  103407       0 3333.33  0.0000  0.0000-1.00000
FORCE          1  103408       0 3333.33  0.0000  0.0000-1.00000
FORCE          1  103409       0 3333.33  0.0000  0.0000-1.00000
FORCE          1  103410       0 3333.33  0.0000  0.0000-1.00000
FORCE          1  103411       0 3333.33  0.0000  0.0000-1.00000
FORCE          1  103412       0 3333.33  0.0000  0.0000-1.00000
FORCE          1  103413       0 3333.33  0.0000  0.0000-1.00000
FORCE          1  103414       0 3333.33  0.0000  0.0000-1.00000
FORCE          1  103415       0 3333.33  0.0000  0.0000-1.00000
FORCE          1  103416       0 3333.33  0.0000  0.0000-1.00000
FORCE          1  103417       0 3333.33  0.0000  0.0000-1.00000
FORCE          1  103418       0 3333.33  0.0000  0.0000-1.00000
FORCE          1  103419       0 3333.33  0.0000  0.0000-1.00000
FORCE          1  103420       0 3333.33  0.0000  0.0000-1.00000
FORCE          1  103421       0 3333.33  0.0000  0.0000-1.00000
FORCE          1  103422       0 3333.33  0.0000  0.0000-1.00000
FORCE          1  103423       0 3333.33  0.0000  0.0000-1.00000
FORCE          1  103424       0 3333.33  0.0000  0.0000-1.00000
FORCE          1  103425       0 3333.33  0.0000  0.0000-1.00000
FORCE          1  103426       0 3333.33  0.0000  0.0000-1.00000
FORCE          1  103427       0 3333.33  0.0000  0.0000-1.00000
FORCE          1  103428       0 3333.33  0.0000  0.0000-1.00000
FORCE          1  103429       0 3333.33  0.0000  0.0000-1.00000
FORCE          1  103430       0 3333.33  0.0000  0.0000-1.00000
FORCE          1  103431       0 3333.33  0.0000  0.0000-1.00000
FORCE          1  103432       0 3333.33  0.0000  0.0000-1.00000
FORCE          1  103433       0 3333.33  0.0000  0.0000-1.00000
FORCE          1  103434       0 3333.33  0.0000  0.0000-1.00000
FORCE          1  103435       0 3333.33  0.0000  0.0000-1.00000
FORCE          1  103436       0 3333.33  0.0000  0.0000-1.00000
FORCE          1  103437       0 3333.33  0.0000  0.0000-1.00000
FORCE          1  103438       0 3333.33  0.0000  0.0000-1.00000
FORCE          1  103439       0 3333.33  0.0000  0.0000-1.00000
FORCE          1  103440       0 3333.33  0.0000  0.0000-1.00000
FORCE          1  103441       0 3333.33  0.0000  0.0000-1.00000
FORCE          1  103442       0 3333.33  0.0000  0.0000-1.00000
FORCE          1  103443       0 3333.33  0.0000  0.0000-1.00000
FORCE          1  103444       0 3333.33  0.0000  0.0000-1.00000
FORCE          1  103445       0 3333.33  0.0000  0.0000-1.00000
FORCE          1  103446       0 3333.33  0.0000  0.0000-1.00000
FORCE          1  103447       0 3333.33  0.0000  0.0000-1.00000
FORCE          1  103448       0 3333.33  0.0000  0.0000-1.00000
FORCE          1  103449       0 3333.33  0.0000  0.0000-1.00000
FORCE          1  103450       0 3333.33  0.0000  0.0000-1.00000
FORCE          1  103451       0 3333.33  0.0000  0.0000-1.00000
FORCE          1  103452       0 3333.33  0.0000  0.0000-1.00000
FORCE          1  103453       0 3333.33  0.0000  0.0000-1.00000
FORCE          1  103454       0 3333.33  0.0000  0.0000-1.00000
FORCE          1  103455       0 3333.33  0.0000  0.0000-1.00000
FORCE          1  103456       0 3333.33  0.0000  0.0000-1.00000
FORCE          1  103457       0 3333.33  0.0000  0.0000-1.00000
FORCE          1  103458       0 3333.33  0.0000  0.0000-1.00000
FORCE          1  103459       0 3333.33  0.0000  0.0000-1.00000
FORCE          1  103460       0 3333.33  0.0000  0.0000-1.00000
FORCE          1  103461       0 3333.33  0.0000  0.0000-1.00000
FORCE          1  103462       0 3333.33  0.0000  0.0000-1.00000
FORCE          1  103463       0 3333.33  0.0000  0.0000-1.00000
FORCE          1  103464       0 3333.33  0.0000  0.0000-1.00000
FORCE          1  103465       0 3333.33  0.0000  0.0000-1.00000
FORCE          1  103466       0 3333.33  0.0000  0.0000-1.00000
FORCE          1  103467       0 3333.33  0.0000  0.0000-1.00000
FORCE          1  103468       0 3333.33  0.0000  0.0000-1.00000
FORCE          1  103469       0 3333.33  0.0000  0.0000-1.00000
FORCE          1  103470       0 3333.33  0.0000  0.0000-1.00000
FORCE          1  103471       0 3333.33  0.0000  0.0000-1.00000
FORCE          1  103472       0 3333.33  0.0000  0.0000-1.00000
FORCE          1  103473       0 3333.33  0.0000  0.0000-1.00000
FORCE          1  103474       0 3333.33  0.0000  0.0000-1.00000
FORCE          1  103475       0 3333.33  0.0000  0.0000-1.00000
FORCE          1  103476       0 3333.33  0.0000  0.0000-1.00000
FORCE          1  103477       0 3333.33  0.0000  0.0000-1.00000
FORCE          1  103478       0 3333.33  0.0000  0.0000-1.00000
FORCE          1  103479       0 3333.33  0.0000  0.0000-1.00000
FORCE          1  103480       0 3333.33  0.0000  0.0000-1.00000
FORCE          1  103481       0 3333.33  0.0000  0.0000-1.00000
FORCE          1  103482       0 3333.33  0.0000  0.0000-1.00000
FORCE          1  103483       0 3333.33  0.0000  0.0000-1.00000
FORCE          1  103484       0 3333.33  0.0000  0.0000-1.00000
FORCE          1  103485       0 3333.33  0.0000  0.0000-1.00000
FORCE          1  103486       0 3333.33  0.0000  0.0000-1.00000
FORCE          1  103487       0 3333.33  0.0000  0.0000-1.00000
FORCE          1  103488       0 3333.33  0.0000  0.0000-1.00000
FORCE          1  103489       0 3333.33  0.0000  0.0000-1.00000
FORCE          1  103490       0 3333.33  0.0000  0.0000-1.00000
FORCE          1  103491       0 3333.33  0.0000  0.0000-1.00000
FORCE          1  103492       0 3333.33  0.0000  0.0000-1.00000
FORCE          1  103493       0 3333.33  0.0000  0.0000-1.00000
FORCE          1  103494       0 3333.33  0.0000  0.0000-1.00000
FORCE          1  103495       0 3333.33  0.0000  0.0000-1.00000
FORCE          1  103496       0 3333.33  0.0000  0.0000-1.00000
FORCE          1  103497       0 3333.33  0.0000  0.0000-1.00000
FORCE          1  103498       0 3333.33  0.0000  0.0000-1.00000
FORCE          1  103499       0 3333.33  0.0000  0.0000-1.00000
FORCE          1  103500       0 3333.33  0.0000  0.0000-1.00000
FORCE          1  103501       0 3333.33  0.0000  0.0000-1.00000
FORCE          1  103502       0 3333.33  0.0000  0.0000-1.00000
FORCE          1  103503       0 3333.33  0.0000  0.0000-1.00000
FORCE          1  103504       0 3333.33  0.0000  0.0000-1.00000
FORCE          1  103505       0 3333.33  0.0000  0.0000-1.00000
FORCE          1  103506       0 3333.33  0.0000  0.0000-1.00000
FORCE          1  103507       0 3333.33  0.0000  0.0000-1.00000
FORCE          1  103508       0 3333.33  0.0000  0.0000-1.00000
FORCE          1  103509       0 3333.33  0.0000  0.0000-1.00000
FORCE          1  103510       0 3333.33  0.0000  0.0000-1.00000
FORCE          1  103511       0 3333.33  0.0000  0.0000-1.00000
FORCE          1  103512       0 3333.33  0.0000  0.0000-1.00000
FORCE          1  103513       0 3333.33  0.0000  0.0000-1.00000
FORCE          1  103514       0 3333.33  0.0000  0.0000-1.00000
FORCE          1  103515       0 3333.33  0.0000  0.0000-1.00000
FORCE          1  103516       0 3333.33  0.0000  0.0000-1.00000
FORCE          1  103517       0 3333.33  0.0000  0.0000-1.00000
FORCE          1  103518       0 3333.33  0.0000  0.0000-1.00000
FORCE          1  103519       0 3333.33  0.0000  0.0000-1.00000
FORCE          1  103520       0 3333.33  0.0000  0.0000-1.00000
FORCE          1  103521       0 3333.33  0.0000  0.0000-1.00000
FORCE          1  103522       0 3333.33  0.0000  0.0000-1.00000
FORCE          1  103523       0 3333.33  0.0000  0.0000-1.00000
FORCE          1  103524       0 3333.33  0.0000  0.0000-1.00000
FORCE          1  103525       0 3333.33  0.0000  0.0000-1.00000
FORCE          1  103526       0 3333.33  0.0000  0.0000-1.00000
FORCE          1  103527       0 3333.33  0.0000  0.0000-1.00000
FORCE          1  103528       0 3333.33  0.0000  0.0000-1.00000
FORCE          1  103529       0 3333.33  0.0000  0.0000-1.00000
FORCE          1  103530       0 3333.33  0.0000  0.0000-1.00000
FORCE          1  103531       0 3333.33  0.0000  0.0000-1.00000
FORCE          1  103532       0 3333.33  0.0000  0.0000-1.00000
FORCE          1  103533       0 3333.33  0.0000  0.0000-1.00000
FORCE          1  103534       0 3333.33  0.0000  0.0000-1.00000
FORCE          1  103535       0 3333.33  0.0000  0.0000-1.00000
FORCE          1  103536       0 3333.33  0.0000  0.0000-1.00000
FORCE          1  103537       0 3333.33  0.0000  0.0000-1.00000
FORCE          1  103538       0 3333.33  0.0000  0.0000-1.00000
FORCE          1  103539       0 3333.33  0.0000  0.0000-1.00000
FORCE          1  103540       0 3333.33  0.0000  0.0000-1.00000
FORCE          1  103541       0 3333.33  0.0000  0.0000-1.00000
FORCE          1  103542       0 3333.33  0.0000  0.0000-1.00000
FORCE          1  103543       0 3333.33  0.0000  0.0000-1.00000
FORCE          1  103544       0 3333.33  0.0000  0.0000-1.00000
FORCE          1  103545       0 3333.33  0.0000  0.0000-1.00000
FORCE          1  103546       0 3333.33  0.0000  0.0000-1.00000
FORCE          1  103547       0 3333.33  0.0000  0.0000-1.00000
FORCE          1  103548       0 3333.33  0.0000  0.0000-1.00000
FORCE          1  103549       0 3333.33  0.0000  0.0000-1.00000
FORCE          1  103550       0 3333.33  0.0000  0.0000-1.00000
FORCE          1  103551       0 3333.33  0.0000  0.0000-1.00000
FORCE          1  103552       0 3333.33  0.0000  0.0000-1.00000
FORCE          1  103553       0 3333.33  0.0000  0.0000-1.00000
FORCE          1  103554       0 3333.33  0.0000  0.0000-1.00000
FORCE          1  103555       0 3333.33  0.0000  0.0000-1.00000
FORCE          1  103556       0 3333.33  0.0000  0.0000-1.00000
FORCE          1  103557       0 3333.33  0.0000  0.0000-1.00000
FORCE          1  103558       0 3333.33  0.0000  0.0000-1.00000
FORCE          1  103559       0 3333.33  0.0000  0.0000-1.00000
FORCE          1  103560       0 3333.33  0.0000  0.0000-1.00000
FORCE          1  103561       0 3333.33  0.0000  0.0000-1.00000
FORCE          1  103562       0 3333.33  0.0000  0.0000-1.00000
FORCE          1  103563       0 3333.33  0.0000  0.0000-1.00000
FORCE          1  103564       0 3333.33  0.0000  0.0000-1.00000
FORCE          1  103565       0 3333.33  0.0000  0.0000-1.00000
FORCE          1  103566       0 3333.33  0.0000  0.0000-1.00000
FORCE          1  103567       0 3333.33  0.0000  0.0000-1.00000
FORCE          1  103568       0 3333.33  0.0000  0.0000-1.00000
FORCE          1  103569       0 3333.33  0.0000  0.0000-1.00000
FORCE          1  103570       0 3333.33  0.0000  0.0000-1.00000
FORCE          1  103571       0 3333.33  0.0000  0.0000-1.00000
FORCE          1  103572       0 3333.33  0.0000  0.0000-1.00000
FORCE          1  103573       0 3333.33  0.0000  0.0000-1.00000
FORCE          1  103574       0 3333.33  0.0000  0.0000-1.00000
FORCE          1  103575       0 3333.33  0.0000  0.0000-1.00000
FORCE          1  103576       0 3333.33  0.0000  0.0000-1.00000
FORCE          1  103577       0 3333.33  0.0000  0.0000-1.00000
FORCE          1  103578       0 3333.33  0.0000  0.0000-1.00000
FORCE          1  103579       0 3333.33  0.0000  0.0000-1.00000
FORCE          1  103580       0 3333.33  0.0000  0.0000-1.00000
FORCE          1  103581       0 3333.33  0.0000  0.0000-1.00000
FORCE          1  103582       0 3333.33  0.0000  0.0000-1.00000
FORCE          1  103583       0 3333.33  0.0000  0.0000-1.00000
FORCE          1  103584       0 3333.33  0.0000  0.0000-1.00000
FORCE          1  103585       0 3333.33  0.0000  0.0000-1.00000
FORCE          1  103586       0 3333.33  0.0000  0.0000-1.00000
FORCE          1  103587       0 3333.33  0.0000  0.0000-1.00000
FORCE          1  103588       0 3333.33  0.0000  0.0000-1.00000
FORCE          1  103589       0 3333.33  0.0000  0.0000-1.00000
FORCE          1  103590       0 3333.33  0.0000  0.0000-1.00000
FORCE          1  103591       0 3333.33  0.0000  0.0000-1.00000
FORCE          1  103592       0 3333.33  0.0000  0.0000-1.00000
FORCE          1  103593       0 3333.33  0.0000  0.0000-1.00000
FORCE          1  103594       0 3333.33  0.0000  0.0000-1.00000
FORCE          1  103595       0 3333.33  0.0000  0.0000-1.00000
FORCE          1  103596       0 3333.33  0.0000  0.0000-1.00000
FORCE          1  103597       0 3333.33  0.0000  0.0000-1.00000
FORCE          1  103598       0 3333.33  0.0000  0.0000-1.00000
FORCE          1  103599       0 3333.33  0.0000  0.0000-1.00000
FORCE          1  103600       0 3333.33  0.0000  0.0000-1.00000
FORCE          1  103601       0 3333.33  0.0000  0.0000-1.00000
FORCE          1  103602       0 3333.33  0.0000  0.0000-1.00000
FORCE          1  103603       0 3333.33  0.0000  0.0000-1.00000
FORCE          1  103604       0 3333.33  0.0000  0.0000-1.00000
FORCE          1  103605       0 3333.33  0.0000  0.0000-1.00000
FORCE          1  103606       0 3333.33  0.0000  0.0000-1.00000
FORCE          1  103607       0 3333.33  0.0000  0.0000-1.00000
FORCE          1  103608       0 3333.33  0.0000  0.0000-1.00000
FORCE          1  103609       0 3333.33  0.0000  0.0000-1.00000
FORCE          1  103610       0 3333.33  0.0000  0.0000-1.00000
FORCE          1  103611       0 3333.33  0.0000  0.0000-1.00000
FORCE          1  103612       0 3333.33  0.0000  0.0000-1.00000
FORCE          1  103613       0 3333.33  0.0000  0.0000-1.00000
FORCE          1  103614       0 3333.33  0.0000  0.0000-1.00000
FORCE          1  103615       0 3333.33  0.0000  0.0000-1.00000
FORCE          1  103616       0 3333.33  0.0000  0.0000-1.00000
FORCE          1  103617       0 3333.33  0.0000  0.0000-1.00000
FORCE          1  103618       0 3333.33  0.0000  0.0000-1.00000
FORCE          1  103619       0 3333.33  0.0000  0.0000-1.00000
FORCE          1  103620       0 3333.33  0.0000  0.0000-1.00000
FORCE          1  103621       0 3333.33  0.0000  0.0000-1.00000
FORCE          1  103622       0 3333.33  0.0000  0.0000-1.00000
FORCE          1  103623       0 3333.33  0.0000  0.0000-1.00000
FORCE          1  103624       0 3333.33  0.0000  0.0000-1.00000
FORCE          1  103625       0 3333.33  0.0000  0.0000-1.00000
FORCE          1  103626       0 3333.33  0.0000  0.0000-1.00000
FORCE          1  103627       0 3333.33  0.0000  0.0000-1.00000
FORCE          1  103628       0 3333.33  0.0000  0.0000-1.00000
FORCE          1  103629       0 3333.33  0.0000  0.0000-1.00000
FORCE          1  103630       0 3333.33  0.0000  0.0000-1.00000
FORCE          1  103631       0 3333.33  0.0000  0.0000-1.00000
FORCE          1  103632       0 3333.33  0.0000  0.0000-1.00000
FORCE          1  103633       0 3333.33  0.0000  0.0000-1.00000
FORCE          1  103634       0 3333.33  0.0000  0.0000-1.00000
FORCE          1  103635       0 3333.33  0.0000  0.0000-1.00000
FORCE          1  103636       0 3333.33  0.0000  0.0000-1.00000
FORCE          1  103637       0 3333.33  0.0000  0.0000-1.00000
FORCE          1  103638       0 3333.33  0.0000  0.0000-1.00000
FORCE          1  103639       0 3333.33  0.0000  0.0000-1.00000
FORCE          1  103640       0 3333.33  0.0000  0.0000-1.00000
FORCE          1  103641       0 3333.33  0.0000  0.0000-1.00000
FORCE          1  103642       0 3333.33  0.0000  0.0000-1.00000
FORCE          1  103643       0 3333.33  0.0000  0.0000-1.00000
FORCE          1  103644       0 3333.33  0.0000  0.0000-1.00000
FORCE          1  103645       0 3333.33  0.0000  0.0000-1.00000
FORCE          1  103646       0 3333.33  0.0000  0.0000-1.00000
FORCE          1  103647       0 3333.33  0.0000  0.0000-1.00000
FORCE          1  103648       0 3333.33  0.0000  0.0000-1.00000
FORCE          1  103649       0 3333.33  0.0000  0.0000-1.00000
FORCE          1  103650       0 3333.33  0.0000  0.0000-1.00000
FORCE          1  103651       0 3333.33  0.0000  0.0000-1.00000
FORCE          1  103652       0 3333.33  0.0000  0.0000-1.00000
FORCE          1  103653       0 3333.33  0.0000  0.0000-1.00000
FORCE          1  103654       0 3333.33  0.0000  0.0000-1.00000
FORCE          1  103655       0 3333.33  0.0000  0.0000-1.00000
FORCE          1  103656       0 3333.33  0.0000  0.0000-1.00000
FORCE          1  103657       0 3333.33  0.0000  0.0000-1.00000
FORCE          1  103658       0 3333.33  0.0000  0.0000-1.00000
FORCE          1  103659       0 3333.33  0.0000  0.0000-1.00000
FORCE          1  103660       0 3333.33  0.0000  0.0000-1.00000
FORCE          1  103661       0 3333.33  0.0000  0.0000-1.00000
FORCE          1  103662       0 3333.33  0.0000  0.0000-1.00000
FORCE          1  103663       0 3333.33  0.0000  0.0000-1.00000
FORCE          1  103664       0 3333.33  0.0000  0.0000-1.00000
FORCE          1  103665       0 3333.33  0.0000  0.0000-1.00000
FORCE          1  103666       0 3333.33  0.0000  0.0000-1.00000
FORCE          1  103667       0 3333.33  0.0000  0.0000-1.00000
FORCE          1  103668       0 3333.33  0.0000  0.0000-1.00000
FORCE          1  103669       0 3333.33  0.0000  0.0000-1.00000
FORCE          1  103670       0 3333.33  0.0000  0.0000-1.00000
FORCE          1  103671       0 3333.33  0.0000  0.0000-1.00000
FORCE          1  103672       0 3333.33  0.0000  0.0000-1.00000
FORCE          1  104271       0 3333.33  0.0000  0.0000-1.00000
FORCE          1  104272       0 3333.33  0.0000  0.0000-1.00000
FORCE          1  104273       0 3333.33  0.0000  0.0000-1.00000
FORCE          1  104274       0 3333.33  0.0000  0.0000-1.00000
FORCE          1  104275       0 3333.33  0.0000  0.0000-1.00000
FORCE          1  104276       0 3333.33  0.0000  0.0000-1.00000
FORCE          1  104277       0 3333.33  0.0000  0.0000-1.00000
FORCE          1  104278       0 3333.33  0.0000  0.0000-1.00000
FORCE          1  104279       0 3333.33  0.0000  0.0000-1.00000
FORCE          1  104280       0 3333.33  0.0000  0.0000-1.00000
FORCE          1  104281       0 3333.33  0.0000  0.0000-1.00000
FORCE          1  104282       0 3333.33  0.0000  0.0000-1.00000
FORCE          1  104283       0 3333.33  0.0000  0.0000-1.00000
FORCE          1  104284       0 3333.33  0.0000  0.0000-1.00000
FORCE          1  104285       0 3333.33  0.0000  0.0000-1.00000
FORCE          1  104286       0 3333.33  0.0000  0.0000-1.00000
FORCE          1  104287       0 3333.33  0.0000  0.0000-1.00000
FORCE          1  104288       0 3333.33  0.0000  0.0000-1.00000
FORCE          1  104289       0 3333.33  0.0000  0.0000-1.00000
FORCE          1  104290       0 3333.33  0.0000  0.0000-1.00000
FORCE          1  104291       0 3333.33  0.0000  0.0000-1.00000
FORCE          1  104292       0 3333.33  0.0000  0.0000-1.00000
FORCE          1  104293       0 3333.33  0.0000  0.0000-1.00000
FORCE          1  104294       0 3333.33  0.0000  0.0000-1.00000
FORCE          1  104295       0 3333.33  0.0000  0.0000-1.00000
FORCE          1  104296       0 3333.33  0.0000  0.0000-1.00000
FORCE          1  104297       0 3333.33  0.0000  0.0000-1.00000
FORCE          1  104298       0 3333.33  0.0000  0.0000-1.00000
FORCE          1  104299       0 3333.33  0.0000  0.0000-1.00000
FORCE          1  104300       0 3333.33  0.0000  0.0000-1.00000
FORCE          1  104301       0 3333.33  0.0000  0.0000-1.00000
FORCE          1  104302       0 3333.33  0.0000  0.0000-1.00000
FORCE          1  104303       0 3333.33  0.0000  0.0000-1.00000
FORCE          1  104304       0 3333.33  0.0000  0.0000-1.00000
FORCE          1  104305       0 3333.33  0.0000  0.0000-1.00000
FORCE          1  104306       0 3333.33  0.0000  0.0000-1.00000
FORCE          1  104307       0 3333.33  0.0000  0.0000-1.00000
FORCE          1  104308       0 3333.33  0.0000  0.0000-1.00000
FORCE          1  104309       0 3333.33  0.0000  0.0000-1.00000
FORCE          1  104310       0 3333.33  0.0000  0.0000-1.00000
FORCE          1  104311       0 3333.33  0.0000  0.0000-1.00000
FORCE          1  104312       0 3333.33  0.0000  0.0000-1.00000
FORCE          1  104313       0 3333.33  0.0000  0.0000-1.00000
FORCE          1  104314       0 3333.33  0.0000  0.0000-1.00000
FORCE          1  104315       0 3333.33  0.0000  0.0000-1.00000
FORCE          1  104316       0 3333.33  0.0000  0.0000-1.00000
FORCE          1  104317       0 3333.33  0.0000  0.0000-1.00000
FORCE          1  104318       0 3333.33  0.0000  0.0000-1.00000
FORCE          1  104319       0 3333.33  0.0000  0.0000-1.00000
FORCE          1  104320       0 3333.33  0.0000  0.0000-1.00000
FORCE          1  104321       0 3333.33  0.0000  0.0000-1.00000
FORCE          1  104322       0 3333.33  0.0000  0.0000-1.00000
FORCE          1  104323       0 3333.33  0.0000  0.0000-1.00000
FORCE          1  104324       0 3333.33  0.0000  0.0000-1.00000
FORCE          1  104325       0 3333.33  0.0000  0.0000-1.00000
FORCE          1  104326       0 3333.33  0.0000  0.0000-1.00000
FORCE          1  104327       0 3333.33  0.0000  0.0000-1.00000
FORCE          1  104328       0 3333.33  0.0000  0.0000-1.00000
FORCE          1  104329       0 3333.33  0.0000  0.0000-1.00000
FORCE          1  104330       0 3333.33  0.0000  0.0000-1.00000
FORCE          1  104331       0 3333.33  0.0000  0.0000-1.00000
FORCE          1  104332       0 3333.33  0.0000  0.0000-1.00000
FORCE          1  104333       0 3333.33  0.0000  0.0000-1.00000
FORCE          1  104334       0 3333.33  0.0000  0.0000-1.00000
FORCE          1  104335       0 3333.33  0.0000  0.0000-1.00000
FORCE          1  104336       0 3333.33  0.0000  0.0000-1.00000
FORCE          1  104337       0 3333.33  0.0000  0.0000-1.00000
FORCE          1  104338       0 3333.33  0.0000  0.0000-1.00000
FORCE          1  104339       0 3333.33  0.0000  0.0000-1.00000
FORCE          1  104340       0 3333.33  0.0000  0.0000-1.00000
FORCE          1  104341       0 3333.33  0.0000  0.0000-1.00000
FORCE          1  104342       0 3333.33  0.0000  0.0000-1.00000
FORCE          1  104343       0 3333.33  0.0000  0.0000-1.00000
FORCE          1  104344       0 3333.33  0.0000  0.0000-1.00000
FORCE          1  104345       0 3333.33  0.0000  0.0000-1.00000
FORCE          1  104346       0 3333.33  0.0000  0.0000-1.00000
FORCE          1  104347       0 3333.33  0.0000  0.0000-1.00000
FORCE          1  104348       0 3333.33  0.0000  0.0000-1.00000
FORCE          1  104349       0 3333.33  0.0000  0.0000-1.00000
FORCE          1  104350       0 3333.33  0.0000  0.0000-1.00000
FORCE          1  104351       0 3333.33  0.0000  0.0000-1.00000
FORCE          1  104352       0 3333.33  0.0000  0.0000-1.00000
FORCE          1  104353       0 3333.33  0.0000  0.0000-1.00000
FORCE          1  104354       0 3333.33  0.0000  0.0000-1.00000
FORCE          1  104355       0 3333.33  0.0000  0.0000-1.00000
FORCE          1  104356       0 3333.33  0.0000  0.0000-1.00000
FORCE          1  104357       0 3333.33  0.0000  0.0000-1.00000
FORCE          1  104358       0 3333.33  0.0000  0.0000-1.00000
FORCE          1  104359       0 3333.33  0.0000  0.0000-1.00000
FORCE          1  104360       0 3333.33  0.0000  0.0000-1.00000
FORCE          1  104361       0 3333.33  0.0000  0.0000-1.00000
FORCE          1  104362       0 3333.33  0.0000  0.0000-1.00000
FORCE          1  104363       0 3333.33  0.0000  0.0000-1.00000
FORCE          1  104364       0 3333.33  0.0000  0.0000-1.00000
FORCE          1  104365       0 3333.33  0.0000  0.0000-1.00000
FORCE          1  104366       0 3333.33  0.0000  0.0000-1.00000
FORCE          1  104367       0 3333.33  0.0000  0.0000-1.00000
FORCE          1  104368       0 3333.33  0.0000  0.0000-1.00000
FORCE          1  104369       0 3333.33  0.0000  0.0000-1.00000
FORCE          1  104370       0 3333.33  0.0000  0.0000-1.00000
FORCE          1  104371       0 3333.33  0.0000  0.0000-1.00000
FORCE          1  104372       0 3333.33  0.0000  0.0000-1.00000
FORCE          1  104373       0 3333.33  0.0000  0.0000-1.00000
FORCE          1  104374       0 3333.33  0.0000  0.0000-1.00000
FORCE          1  104375       0 3333.33  0.0000  0.0000-1.00000
FORCE          1  104376       0 3333.33  0.0000  0.0000-1.00000
FORCE          1  104377       0 3333.33  0.0000  0.0000-1.00000
FORCE          1  104378       0 3333.33  0.0000  0.0000-1.00000
FORCE          1  104379       0 3333.33  0.0000  0.0000-1.00000
FORCE          1  104380       0 3333.33  0.0000  0.0000-1.00000
FORCE          1  104381       0 3333.33  0.0000  0.0000-1.00000
FORCE          1  104382       0 3333.33  0.0000  0.0000-1.00000
FORCE          1  104383       0 3333.33  0.0000  0.0000-1.00000
FORCE          1  104384       0 3333.33  0.0000  0.0000-1.00000
FORCE          1  104385       0 3333.33  0.0000  0.0000-1.00000
FORCE          1  104386       0 3333.33  0.0000  0.0000-1.00000
FORCE          1  104387       0 3333.33  0.0000  0.0000-1.00000
FORCE          1  104388       0 3333.33  0.0000  0.0000-1.00000
FORCE          1  104389       0 3333.33  0.0000  0.0000-1.00000
FORCE          1  104390       0 3333.33  0.0000  0.0000-1.00000
FORCE          1  104391       0 3333.33  0.0000  0.0000-1.00000
FORCE          1  104392       0 3333.33  0.0000  0.0000-1.00000
FORCE          1  104393       0 3333.33  0.0000  0.0000-1.00000
FORCE          1  104394       0 3333.33  0.0000  0.0000-1.00000
FORCE          1  104395       0 3333.33  0.0000  0.0000-1.00000
FORCE          1  104396       0 3333.33  0.0000  0.0000-1.00000
FORCE          1  104397       0 3333.33  0.0000  0.0000-1.00000
FORCE          1  104398       0 3333.33  0.0000  0.0000-1.00000
FORCE          1  104399       0 3333.33  0.0000  0.0000-1.00000
FORCE          1  104400       0 3333.33  0.0000  0.0000-1.00000
FORCE          1  104401       0 3333.33  0.0000  0.0000-1.00000
FORCE          1  104402       0 3333.33  0.0000  0.0000-1.00000
FORCE          1  104403       0 3333.33  0.0000  0.0000-1.00000
FORCE          1  104404       0 3333.33  0.0000  0.0000-1.00000
FORCE          1  104405       0 3333.33  0.0000  0.0000-1.00000
FORCE          1  104406       0 3333.33  0.0000  0.0000-1.00000
FORCE          1  104407       0 3333.33  0.0000  0.0000-1.00000
FORCE          1  104408       0 3333.33  0.0000  0.0000-1.00000
FORCE          1  104409       0 3333.33  0.0000  0.0000-1.00000
FORCE          1  104410       0 3333.33  0.0000  0.0000-1.00000
FORCE          1  104411       0 3333.33  0.0000  0.0000-1.00000
FORCE          1  104412       0 3333.33  0.0000  0.0000-1.00000
FORCE          1  104413       0 3333.33  0.0000  0.0000-1.00000
FORCE          1  104414       0 3333.33  0.0000  0.0000-1.00000
FORCE          1  104415       0 3333.33  0.0000  0.0000-1.00000
FORCE          1  104416       0 3333.33  0.0000  0.0000-1.00000
FORCE          1  104417       0 3333.33  0.0000  0.0000-1.00000
FORCE          1  104418       0 3333.33  0.0000  0.0000-1.00000
FORCE          1  104419       0 3333.33  0.0000  0.0000-1.00000
FORCE          1  104420       0 3333.33  0.0000  0.0000-1.00000
FORCE          1  104421       0 3333.33  0.0000  0.0000-1.00000
FORCE          1  104422       0 3333.33  0.0000  0.0000-1.00000
FORCE          1  104423       0 3333.33  0.0000  0.0000-1.00000
FORCE          1  104424       0 3333.33  0.0000  0.0000-1.00000
FORCE          1  104425       0 3333.33  0.0000  0.0000-1.00000
FORCE          1  104426       0 3333.33  0.0000  0.0000-1.00000
FORCE          1  104427       0 3333.33  0.0000  0.0000-1.00000
FORCE          1  104428       0 3333.33  0.0000  0.0000-1.00000
FORCE          1  104429       0 3333.33  0.0000  0.0000-1.00000
FORCE          1  104430       0 3333.33  0.0000  0.0000-1.00000
FORCE          1  104431       0 3333.33  0.0000  0.0000-1.00000
FORCE          1  104432       0 3333.33  0.0000  0.0000-1.00000
FORCE          1  104433       0 3333.33  0.0000  0.0000-1.00000
FORCE          1  104434       0 3333.33  0.0000  0.0000-1.00000
FORCE          1  104435       0 3333.33  0.0000  0.0000-1.00000
FORCE          1  104436       0 3333.33  0.0000  0.0000-1.00000
FORCE          1  104437       0 3333.33  0.0000  0.0000-1.00000
FORCE          1  104438       0 3333.33  0.0000  0.0000-1.00000
FORCE          1  104439       0 3333.33  0.0000  0.0000-1.00000
FORCE          1  104440       0 3333.33  0.0000  0.0000-1.00000
FORCE          1  104441       0 3333.33  0.0000  0.0000-1.00000
FORCE          1  104442       0 3333.33  0.0000  0.0000-1.00000
FORCE          1  104443       0 3333.33  0.0000  0.0000-1.00000
FORCE          1  104444       0 3333.33  0.0000  0.0000-1.00000
FORCE          1  104445       0 3333.33  0.0000  0.0000-1.00000
FORCE          1  104446       0 3333.33  0.0000  0.0000-1.00000
FORCE          1  104447       0 3333.33  0.0000  0.0000-1.00000
FORCE          1  104448       0 3333.33  0.0000  0.0000-1.00000
FORCE          1  104449       0 3333.33  0.0000  0.0000-1.00000
FORCE          1  104450       0 3333.33  0.0000  0.0000-1.00000
FORCE          1  104451       0 3333.33  0.0000  0.0000-1.00000
FORCE          1  104452       0 3333.33  0.0000  0.0000-1.00000
FORCE          1  104453       0 3333.33  0.0000  0.0000-1.00000
FORCE          1  104454       0 3333.33  0.0000  0.0000-1.00000
FORCE          1  104455       0 3333.33  0.0000  0.0000-1.00000
FORCE          1  104456       0 3333.33  0.0000  0.0000-1.00000
FORCE          1  104457       0 3333.33  0.0000  0.0000-1.00000
FORCE          1  104458       0 3333.33  0.0000  0.0000-1.00000
FORCE          1  104459       0 3333.33  0.0000  0.0000-1.00000
FORCE          1  104460       0 3333.33  0.0000  0.0000-1.00000
FORCE          1  104461       0 3333.33  0.0000  0.0000-1.00000
FORCE          1  104462       0 3333.33  0.0000  0.0000-1.00000
FORCE          1  104463       0 3333.33  0.0000  0.0000-1.00000
FORCE          1  104464       0 3333.33  0.0000  0.0000-1.00000
FORCE          1  104465       0 3333.33  0.0000  0.0000-1.00000
FORCE          1  104466       0 3333.33  0.0000  0.0000-1.00000
FORCE          1  104467       0 3333.33  0.0000  0.0000-1.00000
FORCE          1  104468       0 3333.33  0.0000  0.0000-1.00000
FORCE          1  104469       0 3333.33  0.0000  0.0000-1.00000
FORCE          1  104470       0 3333.33  0.0000  0.0000-1.00000
FORCE          1  104471       0 3333.33  0.0000  0.0000-1.00000
FORCE          1  104472       0 3333.33  0.0000  0.0000-1.00000
FORCE          1  104473       0 3333.33  0.0000  0.0000-1.00000
FORCE          1  104474       0 3333.33  0.0000  0.0000-1.00000
FORCE          1  104475       0 3333.33  0.0000  0.0000-1.00000
FORCE          1  104476       0 3333.33  0.0000  0.0000-1.00000
FORCE          1  104477       0 3333.33  0.0000  0.0000-1.00000
FORCE          1  104478       0 3333.33  0.0000  0.0000-1.00000
FORCE          1  104479       0 3333.33  0.0000  0.0000-1.00000
FORCE          1  104480       0 3333.33  0.0000  0.0000-1.00000
FORCE          1  104481       0 3333.33  0.0000  0.0000-1.00000
FORCE          1  104482       0 3333.33  0.0000  0.0000-1.00000
FORCE          1  104483       0 3333.33  0.0000  0.0000-1.00000
FORCE          1  104484       0 3333.33  0.0000  0.0000-1.00000
FORCE          1  104485       0 3333.33  0.0000  0.0000-1.00000
FORCE          1  104486       0 3333.33  0.0000  0.0000-1.00000
FORCE          1  104487       0 3333.33  0.0000  0.0000-1.00000
FORCE          1  104488       0 3333.33  0.0000  0.0000-1.00000
FORCE          1  104489       0 3333.33  0.0000  0.0000-1.00000
FORCE          1  104490       0 3333.33  0.0000  0.0000-1.00000
FORCE          1  104491       0 3333.33  0.0000  0.0000-1.00000
FORCE          1  104492       0 3333.33  0.0000  0.0000-1.00000
FORCE          1  104493       0 3333.33  0.0000  0.0000-1.00000
FORCE          1  104494       0 3333.33  0.0000  0.0000-1.00000
FORCE          1  104495       0 3333.33  0.0000  0.0000-1.00000
FORCE          1  104496       0 3333.33  0.0000  0.0000-1.00000
FORCE          1  104497       0 3333.33  0.0000  0.0000-1.00000
FORCE          1  104498       0 3333.33  0.0000  0.0000-1.00000
FORCE          1  104499       0 3333.33  0.0000  0.0000-1.00000
FORCE          1  104500       0 3333.33  0.0000  0.0000-1.00000
FORCE          1  104501       0 3333.33  0.0000  0.0000-1.00000
FORCE          1  104502       0 3333.33  0.0000  0.0000-1.00000
FORCE          1  104503       0 3333.33  0.0000  0.0000-1.00000
FORCE          1  104504       0 3333.33  0.0000  0.0000-1.00000
FORCE          1  104505       0 3333.33  0.0000  0.0000-1.00000
FORCE          1  104506       0 3333.33  0.0000  0.0000-1.00000
FORCE          1  104507       0 3333.33  0.0000  0.0000-1.00000
FORCE          1  104508       0 3333.33  0.0000  0.0000-1.00000
FORCE          1  104509       0 3333.33  0.0000  0.0000-1.00000
FORCE          1  104510       0 3333.33  0.0000  0.0000-1.00000
FORCE          1  104511       0 3333.33  0.0000  0.0000-1.00000
FORCE          1  104512       0 3333.33  0.0000  0.0000-1.00000
FORCE          1  104513       0 3333.33  0.0000  0.0000-1.00000
FORCE          1  104514       0 3333.33  0.0000  0.0000-1.00000
FORCE          1  104515       0 3333.33  0.0000  0.0000-1.00000
FORCE          1  104516       0 3333.33  0.0000  0.0000-1.00000
FORCE          1  104517       0 3333.33  0.0000  0.0000-1.00000
FORCE          1  104518       0 3333.33  0.0000  0.0000-1.00000
FORCE          1  104519       0 3333.33  0.0000  0.0000-1.00000
FORCE          1  104520       0 3333.33  0.0000  0.0000-1.00000
FORCE          1  104521       0 3333.33  0.0000  0.0000-1.00000
FORCE          1  104522       0 3333.33  0.0000  0.0000-1.00000
FORCE          1  104523       0 3333.33  0.0000  0.0000-1.00000
FORCE          1  104524       0 3333.33  0.0000  0.0000-1.00000
FORCE          1  104525       0 3333.33  0.0000  0.0000-1.00000
FORCE          1  104526       0 3333.33  0.0000  0.0000-1.00000
FORCE          1  104527       0 3333.33  0.0000  0.0000-1.00000
FORCE          1  104528       0 3333.33  0.0000  0.0000-1.00000
FORCE          1  104529       0 3333.33  0.0000  0.0000-1.00000
FORCE          1  104530       0 3333.33  0.0000  0.0000-1.00000
FORCE          1  104531       0 3333.33  0.0000  0.0000-1.00000
FORCE          1  104532       0 3333.33  0.0000  0.0000-1.00000
FORCE          1  104533       0 3333.33  0.0000  0.0000-1.00000
FORCE          1  104534       0 3333.33  0.0000  0.0000-1.00000
FORCE          1  104535       0 3333.33  0.0000  0.0000-1.00000
FORCE          1  104536       0 3333.33  0.0000  0.0000-1.00000
FORCE          1  104537       0 3333.33  0.0000  0.0000-1.00000
FORCE          1  104538       0 3333.33  0.0000  0.0000-1.00000
FORCE          1  104539       0 3333.33  0.0000  0.0000-1.00000
FORCE          1  104540       0 3333.33  0.0000  0.0000-1.00000
FORCE          1  104541       0 3333.33  0.0000  0.0000-1.00000
FORCE          1  104542       0 3333.33  0.0000  0.0000-1.00000
FORCE          1  104543       0 3333.33  0.0000  0.0000-1.00000
FORCE          1  104544       0 3333.33  0.0000  0.0000-1.00000
FORCE          1  104545       0 3333.33  0.0000  0.0000-1.00000
FORCE          1  104546       0 3333.33  0.0000  0.0000-1.00000
FORCE          1  104547       0 3333.33  0.0000  0.0000-1.00000
FORCE          1  104548       0 3333.33  0.0000  0.0000-1.00000
FORCE          1  104549       0 3333.33  0.0000  0.0000-1.00000
FORCE          1  104550       0 3333.33  0.0000  0.0000-1.00000
FORCE          1  104551       0 3333.33  0.0000  0.0000-1.00000
FORCE          1  104552       0 3333.33  0.0000  0.0000-1.00000
FORCE          1  104553       0 3333.33  0.0000  0.0000-1.00000
FORCE          1  104554       0 3333.33  0.0000  0.0000-1.00000
FORCE          1  104555       0 3333.33  0.0000  0.0000-1.00000
FORCE          1  104556       0 3333.33  0.0000  0.0000-1.00000
FORCE          1  104557       0 3333.33  0.0000  0.0000-1.00000
FORCE          1  104558       0 3333.33  0.0000  0.0000-1.00000
FORCE          1  104559       0 3333.33  0.0000  0.0000-1.00000
FORCE          1  104560       0 3333.33  0.0000  0.0000-1.00000
FORCE          1  104561       0 3333.33  0.0000  0.0000-1.00000
FORCE          1  104562       0 3333.33  0.0000  0.0000-1.00000
FORCE          1  104563       0 3333.33  0.0000  0.0000-1.00000
FORCE          1  104564       0 3333.33  0.0000  0.0000-1.00000
FORCE          1  104565       0 3333.33  0.0000  0.0000-1.00000
FORCE          1  104566       0 3333.33  0.0000  0.0000-1.00000
FORCE          1  104567       0 3333.33  0.0000  0.0000-1.00000
FORCE          1  104568       0 3333.33  0.0000  0.0000-1.00000
FORCE          1  104569       0 3333.33  0.0000  0.0000-1.00000
FORCE          1  105766       0 6666.67  0.0000  0.0000-1.00000
FORCE          1  105767       0 6666.67  0.0000  0.0000-1.00000
FORCE          1  105768       0 6666.67  0.0000  0.0000-1.00000
FORCE          1  105769       0 6666.67  0.0000  0.0000-1.00000
FORCE          1  105770       0 6666.67  0.0000  0.0000-1.00000
FORCE          1  105771       0 6666.67  0.0000  0.0000-1.00000
FORCE          1  105772       0 6666.67  0.0000  0.0000-1.00000
FORCE          1  105773       0 6666.67  0.0000  0.0000-1.00000
FORCE          1  105774       0 6666.67  0.0000  0.0000-1.00000
FORCE          1  105775       0 6666.67  0.0000  0.0000-1.00000
FORCE          1  105776       0 6666.67  0.0000  0.0000-1.00000
FORCE          1  105777       0 6666.67  0.0000  0.0000-1.00000
FORCE          1  105778       0 6666.67  0.0000  0.0000-1.00000
FORCE          1  105779       0 6666.67  0.0000  0.0000-1.00000
FORCE          1  105780       0 6666.67  0.0000  0.0000-1.00000
FORCE          1  105781       0 6666.67  0.0000  0.0000-1.00000
FORCE          1  105782       0 6666.67  0.0000  0.0000-1.00000
FORCE          1  105783       0 6666.67  0.0000  0.0000-1.00000
FORCE          1  105784       0 6666.67  0.0000  0.0000-1.00000
FORCE          1  105785       0 6666.67  0.0000  0.0000-1.00000
FORCE          1  105786       0 6666.67  0.0000  0.0000-1.00000
FORCE          1  105787       0 6666.67  0.0000  0.0000-1.00000
FORCE          1  105788       0 6666.67  0.0000  0.0000-1.00000
FORCE          1  105789       0 6666.67  0.0000  0.0000-1.00000
FORCE          1  105790       0 6666.67  0.0000  0.0000-1.00000
FORCE          1  105791       0 6666.67  0.0000  0.0000-1.00000
FORCE          1  105792       0 6666.67  0.0000  0.0000-1.00000
FORCE          1  105793       0 6666.67  0.0000  0.0000-1.00000
FORCE          1  105794       0 6666.67  0.0000  0.0000-1.00000
FORCE          1  105795       0 6666.67  0.0000  0.0000-1.00000
FORCE          1  105796       0 6666.67  0.0000  0.0000-1.00000
FORCE          1  105797       0 6666.67  0.0000  0.0000-1.00000
FORCE          1  105798       0 6666.67  0.0000  0.0000-1.00000
FORCE          1  105799       0 6666.67  0.0000  0.0000-1.00000
FORCE          1  105800       0 6666.67  0.0000  0.0000-1.00000
FORCE          1  105801       0 6666.67  0.0000  0.0000-1.00000
FORCE          1  105802       0 6666.67  0.0000  0.0000-1.00000
FORCE          1  105803       0 6666.67  0.0000  0.0000-1.00000
FORCE          1  105804       0 6666.67  0.0000  0.0000-1.00000
FORCE          1  105805       0 6666.67  0.0000  0.0000-1.00000
FORCE          1  105806       0 6666.67  0.0000  0.0000-1.00000
FORCE          1  105807       0 6666.67  0.0000  0.0000-1.00000
FORCE          1  105808       0 6666.67  0.0000  0.0000-1.00000
FORCE          1  105809       0 6666.67  0.0000  0.0000-1.00000
FORCE          1  105810       0 6666.67  0.0000  0.0000-1.00000
FORCE          1  105811       0 6666.67  0.0000  0.0000-1.00000
FORCE          1  105812       0 6666.67  0.0000  0.0000-1.00000
FORCE          1  105813       0 6666.67  0.0000  0.0000-1.00000
FORCE          1  105814       0 6666.67  0.0000  0.0000-1.00000
FORCE          1  105815       0 6666.67  0.0000  0.0000-1.00000
FORCE          1  105816       0 6666.67  0.0000  0.0000-1.00000
FORCE          1  105817       0 6666.67  0.0000  0.0000-1.00000
FORCE          1  105818       0 6666.67  0.0000  0.0000-1.00000
FORCE          1  105819       0 6666.67  0.0000  0.0000-1.00000
FORCE          1  105820       0 6666.67  0.0000  0.0000-1.00000
FORCE          1  105821       0 6666.67  0.0000  0.0000-1.00000
FORCE          1  105822       0 6666.67  0.0000  0.0000-1.00000
FORCE          1  105823       0 6666.67  0.0000  0.0000-1.00000
FORCE          1  105824       0 6666.67  0.0000  0.0000-1.00000
FORCE          1  105825       0 6666.67  0.0000  0.0000-1.00000
FORCE          1  105826       0 6666.67  0.0000  0.0000-1.00000
FORCE          1  105827       0 6666.67  0.0000  0.0000-1.00000
FORCE          1  105828       0 6666.67  0.0000  0.0000-1.00000
FORCE          1  105829       0 6666.67  0.0000  0.0000-1.00000
FORCE          1  105830       0 6666.67  0.0000  0.0000-1.00000
FORCE          1  105831       0 6666.67  0.0000  0.0000-1.00000
FORCE          1  105832       0 6666.67  0.0000  0.0000-1.00000
FORCE          1  105833       0 6666.67  0.0000  0.0000-1.00000
FORCE          1  105834       0 6666.67  0.0000  0.0000-1.00000
FORCE          1  105835       0 6666.67  0.0000  0.0000-1.00000
FORCE          1  105836       0 6666.67  0.0000  0.0000-1.00000
FORCE          1  105837       0 6666.67  0.0000  0.0000-1.00000
FORCE          1  105838       0 6666.67  0.0000  0.0000-1.00000
FORCE          1  105839       0 6666.67  0.0000  0.0000-1.00000
FORCE          1  105840       0 6666.67  0.0000  0.0000-1.00000
FORCE          1  105841       0 6666.67  0.0000  0.0000-1.00000
FORCE          1  105842       0 6666.67  0.0000  0.0000-1.00000
FORCE          1  105843       0 6666.67  0.0000  0.0000-1.00000
FORCE          1  105844       0 6666.67  0.0000  0.0000-1.00000
FORCE          1  105845       0 6666.67  0.0000  0.0000-1.00000
FORCE          1  105846       0 6666.67  0.0000  0.0000-1.00000
FORCE          1  105847       0 6666.67  0.0000  0.0000-1.00000
FORCE          1  105848       0 6666.67  0.0000  0.0000-1.00000
FORCE          1  105849       0 6666.67  0.0000  0.0000-1.00000
FORCE          1  105850       0 6666.67  0.0000  0.0000-1.00000
FORCE          1  105851       0 6666.67  0.0000  0.0000-1.00000
FORCE          1  105852       0 6666.67  0.0000  0.0000-1.00000
FORCE          1  105853       0 6666.67  0.0000  0.0000-1.00000
FORCE          1  105854       0 6666.67  0.0000  0.0000-1.00000
FORCE          1  105855       0 6666.67  0.0000  0.0000-1.00000
FORCE          1  105856       0 6666.67  0.0000  0.0000-1.00000
FORCE          1  105857       0 6666.67  0.0000  0.0000-1.00000
FORCE          1  105858       0 6666.67  0.0000  0.0000-1.00000
FORCE          1  105859       0 6666.67  0.0000  0.0000-1.00000
FORCE          1  105860       0 6666.67  0.0000  0.0000-1.00000
FORCE          1  105861       0 6666.67  0.0000  0.0000-1.00000
FORCE          1  105862       0 6666.67  0.0000  0.0000-1.00000
FORCE          1  105863       0 6666.67  0.0000  0.0000-1.00000
FORCE          1  105864       0 6666.67  0.0000  0.0000-1.00000
FORCE          1  105865       0 6666.67  0.0000  0.0000-1.00000
FORCE          1  105866       0 6666.67  0.0000  0.0000-1.00000
FORCE          1  105867       0 6666.67  0.0000  0.0000-1.00000
FORCE          1  105868       0 6666.67  0.0000  0.0000-1.00000
FORCE          1  105869       0 6666.67  0.0000  0.0000-1.00000
FORCE          1  105870       0 6666.67  0.0000  0.0000-1.00000
FORCE          1  105871       0 6666.67  0.0000  0.0000-1.00000
FORCE          1  105872       0 6666.67  0.0000  0.0000-1.00000
FORCE          1  105873       0 6666.67  0.0000  0.0000-1.00000
FORCE          1  105874       0 6666.67  0.0000  0.0000-1.00000
FORCE          1  105875       0 6666.67  0.0000  0.0000-1.00000
FORCE          1  105876       0 6666.67  0.0000  0.0000-1.00000
FORCE          1  105877       0 6666.67  0.0000  0.0000-1.00000
FORCE          1  105878       0 6666.67  0.0000  0.0000-1.00000
FORCE          1  105879       0 6666.67  0.0000  0.0000-1.00000
FORCE          1  105880       0 6666.67  0.0000  0.0000-1.00000
FORCE          1  105881       0 6666.67  0.0000  0.0000-1.00000
FORCE          1  105882       0 6666.67  0.0000  0.0000-1.00000
FORCE          1  105883       0 6666.67  0.0000  0.0000-1.00000
FORCE          1  105884       0 6666.67  0.0000  0.0000-1.00000
FORCE          1  105885       0 6666.67  0.0000  0.0000-1.00000
FORCE          1  105886       0 6666.67  0.0000  0.0000-1.00000
FORCE          1  105887       0 6666.67  0.0000  0.0000-1.00000
FORCE          1  105888       0 6666.67  0.0000  0.0000-1.00000
FORCE          1  105889       0 6666.67  0.0000  0.0000-1.00000
FORCE          1  105890       0 6666.67  0.0000  0.0000-1.00000
FORCE          1  105891       0 6666.67  0.0000  0.0000-1.00000
FORCE          1  105892       0 6666.67  0.0000  0.0000-1.00000
FORCE          1  105893       0 6666.67  0.0000  0.0000-1.00000
FORCE          1  105894       0 6666.67  0.0000  0.0000-1.00000
FORCE          1  105895       0 6666.67  0.0000  0.0000-1.00000
FORCE          1  105896       0 6666.67  0.0000  0.0000-1.00000
FORCE          1  105897       0 6666.67  0.0000  0.0000-1.00000
FORCE          1  105898       0 6666.67  0.0000  0.0000-1.00000
FORCE          1  105899       0 6666.67  0.0000  0.0000-1.00000
FORCE          1  105900       0 6666.67  0.0000  0.0000-1.00000
FORCE          1  105901       0 6666.67  0.0000  0.0000-1.00000
FORCE          1  105902       0 6666.67  0.0000  0.0000-1.00000
FORCE          1  105903       0 6666.67  0.0000  0.0000-1.00000
FORCE          1  105904       0 6666.67  0.0000  0.0000-1.00000
FORCE          1  105905       0 6666.67  0.0000  0.0000-1.00000
FORCE          1  105906       0 6666.67  0.0000  0.0000-1.00000
FORCE          1  105907       0 6666.67  0.0000  0.0000-1.00000
FORCE          1  105908       0 6666.67  0.0000  0.0000-1.00000
FORCE          1  105909       0 6666.67  0.0000  0.0000-1.00000
FORCE          1  105910       0 6666.67  0.0000  0.0000-1.00000
FORCE          1  105911       0 6666.67  0.0000  0.0000-1.00000
FORCE          1  105912       0 6666.67  0.0000  0.0000-1.00000
FORCE          1  105913       0 6666.67  0.0000  0.0000-1.00000
FORCE          1  105914       0 6666.67  0.0000  0.0000-1.00000
FORCE          1  105915       0 6666.67  0.0000  0.0000-1.00000
FORCE          1  105916       0 6666.67  0.0000  0.0000-1.00000
FORCE          1  105917       0 6666.67  0.0000  0.0000-1.00000
FORCE          1  105918       0 6666.67  0.0000  0.0000-1.00000
FORCE          1  105919       0 6666.67  0.0000  0.0000-1.00000
FORCE          1  105920       0 6666.67  0.0000  0.0000-1.00000
FORCE          1  105921       0 6666.67  0.0000  0.0000-1.00000
FORCE          1  105922       0 6666.67  0.0000  0.0000-1.00000
FORCE          1  105923       0 6666.67  0.0000  0.0000-1.00000
FORCE          1  105924       0 6666.67  0.0000  0.0000-1.00000
FORCE          1  105925       0 6666.67  0.0000  0.0000-1.00000
FORCE          1  105926       0 6666.67  0.0000  0.0000-1.00000
FORCE          1  105927       0 6666.67  0.0000  0.0000-1.00000
FORCE          1  105928       0 6666.67  0.0000  0.0000-1.00000
FORCE          1  105929       0 6666.67  0.0000  0.0000-1.00000
FORCE          1  105930       0 6666.67  0.0000  0.0000-1.00000
FORCE          1  105931       0 6666.67  0.0000  0.0000-1.00000
FORCE          1  105932       0 6666.67  0.0000  0.0000-1.00000
FORCE          1  105933       0 6666.67  0.0000  0.0000-1.00000
FORCE          1  105934       0 6666.67  0.0000  0.0000-1.00000
FORCE          1  105935       0 6666.67  0.0000  0.0000-1.00000
FORCE          1  105936       0 6666.67  0.0000  0.0000-1.00000
FORCE          1  105937       0 6666.67  0.0000  0.0000-1.00000
FORCE          1  105938       0 6666.67  0.0000  0.0000-1.00000
FORCE          1  105939       0 6666.67  0.0000  0.0000-1.00000
FORCE          1  105940       0 6666.67  0.0000  0.0000-1.00000
FORCE          1  105941       0 6666.67  0.0000  0.0000-1.00000
FORCE          1  105942       0 6666.67  0.0000  0.0000-1.00000
FORCE          1  105943       0 6666.67  0.0000  0.0000-1.00000
FORCE          1  105944       0 6666.67  0.0000  0.0000-1.00000
FORCE          1  105945       0 6666.67  0.0000  0.0000-1.00000
FORCE          1  105946       0 6666.67  0.0000  0.0000-1.00000
FORCE          1  105947       0 6666.67  0.0000  0.0000-1.00000
FORCE          1  105948       0 6666.67  0.0000  0.0000-1.00000
FORCE          1  105949       0 6666.67  0.0000  0.0000-1.00000
FORCE          1  105950       0 6666.67  0.0000  0.0000-1.00000
FORCE          1  105951       0 6666.67  0.0000  0.0000-1.00000
FORCE          1  105952       0 6666.67  0.0000  0.0000-1.00000
FORCE          1  105953       0 6666.67  0.0000  0.0000-1.00000
FORCE          1  105954       0 6666.67  0.0000  0.0000-1.00000
FORCE          1  105955       0 6666.67  0.0000  0.0000-1.00000
FORCE          1  105956       0 6666.67  0.0000  0.0000-1.00000
FORCE          1  105957       0 6666.67  0.0000  0.0000-1.00000
FORCE          1  105958       0 6666.67  0.0000  0.0000-1.00000
FORCE          1  105959       0 6666.67  0.0000  0.0000-1.00000
FORCE          1  105960       0 6666.67  0.0000  0.0000-1.00000
FORCE          1  105961       0 6666.67  0.0000  0.0000-1.00000
FORCE          1  105962       0 6666.67  0.0000  0.0000-1.00000
FORCE          1  105963       0 6666.67  0.0000  0.0000-1.00000
FORCE          1  105964       0 6666.67  0.0000  0.0000-1.00000
FORCE          1  105965       0 6666.67  0.0000  0.0000-1.00000
FORCE          1  105966       0 6666.67  0.0000  0.0000-1.00000
FORCE          1  105967       0 6666.67  0.0000  0.0000-1.00000
FORCE          1  105968       0 6666.67  0.0000  0.0000-1.00000
FORCE          1  105969       0 6666.67  0.0000  0.0000-1.00000
FORCE          1  105970       0 6666.67  0.0000  0.0000-1.00000
FORCE          1  105971       0 6666.67  0.0000  0.0000-1.00000
FORCE          1  105972       0 6666.67  0.0000  0.0000-1.00000
FORCE          1  105973       0 6666.67  0.0000  0.0000-1.00000
FORCE          1  105974       0 6666.67  0.0000  0.0000-1.00000
FORCE          1  105975       0 6666.67  0.0000  0.0000-1.00000
FORCE          1  105976       0 6666.67  0.0000  0.0000-1.00000
FORCE          1  105977       0 6666.67  0.0000  0.0000-1.00000
FORCE          1  105978       0 6666.67  0.0000  0.0000-1.00000
FORCE          1  105979       0 6666.67  0.0000  0.0000-1.00000
FORCE          1  105980       0 6666.67  0.0000  0.0000-1.00000
FORCE          1  105981       0 6666.67  0.0000  0.0000-1.00000
FORCE          1  105982       0 6666.67  0.0000  0.0000-1.00000
FORCE          1  105983       0 6666.67  0.0000  0.0000-1.00000
FORCE          1  105984       0 6666.67  0.0000  0.0000-1.00000
FORCE          1  105985       0 6666.67  0.0000  0.0000-1.00000
FORCE          1  105986       0 6666.67  0.0000  0.0000-1.00000
FORCE          1  105987       0 6666.67  0.0000  0.0000-1.00000
FORCE          1  105988       0 6666.67  0.0000  0.0000-1.00000
FORCE          1  105989       0 6666.67  0.0000  0.0000-1.00000
FORCE          1  105990       0 6666.67  0.0000  0.0000-1.00000
FORCE          1  105991       0 6666.67  0.0000  0.0000-1.00000
FORCE          1  105992       0 6666.67  0.0000  0.0000-1.00000
FORCE          1  105993       0 6666.67  0.0000  0.0000-1.00000
FORCE          1  105994       0 6666.67  0.0000  0.0000-1.00000
FORCE          1  105995       0 6666.67  0.0000  0.0000-1.00000
FORCE          1  105996       0 6666.67  0.0000  0.0000-1.00000
FORCE          1  105997       0 6666.67  0.0000  0.0000-1.00000
FORCE          1  105998       0 6666.67  0.0000  0.0000-1.00000
FORCE          1  105999       0 6666.67  0.0000  0.0000-1.00000
FORCE          1  106000       0 6666.67  0.0000  0.0000-1.00000
FORCE          1  106001       0 6666.67  0.0000  0.0000-1.00000
FORCE          1  106002       0 6666.67  0.0000  0.0000-1.00000
FORCE          1  106003       0 6666.67  0.0000  0.0000-1.00000
FORCE          1  106004       0 6666.67  0.0000  0.0000-1.00000
FORCE          1  106005       0 6666.67  0.0000  0.0000-1.00000
FORCE          1  106006       0 6666.67  0.0000  0.0000-1.00000
FORCE          1  106007       0 6666.67  0.0000  0.0000-1.00000
FORCE          1  106008       0 6666.67  0.0000  0.0000-1.00000
FORCE          1  106009       0 6666.67  0.0000  0.0000-1.00000
FORCE          1  106010       0 6666.67  0.0000  0.0000-1.00000
FORCE          1  106011       0 6666.67  0.0000  0.0000-1.00000
FORCE          1  106012       0 6666.67  0.0000  0.0000-1.00000
FORCE          1  106013       0 6666.67  0.0000  0.0000-1.00000
FORCE          1  106014       0 6666.67  0.0000  0.0000-1.00000
FORCE          1  106015       0 6666.67  0.0000  0.0000-1.00000
FORCE          1  106016       0 6666.67  0.0000  0.0000-1.00000
FORCE          1  106017       0 6666.67  0.0000  0.0000-1.00000
FORCE          1  106018       0 6666.67  0.0000  0.0000-1.00000
FORCE          1  106019       0 6666.67  0.0000  0.0000-1.00000
FORCE          1  106020       0 6666.67  0.0000  0.0000-1.00000
FORCE          1  106021       0 6666.67  0.0000  0.0000-1.00000
FORCE          1  106022       0 6666.67  0.0000  0.0000-1.00000
FORCE          1  106023       0 6666.67  0.0000  0.0000-1.00000
FORCE          1  106024       0 6666.67  0.0000  0.0000-1.00000
FORCE          1  106025       0 6666.67  0.0000  0.0000-1.00000
FORCE          1  106026       0 6666.67  0.0000  0.0000-1.00000
FORCE          1  106027       0 6666.67  0.0000  0.0000-1.00000
FORCE          1  106028       0 6666.67  0.0000  0.0000-1.00000
FORCE          1  106029       0 6666.67  0.0000  0.0000-1.00000
FORCE          1  106030       0 6666.67  0.0000  0.0000-1.00000
FORCE          1  106031       0 6666.67  0.0000  0.0000-1.00000
FORCE          1  106032       0 6666.67  0.0000  0.0000-1.00000
FORCE          1  106033       0 6666.67  0.0000  0.0000-1.00000
FORCE          1  106034       0 6666.67  0.0000  0.0000-1.00000
FORCE          1  106035       0 6666.67  0.0000  0.0000-1.00000
FORCE          1  106036       0 6666.67  0.0000  0.0000-1.00000
FORCE          1  106037       0 6666.67  0.0000  0.0000-1.00000
FORCE          1  106038       0 6666.67  0.0000  0.0000-1.00000
FORCE          1  106039       0 6666.67  0.0000  0.0000-1.00000
FORCE          1  106040       0 6666.67  0.0000  0.0000-1.00000
FORCE          1  106041       0 6666.67  0.0000  0.0000-1.00000
FORCE          1  106042       0 6666.67  0.0000  0.0000-1.00000
FORCE          1  106043       0 6666.67  0.0000  0.0000-1.00000
FORCE          1  106044       0 6666.67  0.0000  0.0000-1.00000
FORCE          1  106045       0 6666.67  0.0000  0.0000-1.00000
FORCE          1  106046       0 6666.67  0.0000  0.0000-1.00000
FORCE          1  106047       0 6666.67  0.0000  0.0000-1.00000
FORCE          1  106048       0 6666.67  0.0000  0.0000-1.00000
FORCE          1  106049       0 6666.67  0.0000  0.0000-1.00000
FORCE          1  106050       0 6666.67  0.0000  0.0000-1.00000
FORCE          1  106051       0 6666.67  0.0000  0.0000-1.00000
FORCE          1  106052       0 6666.67  0.0000  0.0000-1.00000
FORCE          1  106053       0 6666.67  0.0000  0.0000-1.00000
FORCE          1  106054       0 6666.67  0.0000  0.0000-1.00000
FORCE          1  106055       0 6666.67  0.0000  0.0000-1.00000
FORCE          1  106056       0 6666.67  0.0000  0.0000-1.00000
FORCE          1  106057       0 6666.67  0.0000  0.0000-1.00000
FORCE          1  106058       0 6666.67  0.0000  0.0000-1.00000
FORCE          1  106059       0 6666.67  0.0000  0.0000-1.00000
FORCE          1  106060       0 6666.67  0.0000  0.0000-1.00000
FORCE          1  106061       0 6666.67  0.0000  0.0000-1.00000
FORCE          1  106062       0 6666.67  0.0000  0.0000-1.00000
FORCE          1  106063       0 6666.67  0.0000  0.0000-1.00000
FORCE          1  106064       0 6666.67  0.0000  0.0000-1.00000
FORCE          1  106065       0 6666.67  0.0000  0.0000-1.00000
FORCE          1  106066       0 6666.67  0.0000  0.0000-1.00000
FORCE          1  106067       0 6666.67  0.0000  0.0000-1.00000
FORCE          1  106068       0 6666.67  0.0000  0.0000-1.00000
FORCE          1  106069       0 6666.67  0.0000  0.0000-1.00000
FORCE          1  106070       0 6666.67  0.0000  0.0000-1.00000
FORCE          1  106071       0 6666.67  0.0000  0.0000-1.00000
FORCE          1  106072       0 6666.67  0.0000  0.0000-1.00000
FORCE          1  106073       0 6666.67  0.0000  0.0000-1.00000
FORCE          1  106074       0 6666.67  0.0000  0.0000-1.00000
FORCE          1  106075       0 6666.67  0.0000  0.0000-1.00000
FORCE          1  106076       0 6666.67  0.0000  0.0000-1.00000
FORCE          1  106077       0 6666.67  0.0000  0.0000-1.00000
FORCE          1  106078       0 6666.67  0.0000  0.0000-1.00000
FORCE          1  106079       0 6666.67  0.0000  0.0000-1.00000
FORCE          1  106080       0 6666.67  0.0000  0.0000-1.00000
FORCE          1  106081       0 6666.67  0.0000  0.0000-1.00000
FORCE          1  106082       0 6666.67  0.0000  0.0000-1.00000
FORCE          1  106083       0 6666.67  0.0000  0.0000-1.00000
FORCE          1  106084       0 6666.67  0.0000  0.0000-1.00000
FORCE          1  106085       0 6666.67  0.0000  0.0000-1.00000
FORCE          1  106086       0 6666.67  0.0000  0.0000-1.00000
FORCE          1  106087       0 6666.67  0.0000  0.0000-1.00000
FORCE          1  106088       0 6666.67  0.0000  0.0000-1.00000
FORCE          1  106089       0 6666.67  0.0000  0.0000-1.00000
FORCE          1  106090       0 6666.67  0.0000  0.0000-1.00000
FORCE          1  106091       0 6666.67  0.0000  0.0000-1.00000
FORCE          1  106092       0 6666.67  0.0000  0.0000-1.00000
FORCE          1  106093       0 6666.67  0.0000  0.0000-1.00000
FORCE          1  106094       0 6666.67  0.0000  0.0000-1.00000
FORCE          1  106095       0 6666.67  0.0000  0.0000-1.00000
FORCE          1  106096       0 6666.67  0.0000  0.0000-1.00000
FORCE          1  106097       0 6666.67  0.0000  0.0000-1.00000
FORCE          1  106098       0 6666.67  0.0000  0.0000-1.00000
FORCE          1  106099       0 6666.67  0.0000  0.0000-1.00000
FORCE          1  106100       0 6666.67  0.0000  0.0000-1.00000
FORCE          1  106101       0 6666.67  0.0000  0.0000-1.00000
FORCE          1  106102       0 6666.67  0.0000  0.0000-1.00000
FORCE          1  106103       0 6666.67  0.0000  0.0000-1.00000
FORCE          1  106104       0 6666.67  0.0000  0.0000-1.00000
FORCE          1  106105       0 6666.67  0.0000  0.0000-1.00000
FORCE          1  106106       0 6666.67  0.0000  0.0000-1.00000
FORCE          1  106107       0 6666.67  0.0000  0.0000-1.00000
FORCE          1  106108       0 6666.67  0.0000  0.0000-1.00000
FORCE          1  106109       0 6666.67  0.0000  0.0000-1.00000
FORCE          1  106110       0 6666.67  0.0000  0.0000-1.00000
FORCE          1  106111       0 6666.67  0.0000  0.0000-1.00000
FORCE          1  106112       0 6666.67  0.0000  0.0000-1.00000
FORCE          1  106113       0 6666.67  0.0000  0.0000-1.00000
FORCE          1  106114       0 6666.67  0.0000  0.0000-1.00000
FORCE          1  106115       0 6666.67  0.0000  0.0000-1.00000
FORCE          1  106116       0 6666.67  0.0000  0.0000-1.00000
FORCE          1  106117       0 6666.67  0.0000  0.0000-1.00000
FORCE          1  106118       0 6666.67  0.0000  0.0000-1.00000
FORCE          1  106119       0 6666.67  0.0000  0.0000-1.00000
FORCE          1  106120       0 6666.67  0.0000  0.0000-1.00000
FORCE          1  106121       0 6666.67  0.0000  0.0000-1.00000
FORCE          1  106122       0 6666.67  0.0000  0.0000-1.00000
FORCE          1  106123       0 6666.67  0.0000  0.0000-1.00000
FORCE          1  106124       0 6666.67  0.0000  0.0000-1.00000
FORCE          1  106125       0 6666.67  0.0000  0.0000-1.00000
FORCE          1  106126       0 6666.67  0.0000  0.0000-1.00000
FORCE          1  106127       0 6666.67  0.0000  0.0000-1.00000
FORCE          1  106128       0 6666.67  0.0000  0.0000-1.00000
FORCE          1  106129       0 6666.67  0.0000  0.0000-1.00000
FORCE          1  106130       0 6666.67  0.0000  0.0000-1.00000
FORCE          1  106131       0 6666.67  0.0000  0.0000-1.00000
FORCE          1  106132       0 6666.67  0.0000  0.0000-1.00000
FORCE          1  106133       0 6666.67  0.0000  0.0000-1.00000
FORCE          1  106134       0 6666.67  0.0000  0.0000-1.00000
FORCE          1  106135       0 6666.67  0.0000  0.0000-1.00000
FORCE          1  106136       0 6666.67  0.0000  0.0000-1.00000
FORCE          1  106137       0 6666.67  0.0000  0.0000-1.00000
FORCE          1  106138       0 6666.67  0.0000  0.0000-1.00000
FORCE          1  106139       0 6666.67  0.0000  0.0000-1.00000
FORCE          1  106140       0 6666.67  0.0000  0.0000-1.00000
FORCE          1  106141       0 6666.67  0.0000  0.0000-1.00000
FORCE          1  106142       0 6666.67  0.0000  0.0000-1.00000
FORCE          1  106143       0 6666.67  0.0000  0.0000-1.00000
FORCE          1  106144       0 6666.67  0.0000  0.0000-1.00000
FORCE          1  106145       0 6666.67  0.0000  0.0000-1.00000
FORCE          1  106146       0 6666.67  0.0000  0.0000-1.00000
FORCE          1  106147       0 6666.67  0.0000  0.0000-1.00000
FORCE          1  106148       0 6666.67  0.0000  0.0000-1.00000
FORCE          1  106149       0 6666.67  0.0000  0.0000-1.00000
FORCE          1  106150       0 6666.67  0.0000  0.0000-1.00000
FORCE          1  106151       0 6666.67  0.0000  0.0000-1.00000
FORCE          1  106152       0 6666.67  0.0000  0.0000-1.00000
FORCE          1  106153       0 6666.67  0.0000  0.0000-1.00000
FORCE          1  106154       0 6666.67  0.0000  0.0000-1.00000
FORCE          1  106155       0 6666.67  0.0000  0.0000-1.00000
FORCE          1  106156       0 6666.67  0.0000  0.0000-1.00000
FORCE          1  106157       0 6666.67  0.0000  0.0000-1.00000
FORCE          1  106158       0 6666.67  0.0000  0.0000-1.00000
FORCE          1  106159       0 6666.67  0.0000  0.0000-1.00000
FORCE          1  106160       0 6666.67  0.0000  0.0000-1.00000
FORCE          1  106161       0 6666.67  0.0000  0.0000-1.00000
FORCE          1  106162       0 6666.67  0.0000  0.0000-1.00000
FORCE          1  106163       0 6666.67  0.0000  0.0000-1.00000
FORCE          1  106164       0 6666.67  0.0000  0.0000-1.00000
FORCE          1  106165       0 6666.67  0.0000  0.0000-1.00000
FORCE          1  106166       0 6666.67  0.0000  0.0000-1.00000
FORCE          1  106167       0 6666.67  0.0000  0.0000-1.00000
FORCE          1  106168       0 6666.67  0.0000  0.0000-1.00000
FORCE          1  106169       0 6666.67  0.0000  0.0000-1.00000
FORCE          1  106170       0 6666.67  0.0000  0.0000-1.00000
FORCE          1  106171       0 6666.67  0.0000  0.0000-1.00000
FORCE          1  106172       0 6666.67  0.0000  0.0000-1.00000
FORCE          1  106173       0 6666.67  0.0000  0.0000-1.00000
FORCE          1  106174       0 6666.67  0.0000  0.0000-1.00000
FORCE          1  106175       0 6666.67  0.0000  0.0000-1.00000
FORCE          1  106176       0 6666.67  0.0000  0.0000-1.00000
FORCE          1  106177       0 6666.67  0.0000  0.0000-1.00000
FORCE          1  106178       0 6666.67  0.0000  0.0000-1.00000
FORCE          1  106179       0 6666.67  0.0000  0.0000-1.00000
FORCE          1  106180       0 6666.67  0.0000  0.0000-1.00000
FORCE          1  106181       0 6666.67  0.0000  0.0000-1.00000
FORCE          1  106182       0 6666.67  0.0000  0.0000-1.00000
FORCE          1  106183       0 6666.67  0.0000  0.0000-1.00000
FORCE          1  106184       0 6666.67  0.0000  0.0000-1.00000
FORCE          1  106185       0 6666.67  0.0000  0.0000-1.00000
FORCE          1  106186       0 6666.67  0.0000  0.0000-1.00000
FORCE          1  106187       0 6666.67  0.0000  0.0000-1.00000
FORCE          1  106188       0 6666.67  0.0000  0.0000-1.00000
FORCE          1  106189       0 6666.67  0.0000  0.0000-1.00000
FORCE          1  106190       0 6666.67  0.0000  0.0000-1.00000
FORCE          1  106191       0 6666.67  0.0000  0.0000-1.00000
FORCE          1  106192       0 6666.67  0.0000  0.0000-1.00000
FORCE          1  106193       0 6666.67  0.0000  0.0000-1.00000
FORCE          1  106194       0 6666.67  0.0000  0.0000-1.00000
FORCE          1  106195       0 6666.67  0.0000  0.0000-1.00000
FORCE          1  106196       0 6666.67  0.0000  0.0000-1.00000
FORCE          1  106197       0 6666.67  0.0000  0.0000-1.00000
FORCE          1  106198       0 6666.67  0.0000  0.0000-1.00000
FORCE          1  106199       0 6666.67  0.0000  0.0000-1.00000
FORCE          1  106200       0 6666.67  0.0000  0.0000-1.00000
FORCE          1  106201       0 6666.67  0.0000  0.0000-1.00000
FORCE          1  106202       0 6666.67  0.0000  0.0000-1.00000
FORCE          1  106203       0 6666.67  0.0000  0.0000-1.00000
FORCE          1  106204       0 6666.67  0.0000  0.0000-1.00000
FORCE          1  106205       0 6666.67  0.0000  0.0000-1.00000
FORCE          1  106206       0 6666.67  0.0000  0.0000-1.00000
FORCE          1  106207       0 6666.67  0.0000  0.0000-1.00000
FORCE          1  106208       0 6666.67  0.0000  0.0000-1.00000
FORCE          1  106209       0 6666.67  0.0000  0.0000-1.00000
FORCE          1  106210       0 6666.67  0.0000  0.0000-1.00000
FORCE          1  106211       0 6666.67  0.0000  0.0000-1.00000
FORCE          1  106212       0 6666.67  0.0000  0.0000-1.00000
FORCE          1  106213       0 6666.67  0.0000  0.0000-1.00000
FORCE          1  106214       0 6666.67  0.0000  0.0000-1.00000
FORCE          1  106215       0 6666.67  0.0000  0.0000-1.00000
FORCE          1  106216       0 6666.67  0.0000  0.0000-1.00000
FORCE          1  106217       0 6666.67  0.0000  0.0000-1.00000
FORCE          1  106218       0 6666.67  0.0000  0.0000-1.00000
FORCE          1  106219       0 6666.67  0.0000  0.0000-1.00000
FORCE          1  106220       0 6666.67  0.0000  0.0000-1.00000
FORCE          1  106221       0 6666.67  0.0000  0.0000-1.00000
FORCE          1  106222       0 6666.67  0.0000  0.0000-1.00000
FORCE          1  106223       0 6666.67  0.0000  0.0000-1.00000
FORCE          1  106224       0 6666.67  0.0000  0.0000-1.00000
FORCE          1  106225       0 6666.67  0.0000  0.0000-1.00000
FORCE          1  106226       0 6666.67  0.0000  0.0000-1.00000
FORCE          1  106227       0 6666.67  0.0000  0.0000-1.00000
FORCE          1  106228       0 6666.67  0.0000  0.0000-1.00000
FORCE          1  106229       0 6666.67  0.0000  0.0000-1.00000
FORCE          1  106230       0 6666.67  0.0000  0.0000-1.00000
FORCE          1  106231       0 6666.67  0.0000  0.0000-1.00000
FORCE          1  106232       0 6666.67  0.0000  0.0000-1.00000
FORCE          1  106233       0 6666.67  0.0000  0.0000-1.00000
FORCE          1  106234       0 6666.67  0.0000  0.0000-1.00000
FORCE          1  106235       0 6666.67  0.0000  0.0000-1.00000
FORCE          1  106236       0 6666.67  0.0000  0.0000-1.00000
FORCE          1  106237       0 6666.67  0.0000  0.0000-1.00000
FORCE          1  106238       0 6666.67  0.0000  0.0000-1.00000
FORCE          1  106239       0 6666.67  0.0000  0.0000-1.00000
FORCE          1  106240       0 6666.67  0.0000  0.0000-1.00000
FORCE          1  106241       0 6666.67  0.0000  0.0000-1.00000
FORCE          1  106242       0 6666.67  0.0000  0.0000-1.00000
FORCE          1  106243       0 6666.67  0.0000  0.0000-1.00000
FORCE          1  106244       0 6666.67  0.0000  0.0000-1.00000
FORCE          1  106245       0 6666.67  0.0000  0.0000-1.00000
FORCE          1  106246       0 6666.67  0.0000  0.0000-1.00000
FORCE          1  106247       0 6666.67  0.0000  0.0000-1.00000
FORCE          1  106248       0 6666.67  0.0000  0.0000-1.00000
FORCE          1  106249       0 6666.67  0.0000  0.0000-1.00000
FORCE          1  106250       0 6666.67  0.0000  0.0000-1.00000
FORCE          1  106251       0 6666.67  0.0000  0.0000-1.00000
FORCE          1  106252       0 6666.67  0.0000  0.0000-1.00000
FORCE          1  106253       0 6666.67  0.0000  0.0000-1.00000
FORCE          1  106254       0 6666.67  0.0000  0.0000-1.00000
FORCE          1  106255       0 6666.67  0.0000  0.0000-1.00000
FORCE          1  106256       0 6666.67  0.0000  0.0000-1.00000
FORCE          1  106257       0 6666.67  0.0000  0.0000-1.00000
FORCE          1  106258       0 6666.67  0.0000  0.0000-1.00000
FORCE          1  106259       0 6666.67  0.0000  0.0000-1.00000
FORCE          1  106260       0 6666.67  0.0000  0.0000-1.00000
FORCE          1  106261       0 6666.67  0.0000  0.0000-1.00000
FORCE          1  106262       0 6666.67  0.0000  0.0000-1.00000
FORCE          1  106263       0 6666.67  0.0000  0.0000-1.00000
FORCE          1  106264       0 6666.67  0.0000  0.0000-1.00000
FORCE          1  106265       0 6666.67  0.0000  0.0000-1.00000
FORCE          1  106266       0 6666.67  0.0000  0.0000-1.00000
FORCE          1  106267       0 6666.67  0.0000  0.0000-1.00000
FORCE          1  106268       0 6666.67  0.0000  0.0000-1.00000
FORCE          1  106269       0 6666.67  0.0000  0.0000-1.00000
FORCE          1  106270       0 6666.67  0.0000  0.0000-1.00000
FORCE          1  106271       0 6666.67  0.0000  0.0000-1.00000
FORCE          1  106272       0 6666.67  0.0000  0.0000-1.00000
FORCE          1  106273       0 6666.67  0.0000  0.0000-1.00000
FORCE          1  106274       0 6666.67  0.0000  0.0000-1.00000
FORCE          1  106275       0 6666.67  0.0000  0.0000-1.00000
FORCE          1  106276       0 6666.67  0.0000  0.0000-1.00000
FORCE          1  106277       0 6666.67  0.0000  0.0000-1.00000
FORCE          1  106278       0 6666.67  0.0000  0.0000-1.00000
FORCE          1  106279       0 6666.67  0.0000  0.0000-1.00000
FORCE          1  106280       0 6666.67  0.0000  0.0000-1.00000
FORCE          1  106281       0 6666.67  0.0000  0.0000-1.00000
FORCE          1  106282       0 6666.67  0.0000  0.0000-1.00000
FORCE          1  106283       0 6666.67  0.0000  0.0000-1.00000
FORCE          1  106284       0 6666.67  0.0000  0.0000-1.00000
FORCE          1  106285       0 6666.67  0.0000  0.0000-1.00000
FORCE          1  106286       0 6666.67  0.0000  0.0000-1.00000
FORCE          1  106287       0 6666.67  0.0000  0.0000-1.00000
FORCE          1  106288       0 6666.67  0.0000  0.0000-1.00000
FORCE          1  106289       0 6666.67  0.0000  0.0000-1.00000
FORCE          1  106290       0 6666.67  0.0000  0.0000-1.00000
FORCE          1  106291       0 6666.67  0.0000  0.0000-1.00000
FORCE          1  106292       0 6666.67  0.0000  0.0000-1.00000
FORCE          1  106293       0 6666.67  0.0000  0.0000-1.00000
FORCE          1  106294       0 6666.67  0.0000  0.0000-1.00000
FORCE          1  106295       0 6666.67  0.0000  0.0000-1.00000
FORCE          1  106296       0 6666.67  0.0000  0.0000-1.00000
FORCE          1  106297       0 6666.67  0.0000  0.0000-1.00000
FORCE          1  106298       0 6666.67  0.0000  0.0000-1.00000
FORCE          1  106299       0 6666.67  0.0000  0.0000-1.00000
FORCE          1  106300       0 6666.67  0.0000  0.0000-1.00000
FORCE          1  106301       0 6666.67  0.0000  0.0000-1.00000
FORCE          1  106302       0 6666.67  0.0000  0.0000-1.00000
FORCE          1  106303       0 6666.67  0.0000  0.0000-1.00000
FORCE          1  106304       0 6666.67  0.0000  0.0000-1.00000
FORCE          1  106305       0 6666.67  0.0000  0.0000-1.00000
FORCE          1  106306       0 6666.67  0.0000  0.0000-1.00000
FORCE          1  106307       0 6666.67  0.0000  0.0000-1.00000
FORCE          1  106308       0 6666.67  0.0000  0.0000-1.00000
FORCE          1  106309       0 6666.67  0.0000  0.0000-1.00000
FORCE          1  106310       0 6666.67  0.0000  0.0000-1.00000
FORCE          1  106311       0 6666.67  0.0000  0.0000-1.00000
FORCE          1  106312       0 6666.67  0.0000  0.0000-1.00000
FORCE          1  106313       0 6666.67  0.0000  0.0000-1.00000
FORCE          1  106314       0 6666.67  0.0000  0.0000-1.00000
FORCE          1  106315       0 6666.67  0.0000  0.0000-1.00000
FORCE          1  106316       0 6666.67  0.0000  0.0000-1.00000
FORCE          1  106317       0 6666.67  0.0000  0.0000-1.00000
FORCE          1  106318       0 6666.67  0.0000  0.0000-1.00000
FORCE          1  106319       0 6666.67  0.0000  0.0000-1.00000
FORCE          1  106320       0 6666.67  0.0000  0.0000-1.00000
FORCE          1  106321       0 6666.67  0.0000  0.0000-1.00000
FORCE          1  106322       0 6666.67  0.0000  0.0000-1.00000
FORCE          1  106323       0 6666.67  0.0000  0.0000-1.00000
FORCE          1  106324       0 6666.67  0.0000  0.0000-1.00000
FORCE          1  106325       0 6666.67  0.0000  0.0000-1.00000
FORCE          1  106326       0 6666.67  0.0000  0.0000-1.00000
FORCE          1  106327       0 6666.67  0.0000  0.0000-1.00000
FORCE          1  106328       0 6666.67  0.0000  0.0000-1.00000
FORCE          1  106329       0 6666.67  0.0000  0.0000-1.00000
FORCE          1  106330       0 6666.67  0.0000  0.0000-1.00000
FORCE          1  106331       0 6666.67  0.0000  0.0000-1.00000
FORCE          1  106332       0 6666.67  0.0000  0.0000-1.00000
FORCE          1  106333       0 6666.67  0.0000  0.0000-1.00000
FORCE          1  106334       0 6666.67  0.0000  0.0000-1.00000
FORCE          1  106335       0 6666.67  0.0000  0.0000-1.00000
FORCE          1  106336       0 6666.67  0.0000  0.0000-1.00000
FORCE          1  106337       0 6666.67  0.0000  0.0000-1.00000
FORCE          1  106338       0 6666.67  0.0000  0.0000-1.00000
FORCE          1  106339       0 6666.67  0.0000  0.0000-1.00000
FORCE          1  106340       0 6666.67  0.0000  0.0000-1.00000
FORCE          1  106341       0 6666.67  0.0000  0.0000-1.00000
FORCE          1  106342       0 6666.67  0.0000  0.0000-1.00000
FORCE          1  106343       0 6666.67  0.0000  0.0000-1.00000
FORCE          1  106344       0 6666.67  0.0000  0.0000-1.00000
FORCE          1  106345       0 6666.67  0.0000  0.0000-1.00000
FORCE          1  106346       0 6666.67  0.0000  0.0000-1.00000
FORCE          1  106347       0 6666.67  0.0000  0.0000-1.00000
FORCE          1  106348       0 6666.67  0.0000  0.0000-1.00000
FORCE          1  106349       0 6666.67  0.0000  0.0000-1.00000
FORCE          1  106350       0 6666.67  0.0000  0.0000-1.00000
FORCE          1  106351       0 6666.67  0.0000  0.0000-1.00000
FORCE          1  106352       0 6666.67  0.0000  0.0000-1.00000
FORCE          1  106353       0 6666.67  0.0000  0.0000-1.00000
FORCE          1  106354       0 6666.67  0.0000  0.0000-1.00000
FORCE          1  106355       0 6666.67  0.0000  0.0000-1.00000
FORCE          1  106356       0 6666.67  0.0000  0.0000-1.00000
FORCE          1  106357       0 6666.67  0.0000  0.0000-1.00000
FORCE          1  106358       0 6666.67  0.0000  0.0000-1.00000
FORCE          1  106359       0 6666.67  0.0000  0.0000-1.00000
FORCE          1  106360       0 6666.67  0.0000  0.0000-1.00000
FORCE          1  106361       0 6666.67  0.0000  0.0000-1.00000
FORCE          1  106362       0 6666.67  0.0000  0.0000-1.00000
FORCE          1  106363       0 6666.67  0.0000  0.0000-1.00000
$*  Load: Moment(1)
MOMENT         2   96922       04.4444+9-1.00000  0.0000  0.0000
MOMENT         2   96923       04.4444+9-1.00000  0.0000  0.0000
MOMENT         2   96924       04.4444+9-1.00000  0.0000  0.0000
MOMENT         2   96925       04.4444+9-1.00000  0.0000  0.0000
MOMENT         2   96926       08.8889+91.000000  0.0000  0.0000
MOMENT         2   96927       08.8889+91.000000  0.0000  0.0000
MOMENT         2   96928       08.8889+91.000000  0.0000  0.0000
MOMENT         2   96929       08.8889+91.000000  0.0000  0.0000
MOMENT         2   96930       08.8889+91.000000  0.0000  0.0000
MOMENT         2   96931       08.8889+91.000000  0.0000  0.0000
MOMENT         2   96932       08.8889+91.000000  0.0000  0.0000
MOMENT         2   96933       08.8889+91.000000  0.0000  0.0000
MOMENT         2   96934       08.8889+91.000000  0.0000  0.0000
MOMENT         2   96935       08.8889+91.000000  0.0000  0.0000
MOMENT         2   96936       08.8889+91.000000  0.0000  0.0000
MOMENT         2   96937       08.8889+91.000000  0.0000  0.0000
MOMENT         2   96938       02.2222+9-1.00000  0.0000  0.0000
MOMENT         2   96939       02.2222+9-1.00000  0.0000  0.0000
MOMENT         2   96940       04.4444+91.000000  0.0000  0.0000
MOMENT         2   96941       04.4444+91.000000  0.0000  0.0000
MOMENT         2   96942       04.4444+91.000000  0.0000  0.0000
MOMENT         2   96943       02.2222+9-1.00000  0.0000  0.0000
MOMENT         2   96944       02.2222+9-1.00000  0.0000  0.0000
MOMENT         2   96945       04.4444+91.000000  0.0000  0.0000
MOMENT         2   96946       04.4444+91.000000  0.0000  0.0000
MOMENT         2   96947       04.4444+91.000000  0.0000  0.0000
MOMENT         2   96948       02.2222+9-1.00000  0.0000  0.0000
MOMENT         2   96949       02.2222+9-1.00000  0.0000  0.0000
MOMENT         2   96950       04.4444+91.000000  0.0000  0.0000
MOMENT         2   96951       04.4444+91.000000  0.0000  0.0000
MOMENT         2   96952       04.4444+91.000000  0.0000  0.0000
MOMENT         2   96953       02.2222+9-1.00000  0.0000  0.0000
MOMENT         2   96954       02.2222+9-1.00000  0.0000  0.0000
MOMENT         2   96955       04.4444+91.000000  0.0000  0.0000
MOMENT         2   96956       04.4444+91.000000  0.0000  0.0000
MOMENT         2   96957       04.4444+91.000000  0.0000  0.0000
MOMENT         2   96958       01.1111+9-1.00000  0.0000  0.0000
MOMENT         2   96959       01.1111+9-1.00000  0.0000  0.0000
MOMENT         2   96960       01.1111+9-1.00000  0.0000  0.0000
MOMENT         2   96961       01.1111+9-1.00000  0.0000  0.0000
$*  Constraint: Fixed(1)
SPC            3   96962  123456  0.0000
SPC            3   96963  123456  0.0000
SPC            3   96964  123456  0.0000
SPC            3   96965  123456  0.0000
SPC            3   96966  123456  0.0000
SPC            3   96967  123456  0.0000
SPC            3   96968  123456  0.0000
SPC            3   96969  123456  0.0000
SPC            3   96970  123456  0.0000
SPC            3   96971  123456  0.0000
SPC            3   96972  123456  0.0000
SPC            3   96973  123456  0.0000
SPC            3   97770  123456  0.0000
SPC            3   97771  123456  0.0000
SPC            3   97772  123456  0.0000
SPC            3   97773  123456  0.0000
LOAD         1011.0000001.000000       11.000000       2
ENDDATA 196d7e5f
